! piloto_deriva / corto_deriva / r45
# HZ S RI R 50
50000.0 -9.985170000e-01 -3.767600000e-02
59500.0 -9.968270000e-01 -1.867300000e-02
69000.0 -9.969740000e-01 -7.258000000e-03
78500.0 -9.989150000e-01 -1.530000000e-03
88000.0 -9.989140000e-01 5.410000000e-04
97500.0 -9.994310000e-01 -2.580000000e-04
107000.0 -9.995240000e-01 -2.968000000e-03
116500.0 -9.999980000e-01 -5.982000000e-03
126000.0 -9.995930000e-01 -1.137800000e-02
135500.0 -1.000500000e+00 -1.672900000e-02
145000.0 -9.998040000e-01 -2.233400000e-02
154500.0 -1.000849000e+00 -3.016900000e-02
164000.0 -9.998710000e-01 -3.681800000e-02
173500.0 -1.000092000e+00 -4.369300000e-02
183000.0 -9.987760000e-01 -5.263600000e-02
192500.0 -1.000171000e+00 -6.007400000e-02
202000.0 -1.000121000e+00 -6.898500000e-02
211500.0 -1.001018000e+00 -7.756700000e-02
221000.0 -1.000451000e+00 -8.578000000e-02
230500.0 -1.001641000e+00 -9.465300000e-02
240000.0 -1.000600000e+00 -1.043350000e-01
249500.0 -1.037550000e+00 -9.008800000e-02
259000.0 -1.001451000e+00 -1.225600000e-01
268500.0 -1.001272000e+00 -1.310670000e-01
278000.0 -1.001839000e+00 -1.408430000e-01
287500.0 -1.002574000e+00 -1.504160000e-01
297000.0 -1.002403000e+00 -1.598340000e-01
306500.0 -1.002016000e+00 -1.688300000e-01
316000.0 -1.003097000e+00 -1.783810000e-01
325500.0 -1.002221000e+00 -1.881810000e-01
335000.0 -1.002910000e+00 -1.955470000e-01
344500.0 -1.003421000e+00 -2.061450000e-01
354000.0 -1.003816000e+00 -2.159700000e-01
363500.0 -1.004021000e+00 -2.255970000e-01
373000.0 -1.004233000e+00 -2.335390000e-01
382500.0 -1.004185000e+00 -2.421890000e-01
392000.0 -1.004975000e+00 -2.528320000e-01
401500.0 -1.004334000e+00 -2.618270000e-01
411000.0 -1.003989000e+00 -2.712620000e-01
420500.0 -1.004660000e+00 -2.808060000e-01
430000.0 -1.004413000e+00 -2.898040000e-01
439500.0 -1.005492000e+00 -2.987910000e-01
449000.0 -1.006054000e+00 -3.086850000e-01
458500.0 -1.006507000e+00 -3.181630000e-01
468000.0 -1.006355000e+00 -3.272850000e-01
477500.0 -1.006226000e+00 -3.359520000e-01
487000.0 -1.006422000e+00 -3.459550000e-01
496500.0 -1.006921000e+00 -3.549110000e-01
506000.0 -1.007489000e+00 -3.649910000e-01
515500.0 -1.007687000e+00 -3.740190000e-01
525000.0 -1.007319000e+00 -3.832230000e-01
534500.0 -1.008256000e+00 -3.924840000e-01
544000.0 -1.007452000e+00 -4.008960000e-01
553500.0 -1.009765000e+00 -4.102830000e-01
563000.0 -1.009567000e+00 -4.204110000e-01
572500.0 -1.009740000e+00 -4.285960000e-01
582000.0 -1.009826000e+00 -4.387690000e-01
591500.0 -1.010874000e+00 -4.467580000e-01
601000.0 -1.010072000e+00 -4.563040000e-01
610500.0 -1.011843000e+00 -4.656270000e-01
620000.0 -1.012315000e+00 -4.745970000e-01
629500.0 -1.011976000e+00 -4.831470000e-01
639000.0 -1.012236000e+00 -4.930340000e-01
648500.0 -1.014374000e+00 -5.028880000e-01
658000.0 -1.014742000e+00 -5.109870000e-01
667500.0 -1.015363000e+00 -5.199630000e-01
677000.0 -1.016028000e+00 -5.294070000e-01
686500.0 -1.016281000e+00 -5.378720000e-01
696000.0 -1.017317000e+00 -5.472140000e-01
705500.0 -1.018231000e+00 -5.559900000e-01
715000.0 -1.019010000e+00 -5.661620000e-01
724500.0 -1.019898000e+00 -5.735540000e-01
734000.0 -1.020528000e+00 -5.829320000e-01
743500.0 -1.021398000e+00 -5.917310000e-01
753000.0 -1.022153000e+00 -6.013510000e-01
762500.0 -1.023566000e+00 -6.101210000e-01
772000.0 -1.024980000e+00 -6.189350000e-01
781500.0 -1.026399000e+00 -6.284350000e-01
791000.0 -1.027461000e+00 -6.367730000e-01
800500.0 -1.028046000e+00 -6.439600000e-01
810000.0 -1.029463000e+00 -6.534460000e-01
819500.0 -1.030497000e+00 -6.627870000e-01
829000.0 -1.033730000e+00 -6.720650000e-01
838500.0 -1.033218000e+00 -6.799830000e-01
848000.0 -1.034209000e+00 -6.899070000e-01
857500.0 -1.035812000e+00 -6.990780000e-01
867000.0 -1.038028000e+00 -7.065990000e-01
876500.0 -1.040257000e+00 -7.157540000e-01
886000.0 -1.041584000e+00 -7.241650000e-01
895500.0 -1.044048000e+00 -7.328660000e-01
905000.0 -1.045329000e+00 -7.412210000e-01
914500.0 -1.046382000e+00 -7.504120000e-01
924000.0 -1.049094000e+00 -7.583680000e-01
933500.0 -1.051782000e+00 -7.665460000e-01
943000.0 -1.054283000e+00 -7.759270000e-01
952500.0 -1.055875000e+00 -7.845630000e-01
962000.0 -1.059378000e+00 -7.922620000e-01
971500.0 -1.061484000e+00 -8.011900000e-01
981000.0 -1.063449000e+00 -8.085900000e-01
990500.0 -1.066586000e+00 -8.189380000e-01
1000000.0 -1.069108000e+00 -8.271000000e-01
1090000.0 -1.096266000e+00 -9.042050000e-01
1180000.0 -1.136304000e+00 -9.785700000e-01
1270000.0 -1.184554000e+00 -1.044422000e+00
1360000.0 -1.240727000e+00 -1.105959000e+00
1450000.0 -1.310154000e+00 -1.159720000e+00
1540000.0 -1.386241000e+00 -1.192029000e+00
1630000.0 -1.471757000e+00 -1.212359000e+00
1720000.0 -1.564625000e+00 -1.210250000e+00
1810000.0 -1.654467000e+00 -1.188636000e+00
1900000.0 -1.736448000e+00 -1.142589000e+00
1990000.0 -1.809708000e+00 -1.074699000e+00
2080000.0 -1.865725000e+00 -9.986490000e-01
2170000.0 -1.900120000e+00 -9.123260000e-01
2260000.0 -1.917690000e+00 -8.206010000e-01
2350000.0 -1.915073000e+00 -7.268260000e-01
2440000.0 -1.901332000e+00 -6.415460000e-01
2530000.0 -1.872305000e+00 -5.665200000e-01
2620000.0 -1.837422000e+00 -4.973930000e-01
2710000.0 -1.800166000e+00 -4.369450000e-01
2800000.0 -1.757057000e+00 -3.841380000e-01
2890000.0 -1.713769000e+00 -3.385390000e-01
2980000.0 -1.673370000e+00 -3.016350000e-01
3070000.0 -1.632574000e+00 -2.703450000e-01
3160000.0 -1.593215000e+00 -2.426550000e-01
3250000.0 -1.556214000e+00 -2.161240000e-01
3340000.0 -1.521891000e+00 -1.917860000e-01
3430000.0 -1.487722000e+00 -1.726530000e-01
3520000.0 -1.456223000e+00 -1.549040000e-01
3610000.0 -1.428410000e+00 -1.384350000e-01
3700000.0 -1.401612000e+00 -1.225260000e-01
3790000.0 -1.377607000e+00 -1.067430000e-01
3880000.0 -1.354047000e+00 -9.449900000e-02
3970000.0 -1.334158000e+00 -8.080900000e-02
4060000.0 -1.312849000e+00 -6.686200000e-02
4150000.0 -1.294966000e+00 -5.487900000e-02
4240000.0 -1.278101000e+00 -4.334000000e-02
4330000.0 -1.261994000e+00 -2.969000000e-02
4420000.0 -1.247907000e+00 -1.953000000e-02
4510000.0 -1.235577000e+00 -5.965000000e-03
4600000.0 -1.223684000e+00 3.608000000e-03
4690000.0 -1.212781000e+00 1.491100000e-02
4780000.0 -1.202652000e+00 2.634600000e-02
4870000.0 -1.194442000e+00 3.725800000e-02
4960000.0 -1.186879000e+00 4.860000000e-02
5050000.0 -1.172065000e+00 5.833500000e-02
5140000.0 -1.166233000e+00 6.938400000e-02
5230000.0 -1.161098000e+00 8.078200000e-02
5320000.0 -1.156691000e+00 8.958900000e-02
5410000.0 -1.151703000e+00 1.010750000e-01
5500000.0 -1.147407000e+00 1.111510000e-01
5590000.0 -1.141889000e+00 1.212630000e-01
5680000.0 -1.139235000e+00 1.313700000e-01
5770000.0 -1.135741000e+00 1.392230000e-01
5860000.0 -1.131530000e+00 1.503370000e-01
5950000.0 -1.128821000e+00 1.594150000e-01
6040000.0 -1.125528000e+00 1.686010000e-01
6130000.0 -1.122646000e+00 1.771730000e-01
6220000.0 -1.119736000e+00 1.843580000e-01
6310000.0 -1.117418000e+00 1.919670000e-01
6400000.0 -1.115085000e+00 2.001260000e-01
6490000.0 -1.111867000e+00 2.061060000e-01
6580000.0 -1.110768000e+00 2.120380000e-01
6670000.0 -1.108645000e+00 2.192710000e-01
6760000.0 -1.106938000e+00 2.237600000e-01
6850000.0 -1.104932000e+00 2.289870000e-01
6940000.0 -1.104199000e+00 2.327160000e-01
7030000.0 -1.102996000e+00 2.362660000e-01
7120000.0 -1.104213000e+00 2.382040000e-01
7210000.0 -1.102319000e+00 2.410740000e-01
7300000.0 -1.101898000e+00 2.422020000e-01
7390000.0 -1.102099000e+00 2.422850000e-01
7480000.0 -1.101350000e+00 2.422330000e-01
7570000.0 1.962780000e-01 1.073518000e+00
7660000.0 1.952660000e-01 1.074219000e+00
7750000.0 1.940390000e-01 1.073696000e+00
7840000.0 1.924790000e-01 1.074593000e+00
7930000.0 1.915120000e-01 1.074711000e+00
8020000.0 1.915320000e-01 1.075708000e+00
8110000.0 1.899250000e-01 1.075935000e+00
8200000.0 1.910500000e-01 1.076091000e+00
8290000.0 1.893000000e-01 1.076036000e+00
8380000.0 1.885610000e-01 1.077001000e+00
8470000.0 1.879120000e-01 1.078011000e+00
8560000.0 1.867630000e-01 1.078084000e+00
8650000.0 1.864250000e-01 1.077779000e+00
8740000.0 1.863410000e-01 1.079006000e+00
8830000.0 1.850850000e-01 1.079264000e+00
8920000.0 1.847030000e-01 1.079885000e+00
9010000.0 1.833440000e-01 1.080283000e+00
9100000.0 1.829160000e-01 1.081717000e+00
9190000.0 1.814650000e-01 1.081327000e+00
9280000.0 1.818030000e-01 1.082436000e+00
9370000.0 1.807290000e-01 1.081676000e+00
9460000.0 1.806530000e-01 1.083537000e+00
9550000.0 1.792870000e-01 1.084501000e+00
9640000.0 1.793940000e-01 1.084214000e+00
9730000.0 1.783600000e-01 1.085714000e+00
9820000.0 1.776750000e-01 1.085440000e+00
9910000.0 1.768550000e-01 1.087368000e+00
10000000.0 1.770720000e-01 1.087592000e+00
10900000.0 1.699920000e-01 1.094484000e+00
11800000.0 1.627070000e-01 1.101597000e+00
12700000.0 1.573720000e-01 1.110291000e+00
13600000.0 1.510410000e-01 1.119277000e+00
14500000.0 1.457680000e-01 1.126744000e+00
15400000.0 1.376010000e-01 1.135650000e+00
16300000.0 1.307580000e-01 1.146320000e+00
17200000.0 1.240720000e-01 1.153473000e+00
18100000.0 1.165620000e-01 1.163987000e+00
19000000.0 1.097610000e-01 1.173070000e+00
19900000.0 1.013470000e-01 1.182384000e+00
20800000.0 9.347800000e-02 1.193154000e+00
21700000.0 8.540000000e-02 1.201557000e+00
22600000.0 7.510400000e-02 1.210679000e+00
23500000.0 6.626800000e-02 1.221556000e+00
24400000.0 5.823100000e-02 1.231303000e+00
25300000.0 4.711500000e-02 1.241410000e+00
26200000.0 3.516100000e-02 1.252249000e+00
27100000.0 2.499400000e-02 1.260953000e+00
28000000.0 1.535400000e-02 1.270968000e+00
28900000.0 2.603000000e-03 1.281696000e+00
29800000.0 -9.104000000e-03 1.292382000e+00
30700000.0 -2.173600000e-02 1.301250000e+00
31600000.0 -3.476900000e-02 1.311025000e+00
32500000.0 -4.786300000e-02 1.321759000e+00
33400000.0 -6.185700000e-02 1.332902000e+00
34300000.0 -7.602700000e-02 1.341522000e+00
35200000.0 -9.088700000e-02 1.351010000e+00
36100000.0 -1.050830000e-01 1.359198000e+00
37000000.0 -1.221670000e-01 1.369521000e+00
37900000.0 -1.380950000e-01 1.379231000e+00
38800000.0 -1.549730000e-01 1.387475000e+00
39700000.0 -1.707420000e-01 1.396568000e+00
40600000.0 -1.881940000e-01 1.404963000e+00
41500000.0 -2.050480000e-01 1.413287000e+00
42400000.0 -2.228980000e-01 1.419787000e+00
43300000.0 -2.435010000e-01 1.428348000e+00
44200000.0 -2.627680000e-01 1.434488000e+00
45100000.0 -2.833550000e-01 1.441787000e+00
46000000.0 -3.018960000e-01 1.448853000e+00
46900000.0 -3.236730000e-01 1.453334000e+00
47800000.0 -3.448390000e-01 1.457832000e+00
48700000.0 -3.654560000e-01 1.463785000e+00
49600000.0 -3.862640000e-01 1.468596000e+00
50500000.0 -4.094710000e-01 1.472062000e+00
51400000.0 -4.305930000e-01 1.474218000e+00
52300000.0 -4.543500000e-01 1.477332000e+00
53200000.0 -4.772390000e-01 1.479372000e+00
54100000.0 -4.990880000e-01 1.480636000e+00
55000000.0 -5.228440000e-01 1.480981000e+00
55900000.0 -5.474080000e-01 1.480982000e+00
56800000.0 -5.699820000e-01 1.481199000e+00
57700000.0 -5.953470000e-01 1.480136000e+00
58600000.0 -6.198020000e-01 1.477461000e+00
59500000.0 -6.431270000e-01 1.475470000e+00
60400000.0 -6.676840000e-01 1.472924000e+00
61300000.0 -6.914140000e-01 1.467655000e+00
62200000.0 -7.161770000e-01 1.463096000e+00
63100000.0 -7.412510000e-01 1.456320000e+00
64000000.0 -7.633250000e-01 1.450094000e+00
64900000.0 -7.892540000e-01 1.443313000e+00
65800000.0 -8.130840000e-01 1.435544000e+00
66700000.0 -8.365160000e-01 1.427093000e+00
67600000.0 -8.610770000e-01 1.418144000e+00
68500000.0 -8.835090000e-01 1.408387000e+00
69400000.0 -9.078340000e-01 1.397459000e+00
70300000.0 -9.304390000e-01 1.387024000e+00
71200000.0 -9.516920000e-01 1.375432000e+00
72100000.0 -9.749140000e-01 1.360610000e+00
73000000.0 -9.979700000e-01 1.347795000e+00
73900000.0 -1.019893000e+00 1.334837000e+00
74800000.0 -1.039201000e+00 1.320963000e+00
75700000.0 -1.059896000e+00 1.303703000e+00
76600000.0 -1.082772000e+00 1.288957000e+00
77500000.0 -1.099795000e+00 1.272217000e+00
78400000.0 -1.119862000e+00 1.255248000e+00
79300000.0 -1.138864000e+00 1.239155000e+00
80200000.0 -1.156235000e+00 1.218954000e+00
81100000.0 -1.176248000e+00 1.200212000e+00
82000000.0 -1.192894000e+00 1.181116000e+00
82900000.0 -1.209174000e+00 1.162524000e+00
83800000.0 -1.223904000e+00 1.141669000e+00
84700000.0 -1.241565000e+00 1.120971000e+00
85600000.0 -1.255609000e+00 1.100725000e+00
86500000.0 -1.269269000e+00 1.078089000e+00
87400000.0 -1.282835000e+00 1.057645000e+00
88300000.0 -1.295282000e+00 1.035251000e+00
89200000.0 -1.304780000e+00 1.013118000e+00
90100000.0 -1.316892000e+00 9.917230000e-01
91000000.0 -1.327875000e+00 9.679900000e-01
91900000.0 -1.337659000e+00 9.468970000e-01
92800000.0 -1.347179000e+00 9.233540000e-01
93700000.0 -1.354990000e+00 8.994030000e-01
94600000.0 -1.362449000e+00 8.762830000e-01
95500000.0 -1.368725000e+00 8.546280000e-01
96400000.0 -1.374691000e+00 8.301860000e-01
97300000.0 -1.379407000e+00 8.071700000e-01
98200000.0 -1.385027000e+00 7.835680000e-01
99100000.0 -1.388350000e+00 7.601430000e-01
100000000.0 -1.390482000e+00 7.377120000e-01
109000000.0 -1.385658000e+00 5.193550000e-01
118000000.0 -1.331684000e+00 3.374020000e-01
127000000.0 -1.249297000e+00 1.992230000e-01
136000000.0 -1.133992000e+00 9.962700000e-02
145000000.0 -1.047012000e+00 3.009900000e-02
154000000.0 -1.000699000e+00 -6.390000000e-04
163000000.0 -1.002670000e+00 -3.475000000e-03
172000000.0 -1.004317000e+00 -6.822000000e-03
181000000.0 -1.006103000e+00 -8.149000000e-03
190000000.0 -1.008371000e+00 -9.074000000e-03
199000000.0 -1.008491000e+00 -1.003300000e-02
208000000.0 -1.009590000e+00 -1.177000000e-02
217000000.0 -1.010443000e+00 -1.104400000e-02
226000000.0 -1.009548000e+00 -1.131500000e-02
235000000.0 -1.011006000e+00 -1.192400000e-02
244000000.0 -1.009732000e+00 -9.174000000e-03
253000000.0 -1.009021000e+00 -9.822000000e-03
262000000.0 -1.008283000e+00 -9.348000000e-03
271000000.0 -1.006334000e+00 -6.313000000e-03
280000000.0 -1.003767000e+00 -4.877000000e-03
289000000.0 -1.002300000e+00 -4.036000000e-03
298000000.0 -9.995780000e-01 -1.339000000e-03
307000000.0 -1.002435000e+00 -1.689000000e-03
316000000.0 -1.004682000e+00 -1.531000000e-03
325000000.0 -1.007285000e+00 -2.218000000e-03
334000000.0 -1.009950000e+00 -1.990000000e-03
343000000.0 -1.011341000e+00 -2.226000000e-03
352000000.0 -1.013661000e+00 -2.396000000e-03
361000000.0 -1.013956000e+00 -4.460000000e-03
370000000.0 -1.033241000e+00 -5.382200000e-02
379000000.0 -1.013573000e+00 -4.551000000e-03
388000000.0 -1.013845000e+00 -2.046000000e-03
397000000.0 -1.012636000e+00 -5.162000000e-03
406000000.0 -1.012969000e+00 -4.876000000e-03
415000000.0 -1.010568000e+00 -2.465000000e-03
424000000.0 -1.008345000e+00 -1.274000000e-03
433000000.0 -1.004493000e+00 -2.173000000e-03
442000000.0 -1.001646000e+00 5.460000000e-04
451000000.0 -1.000570000e+00 1.343000000e-03
460000000.0 -1.003861000e+00 3.130000000e-04
469000000.0 -1.007596000e+00 -8.680000000e-04
478000000.0 -1.010124000e+00 1.510000000e-03
487000000.0 -1.012893000e+00 4.785000000e-03
496000000.0 -1.013270000e+00 2.282000000e-03
505000000.0 -1.014529000e+00 1.446000000e-03
514000000.0 -1.016930000e+00 3.295000000e-03
523000000.0 -1.017632000e+00 5.114000000e-03
532000000.0 -1.016969000e+00 2.342000000e-03
541000000.0 -1.016385000e+00 4.057000000e-03
550000000.0 -1.014564000e+00 3.770000000e-04
559000000.0 -1.013976000e+00 2.972000000e-03
568000000.0 -1.010803000e+00 3.315000000e-03
577000000.0 -1.007156000e+00 3.416000000e-03
586000000.0 -1.004719000e+00 2.661000000e-03
595000000.0 -1.003622000e+00 4.565000000e-03
604000000.0 -1.001333000e+00 3.292000000e-03
613000000.0 -1.004712000e+00 4.273000000e-03
622000000.0 -1.005829000e+00 9.740000000e-03
631000000.0 -1.004556000e+00 4.956000000e-03
640000000.0 -1.009675000e+00 1.089700000e-02
649000000.0 -1.008121000e+00 9.406000000e-03
658000000.0 -1.010863000e+00 1.450100000e-02
667000000.0 -1.011733000e+00 1.346500000e-02
676000000.0 -1.012138000e+00 1.417800000e-02
685000000.0 -1.009329000e+00 1.199200000e-02
694000000.0 -1.012749000e+00 1.211900000e-02
703000000.0 -1.006962000e+00 1.159600000e-02
712000000.0 -1.010016000e+00 4.879000000e-03
721000000.0 -1.005246000e+00 7.288000000e-03
730000000.0 -1.002874000e+00 6.207000000e-03
739000000.0 -1.003061000e+00 5.994000000e-03
748000000.0 -1.000148000e+00 -3.060000000e-04
757000000.0 -9.980190000e-01 4.320000000e-03
766000000.0 -9.980210000e-01 3.352000000e-03
775000000.0 -1.001725000e+00 6.084000000e-03
784000000.0 -9.995570000e-01 7.422000000e-03
793000000.0 -9.993090000e-01 5.286000000e-03
802000000.0 -9.983760000e-01 1.190400000e-02
811000000.0 -9.985710000e-01 1.228100000e-02
820000000.0 -9.988520000e-01 8.045000000e-03
829000000.0 -9.992680000e-01 6.348000000e-03
838000000.0 -9.964890000e-01 5.113000000e-03
847000000.0 -9.966580000e-01 5.337000000e-03
856000000.0 -9.969110000e-01 3.512000000e-03
865000000.0 -9.998990000e-01 2.137000000e-03
874000000.0 -9.984120000e-01 2.726000000e-03
883000000.0 -9.940670000e-01 7.290000000e-04
892000000.0 -9.986570000e-01 1.260000000e-03
901000000.0 -9.969710000e-01 1.017000000e-03
910000000.0 -9.974900000e-01 6.430000000e-04
919000000.0 -9.995550000e-01 -5.136000000e-03
928000000.0 -9.995100000e-01 -7.807000000e-03
937000000.0 -1.002647000e+00 -4.865000000e-03
946000000.0 -1.002675000e+00 9.500000000e-05
955000000.0 -1.002552000e+00 -4.624000000e-03
964000000.0 -9.994600000e-01 -3.154000000e-03
973000000.0 -1.003250000e+00 -6.629000000e-03
982000000.0 -1.001902000e+00 -8.224000000e-03
991000000.0 -1.001689000e+00 -8.596000000e-03
1000000000.0 -1.003672000e+00 -5.136000000e-03
1004500000.0 -1.000818000e+00 -1.333400000e-02
1009000000.0 -1.000124000e+00 -5.844000000e-03
1013500000.0 -1.002445000e+00 -9.804000000e-03
1018000000.0 -1.002682000e+00 -3.760000000e-03
1022500000.0 -1.003079000e+00 -6.331000000e-03
1027000000.0 -9.994480000e-01 -9.682000000e-03
1031500000.0 -1.001045000e+00 -4.785000000e-03
1036000000.0 -9.999210000e-01 -8.264000000e-03
1040500000.0 -1.001759000e+00 -5.905000000e-03
1045000000.0 -1.001014000e+00 -8.661000000e-03
1049500000.0 -1.003778000e+00 -4.280000000e-03
1054000000.0 -1.003622000e+00 -9.046000000e-03
1058500000.0 -1.001766000e+00 -4.007000000e-03
1063000000.0 -1.001380000e+00 -8.747000000e-03
1067500000.0 -1.003114000e+00 -3.177000000e-03
1072000000.0 -1.005431000e+00 -5.287000000e-03
1076500000.0 -1.005321000e+00 -1.257700000e-02
1081000000.0 -1.005261000e+00 -8.310000000e-03
1085500000.0 -1.006261000e+00 -1.369400000e-02
1090000000.0 -1.005066000e+00 -1.151400000e-02
1094500000.0 -1.009036000e+00 -1.745800000e-02
1099000000.0 -1.008263000e+00 -9.590000000e-03
1103500000.0 -1.004571000e+00 -1.219500000e-02
1108000000.0 -1.006910000e+00 -1.255100000e-02
1112500000.0 -1.007673000e+00 -7.299000000e-03
1117000000.0 -1.007074000e+00 -6.900000000e-03
1121500000.0 -1.003352000e+00 -3.474000000e-03
1126000000.0 -1.008810000e+00 -1.335000000e-02
1130500000.0 -1.011926000e+00 -9.943000000e-03
1135000000.0 -1.022743000e+00 -5.555900000e-02
1139500000.0 -9.932530000e-01 2.214700000e-02
1144000000.0 -1.007214000e+00 -1.120200000e-02
1148500000.0 -1.004301000e+00 -9.611000000e-03
1153000000.0 -9.908580000e-01 2.583300000e-02
1157500000.0 -1.004294000e+00 -7.918000000e-03
1162000000.0 -1.002629000e+00 -8.884000000e-03
1166500000.0 -1.007617000e+00 -1.146000000e-02
1171000000.0 -1.005284000e+00 -5.494000000e-03
1175500000.0 -1.000958000e+00 -5.780000000e-04
1180000000.0 -1.001280000e+00 -7.227000000e-03
1184500000.0 -9.967820000e-01 -4.309000000e-03
1189000000.0 -1.001135000e+00 -1.064100000e-02
1193500000.0 -1.001169000e+00 -4.695000000e-03
1198000000.0 -9.969870000e-01 -1.430000000e-03
1202500000.0 -1.001616000e+00 -1.673000000e-03
1207000000.0 -9.954830000e-01 -1.867000000e-03
1211500000.0 -1.001088000e+00 -3.025000000e-03
1216000000.0 -9.967110000e-01 -3.912000000e-03
1220500000.0 -9.998840000e-01 -2.568000000e-03
1225000000.0 -1.004995000e+00 3.803000000e-03
1229500000.0 -9.997340000e-01 -3.908000000e-03
1234000000.0 -9.994660000e-01 -1.981000000e-03
1238500000.0 -1.005697000e+00 -8.430000000e-03
1243000000.0 -1.005906000e+00 -3.844000000e-03
1247500000.0 -1.002007000e+00 -8.310000000e-04
1252000000.0 -1.005974000e+00 -1.113900000e-02
1256500000.0 -1.002221000e+00 -6.186000000e-03
1261000000.0 -1.002069000e+00 -2.212000000e-03
1265500000.0 -1.007378000e+00 -6.574000000e-03
1270000000.0 -1.008841000e+00 -6.345000000e-03
1274500000.0 -1.012296000e+00 -1.101400000e-02
1279000000.0 -1.001681000e+00 -4.490000000e-04
1283500000.0 -1.006299000e+00 -7.369000000e-03
1288000000.0 -1.003731000e+00 -6.618000000e-03
1292500000.0 -1.003602000e+00 -1.092900000e-02
1297000000.0 -1.010596000e+00 -4.135000000e-03
1301500000.0 -1.006956000e+00 -5.969000000e-03
1306000000.0 -1.005580000e+00 -1.031700000e-02
1310500000.0 -9.997540000e-01 -8.350000000e-04
1315000000.0 -1.001390000e+00 -1.796000000e-03
1319500000.0 -9.989770000e-01 -1.138300000e-02
1324000000.0 -1.001796000e+00 -1.643600000e-02
1328500000.0 -9.999690000e-01 -5.224000000e-03
1333000000.0 -9.956450000e-01 -6.629000000e-03
1337500000.0 -9.911190000e-01 -8.548000000e-03
1342000000.0 -9.930920000e-01 -5.913000000e-03
1346500000.0 -9.975890000e-01 7.431000000e-03
1351000000.0 -9.937460000e-01 1.051200000e-02
1355500000.0 -9.958700000e-01 -5.649000000e-03
1360000000.0 -9.918300000e-01 6.793000000e-03
1364500000.0 -1.001898000e+00 -6.971000000e-03
1369000000.0 -9.997990000e-01 -6.092000000e-03
1373500000.0 -1.006754000e+00 -1.666000000e-02
1378000000.0 -1.000200000e+00 5.799000000e-03
1382500000.0 -1.005349000e+00 1.111100000e-02
1387000000.0 -1.007294000e+00 -3.716000000e-03
1391500000.0 -1.002221000e+00 -1.940800000e-02
1396000000.0 -1.002137000e+00 2.410000000e-03
1400500000.0 -9.992910000e-01 1.329500000e-02
1405000000.0 -1.015867000e+00 -3.538000000e-03
1409500000.0 -1.008316000e+00 -1.885300000e-02
1414000000.0 -1.003378000e+00 -2.262000000e-03
1418500000.0 -1.013248000e+00 2.066000000e-03
1423000000.0 -1.010125000e+00 -7.904000000e-03
1427500000.0 -1.008785000e+00 -1.427000000e-02
1432000000.0 -1.010894000e+00 -6.054000000e-03
1436500000.0 -1.010833000e+00 -7.824000000e-03
1441000000.0 -1.007235000e+00 -2.598000000e-03
1445500000.0 -1.012855000e+00 -5.929000000e-03
1450000000.0 -1.011876000e+00 -4.784000000e-03
