! piloto_deriva / corto_deriva / r51
# HZ S RI R 50
50000.0 -9.977440000e-01 -3.738900000e-02
59500.0 -9.999090000e-01 -1.738800000e-02
69000.0 -9.987990000e-01 -4.604000000e-03
78500.0 -9.992640000e-01 -1.107000000e-03
88000.0 -9.988610000e-01 3.780000000e-04
97500.0 -9.998480000e-01 -1.560000000e-04
107000.0 -9.999350000e-01 -2.714000000e-03
116500.0 -9.998890000e-01 -6.016000000e-03
126000.0 -9.989460000e-01 -1.057000000e-02
135500.0 -1.000239000e+00 -1.736200000e-02
145000.0 -1.000409000e+00 -2.259700000e-02
154500.0 -1.000161000e+00 -2.925700000e-02
164000.0 -9.998430000e-01 -3.685600000e-02
173500.0 -9.999200000e-01 -4.394700000e-02
183000.0 -1.000206000e+00 -5.208900000e-02
192500.0 -1.000914000e+00 -6.098900000e-02
202000.0 -1.000383000e+00 -6.855100000e-02
211500.0 -1.000781000e+00 -7.707200000e-02
221000.0 -9.998810000e-01 -8.675600000e-02
230500.0 -1.001436000e+00 -9.501300000e-02
240000.0 -9.248130000e-01 -1.995900000e-02
249500.0 -1.001143000e+00 -1.134550000e-01
259000.0 -1.001070000e+00 -1.224730000e-01
268500.0 -1.001767000e+00 -1.313210000e-01
278000.0 -1.002076000e+00 -1.406440000e-01
287500.0 -1.001732000e+00 -1.505870000e-01
297000.0 -1.002233000e+00 -1.599760000e-01
306500.0 -1.002081000e+00 -1.687660000e-01
316000.0 -1.002674000e+00 -1.774550000e-01
325500.0 -1.002998000e+00 -1.880370000e-01
335000.0 -1.002496000e+00 -1.969870000e-01
344500.0 -1.002418000e+00 -2.064350000e-01
354000.0 -1.003779000e+00 -2.161030000e-01
363500.0 -1.003210000e+00 -2.248750000e-01
373000.0 -1.004296000e+00 -2.343250000e-01
382500.0 -1.003927000e+00 -2.433260000e-01
392000.0 -1.005086000e+00 -2.524830000e-01
401500.0 -1.004368000e+00 -2.620700000e-01
411000.0 -1.004786000e+00 -2.719920000e-01
420500.0 -1.004466000e+00 -2.810220000e-01
430000.0 -1.005281000e+00 -2.896210000e-01
439500.0 -1.005241000e+00 -2.995710000e-01
449000.0 -1.005353000e+00 -3.090600000e-01
458500.0 -1.005216000e+00 -3.182960000e-01
468000.0 -1.005693000e+00 -3.274900000e-01
477500.0 -1.006574000e+00 -3.371840000e-01
487000.0 -1.006877000e+00 -3.468600000e-01
496500.0 -1.007356000e+00 -3.552220000e-01
506000.0 -1.006864000e+00 -3.645780000e-01
515500.0 -1.006826000e+00 -3.738180000e-01
525000.0 -1.007597000e+00 -3.829470000e-01
534500.0 -1.008981000e+00 -3.921940000e-01
544000.0 -1.007611000e+00 -4.015020000e-01
553500.0 -1.008333000e+00 -4.117550000e-01
563000.0 -1.009207000e+00 -4.194910000e-01
572500.0 -1.009551000e+00 -4.297240000e-01
582000.0 -1.010700000e+00 -4.379490000e-01
591500.0 -1.011160000e+00 -4.475420000e-01
601000.0 -1.010198000e+00 -4.563450000e-01
610500.0 -1.010412000e+00 -4.669260000e-01
620000.0 -1.011243000e+00 -4.746590000e-01
629500.0 -1.012137000e+00 -4.843580000e-01
639000.0 -1.013658000e+00 -4.926650000e-01
648500.0 -1.014098000e+00 -5.025930000e-01
658000.0 -1.014613000e+00 -5.117540000e-01
667500.0 -1.014921000e+00 -5.209530000e-01
677000.0 -1.015440000e+00 -5.285350000e-01
686500.0 -1.016077000e+00 -5.398310000e-01
696000.0 -1.008726000e+00 -5.664090000e-01
705500.0 -1.026625000e+00 -5.366640000e-01
715000.0 -1.009386000e+00 -5.837140000e-01
724500.0 -1.027465000e+00 -5.545560000e-01
734000.0 -1.011079000e+00 -6.015210000e-01
743500.0 -1.021994000e+00 -5.924610000e-01
753000.0 -1.012766000e+00 -6.210300000e-01
762500.0 -1.023970000e+00 -6.113110000e-01
772000.0 -1.025691000e+00 -6.179390000e-01
781500.0 -1.026191000e+00 -6.278930000e-01
791000.0 -1.026349000e+00 -6.369250000e-01
800500.0 -1.028386000e+00 -6.449970000e-01
810000.0 -1.029616000e+00 -6.546690000e-01
819500.0 -1.029872000e+00 -6.626600000e-01
829000.0 -1.031784000e+00 -6.723770000e-01
838500.0 -1.034395000e+00 -6.818660000e-01
848000.0 -1.036616000e+00 -6.895740000e-01
857500.0 -1.037045000e+00 -6.983930000e-01
867000.0 -1.037541000e+00 -7.060060000e-01
876500.0 -1.041022000e+00 -7.158220000e-01
886000.0 -1.040751000e+00 -7.236600000e-01
895500.0 -1.042080000e+00 -7.338490000e-01
905000.0 -1.046638000e+00 -7.412940000e-01
914500.0 -1.047321000e+00 -7.512180000e-01
924000.0 -1.049708000e+00 -7.590020000e-01
933500.0 -1.051470000e+00 -7.677210000e-01
943000.0 -1.056162000e+00 -7.758060000e-01
952500.0 -1.056549000e+00 -7.854920000e-01
962000.0 -1.058654000e+00 -7.928480000e-01
971500.0 -1.061276000e+00 -8.000260000e-01
981000.0 -1.062097000e+00 -8.092480000e-01
990500.0 -1.066591000e+00 -8.183770000e-01
1000000.0 -1.068937000e+00 -8.281260000e-01
1090000.0 -1.098068000e+00 -9.042130000e-01
1180000.0 -1.135701000e+00 -9.779800000e-01
1270000.0 -1.182640000e+00 -1.046658000e+00
1360000.0 -1.243106000e+00 -1.104863000e+00
1450000.0 -1.308179000e+00 -1.157203000e+00
1540000.0 -1.386840000e+00 -1.194744000e+00
1630000.0 -1.475752000e+00 -1.211486000e+00
1720000.0 -1.567283000e+00 -1.207235000e+00
1810000.0 -1.654552000e+00 -1.188306000e+00
1900000.0 -1.738090000e+00 -1.143456000e+00
1990000.0 -1.809680000e+00 -1.077902000e+00
2080000.0 -1.860992000e+00 -9.984780000e-01
2170000.0 -1.900645000e+00 -9.100670000e-01
2260000.0 -1.919164000e+00 -8.187370000e-01
2350000.0 -1.915385000e+00 -7.283970000e-01
2440000.0 -1.901464000e+00 -6.424530000e-01
2530000.0 -1.873240000e+00 -5.632070000e-01
2620000.0 -1.841343000e+00 -4.935070000e-01
2710000.0 -1.796862000e+00 -4.348940000e-01
2800000.0 -1.756403000e+00 -3.848530000e-01
2890000.0 -1.715796000e+00 -3.385840000e-01
2980000.0 -1.673700000e+00 -3.031230000e-01
3070000.0 -1.631342000e+00 -2.688590000e-01
3160000.0 -1.592803000e+00 -2.399350000e-01
3250000.0 -1.555744000e+00 -2.144380000e-01
3340000.0 -1.519465000e+00 -1.927110000e-01
3430000.0 -1.487610000e+00 -1.729910000e-01
3520000.0 -1.458405000e+00 -1.542060000e-01
3610000.0 -1.428599000e+00 -1.358930000e-01
3700000.0 -1.401519000e+00 -1.224260000e-01
3790000.0 -1.376760000e+00 -1.079010000e-01
3880000.0 -1.354672000e+00 -9.310300000e-02
3970000.0 -1.334072000e+00 -8.073400000e-02
4060000.0 -1.312450000e+00 -6.685700000e-02
4150000.0 -1.295056000e+00 -5.529300000e-02
4240000.0 -1.278931000e+00 -4.259500000e-02
4330000.0 -1.263559000e+00 -3.070900000e-02
4420000.0 -1.248682000e+00 -1.816200000e-02
4510000.0 -1.235769000e+00 -8.593000000e-03
4600000.0 -1.224366000e+00 3.912000000e-03
4690000.0 -1.212677000e+00 1.576100000e-02
4780000.0 -1.202133000e+00 2.615600000e-02
4870000.0 -1.194213000e+00 3.646300000e-02
4960000.0 -1.186660000e+00 4.817300000e-02
5050000.0 -1.172979000e+00 5.927900000e-02
5140000.0 -1.167106000e+00 6.890700000e-02
5230000.0 -1.161261000e+00 8.023100000e-02
5320000.0 -1.156668000e+00 9.103300000e-02
5410000.0 -1.151475000e+00 1.007530000e-01
5500000.0 -1.147364000e+00 1.121330000e-01
5590000.0 -1.144204000e+00 1.203070000e-01
5680000.0 -1.138839000e+00 1.304820000e-01
5770000.0 -1.135426000e+00 1.410770000e-01
5860000.0 -1.131499000e+00 1.503780000e-01
5950000.0 -1.128307000e+00 1.594000000e-01
6040000.0 -1.124277000e+00 1.688770000e-01
6130000.0 -1.121880000e+00 1.754890000e-01
6220000.0 -1.119647000e+00 1.845440000e-01
6310000.0 -1.116972000e+00 1.924740000e-01
6400000.0 -1.113226000e+00 1.994110000e-01
6490000.0 -1.112202000e+00 2.058970000e-01
6580000.0 -1.110582000e+00 2.122470000e-01
6670000.0 -1.108432000e+00 2.186280000e-01
6760000.0 -1.106174000e+00 2.234370000e-01
6850000.0 -1.105867000e+00 2.286440000e-01
6940000.0 -1.104548000e+00 2.318260000e-01
7030000.0 -1.103364000e+00 2.355100000e-01
7120000.0 -1.101982000e+00 2.388670000e-01
7210000.0 -1.102256000e+00 2.410880000e-01
7300000.0 -1.101906000e+00 2.428530000e-01
7390000.0 -1.100995000e+00 2.440860000e-01
7480000.0 -1.102038000e+00 2.428200000e-01
7570000.0 1.955000000e-01 1.073433000e+00
7660000.0 1.946230000e-01 1.074922000e+00
7750000.0 1.934780000e-01 1.074696000e+00
7840000.0 1.936150000e-01 1.074619000e+00
7930000.0 1.916970000e-01 1.074013000e+00
8020000.0 1.915840000e-01 1.074298000e+00
8110000.0 1.909960000e-01 1.075644000e+00
8200000.0 1.888700000e-01 1.076135000e+00
8290000.0 1.897210000e-01 1.075786000e+00
8380000.0 1.879220000e-01 1.077267000e+00
8470000.0 1.877670000e-01 1.077450000e+00
8560000.0 1.875960000e-01 1.077863000e+00
8650000.0 1.862650000e-01 1.077447000e+00
8740000.0 1.863360000e-01 1.079064000e+00
8830000.0 1.840340000e-01 1.079561000e+00
8920000.0 1.847980000e-01 1.080168000e+00
9010000.0 1.847290000e-01 1.080753000e+00
9100000.0 1.826050000e-01 1.080579000e+00
9190000.0 1.821180000e-01 1.081521000e+00
9280000.0 1.814230000e-01 1.082421000e+00
9370000.0 1.631930000e-01 1.087772000e+00
9460000.0 1.985050000e-01 1.077652000e+00
9550000.0 1.616010000e-01 1.089053000e+00
9640000.0 1.972930000e-01 1.078734000e+00
9730000.0 1.599480000e-01 1.091194000e+00
9820000.0 1.956150000e-01 1.080071000e+00
9910000.0 1.584520000e-01 1.091841000e+00
10000000.0 1.942640000e-01 1.082508000e+00
10900000.0 1.688370000e-01 1.094987000e+00
11800000.0 1.640380000e-01 1.101979000e+00
12700000.0 1.579750000e-01 1.110026000e+00
13600000.0 1.504700000e-01 1.118490000e+00
14500000.0 1.447170000e-01 1.127617000e+00
15400000.0 1.377560000e-01 1.135964000e+00
16300000.0 1.307530000e-01 1.145078000e+00
17200000.0 1.238500000e-01 1.154284000e+00
18100000.0 1.164400000e-01 1.163378000e+00
19000000.0 1.093850000e-01 1.172763000e+00
19900000.0 1.019540000e-01 1.182779000e+00
20800000.0 9.261500000e-02 1.191223000e+00
21700000.0 8.427800000e-02 1.202226000e+00
22600000.0 7.450700000e-02 1.211074000e+00
23500000.0 6.690800000e-02 1.222482000e+00
24400000.0 5.689000000e-02 1.231336000e+00
25300000.0 4.597200000e-02 1.241096000e+00
26200000.0 3.554500000e-02 1.252495000e+00
27100000.0 2.538200000e-02 1.261984000e+00
28000000.0 1.363800000e-02 1.272005000e+00
28900000.0 2.740000000e-03 1.281166000e+00
29800000.0 -1.008800000e-02 1.292755000e+00
30700000.0 -2.090600000e-02 1.301115000e+00
31600000.0 -3.579400000e-02 1.312010000e+00
32500000.0 -4.950800000e-02 1.321192000e+00
33400000.0 -6.213200000e-02 1.332592000e+00
34300000.0 -7.700000000e-02 1.341435000e+00
35200000.0 -9.197000000e-02 1.349239000e+00
36100000.0 -1.048770000e-01 1.360701000e+00
37000000.0 -1.216160000e-01 1.369172000e+00
37900000.0 -1.383210000e-01 1.378560000e+00
38800000.0 -1.531020000e-01 1.388623000e+00
39700000.0 -1.705650000e-01 1.396615000e+00
40600000.0 -1.879280000e-01 1.404484000e+00
41500000.0 -2.071220000e-01 1.412771000e+00
42400000.0 -2.247110000e-01 1.420453000e+00
43300000.0 -2.434050000e-01 1.427796000e+00
44200000.0 -2.639400000e-01 1.434435000e+00
45100000.0 -2.827880000e-01 1.441445000e+00
46000000.0 -3.025890000e-01 1.446969000e+00
46900000.0 -3.230770000e-01 1.452616000e+00
47800000.0 -3.426630000e-01 1.458911000e+00
48700000.0 -3.642620000e-01 1.461807000e+00
49600000.0 -3.871820000e-01 1.467877000e+00
50500000.0 -4.085620000e-01 1.471609000e+00
51400000.0 -4.311720000e-01 1.474480000e+00
52300000.0 -4.533200000e-01 1.477564000e+00
53200000.0 -4.779420000e-01 1.480115000e+00
54100000.0 -5.005340000e-01 1.480335000e+00
55000000.0 -5.234820000e-01 1.480856000e+00
55900000.0 -5.476890000e-01 1.481284000e+00
56800000.0 -5.720280000e-01 1.480452000e+00
57700000.0 -5.948320000e-01 1.478909000e+00
58600000.0 -6.197130000e-01 1.477373000e+00
59500000.0 -6.425640000e-01 1.474785000e+00
60400000.0 -6.671200000e-01 1.472636000e+00
61300000.0 -6.931550000e-01 1.467913000e+00
62200000.0 -7.149970000e-01 1.462972000e+00
63100000.0 -7.405920000e-01 1.458063000e+00
64000000.0 -7.650310000e-01 1.451165000e+00
64900000.0 -7.897510000e-01 1.445082000e+00
65800000.0 -8.135340000e-01 1.435731000e+00
66700000.0 -8.368610000e-01 1.427279000e+00
67600000.0 -8.595250000e-01 1.416756000e+00
68500000.0 -8.854240000e-01 1.408892000e+00
69400000.0 -9.060480000e-01 1.397547000e+00
70300000.0 -9.304510000e-01 1.386683000e+00
71200000.0 -9.528250000e-01 1.373994000e+00
72100000.0 -9.752810000e-01 1.361312000e+00
73000000.0 -9.960230000e-01 1.347720000e+00
73900000.0 -1.019331000e+00 1.334490000e+00
74800000.0 -1.039931000e+00 1.322176000e+00
75700000.0 -1.059808000e+00 1.303080000e+00
76600000.0 -1.080752000e+00 1.287772000e+00
77500000.0 -1.102681000e+00 1.270700000e+00
78400000.0 -1.121466000e+00 1.255667000e+00
79300000.0 -1.139281000e+00 1.236477000e+00
80200000.0 -1.157712000e+00 1.219229000e+00
81100000.0 -1.176158000e+00 1.200569000e+00
82000000.0 -1.192565000e+00 1.180454000e+00
82900000.0 -1.210829000e+00 1.162311000e+00
83800000.0 -1.224664000e+00 1.142759000e+00
84700000.0 -1.239540000e+00 1.121683000e+00
85600000.0 -1.254908000e+00 1.101266000e+00
86500000.0 -1.268635000e+00 1.079273000e+00
87400000.0 -1.281634000e+00 1.058130000e+00
88300000.0 -1.294984000e+00 1.034685000e+00
89200000.0 -1.307505000e+00 1.012815000e+00
90100000.0 -1.318017000e+00 9.922830000e-01
91000000.0 -1.328268000e+00 9.689870000e-01
91900000.0 -1.338125000e+00 9.455060000e-01
92800000.0 -1.347358000e+00 9.225130000e-01
93700000.0 -1.355116000e+00 9.004100000e-01
94600000.0 -1.361682000e+00 8.789010000e-01
95500000.0 -1.367493000e+00 8.519250000e-01
96400000.0 -1.375795000e+00 8.294860000e-01
97300000.0 -1.379000000e+00 8.061360000e-01
98200000.0 -1.385178000e+00 7.837870000e-01
99100000.0 -1.386748000e+00 7.618030000e-01
100000000.0 -1.390941000e+00 7.366960000e-01
109000000.0 -1.385227000e+00 5.204430000e-01
118000000.0 -1.330627000e+00 3.397980000e-01
127000000.0 -1.250789000e+00 1.990710000e-01
136000000.0 -1.134002000e+00 1.005200000e-01
145000000.0 -1.046512000e+00 2.963400000e-02
154000000.0 -1.000460000e+00 -1.848000000e-03
163000000.0 -1.002003000e+00 -3.633000000e-03
172000000.0 -1.004542000e+00 -6.038000000e-03
181000000.0 -1.006774000e+00 -7.744000000e-03
190000000.0 -1.008098000e+00 -1.049600000e-02
199000000.0 -1.008101000e+00 -9.575000000e-03
208000000.0 -1.009774000e+00 -1.099900000e-02
217000000.0 -1.010615000e+00 -1.221000000e-02
226000000.0 -1.011033000e+00 -1.251800000e-02
235000000.0 -1.010061000e+00 -1.152600000e-02
244000000.0 -1.009583000e+00 -1.145700000e-02
253000000.0 -1.008631000e+00 -9.892000000e-03
262000000.0 -1.007418000e+00 -7.884000000e-03
271000000.0 -1.006393000e+00 -6.894000000e-03
280000000.0 -1.004696000e+00 -5.403000000e-03
289000000.0 -1.003266000e+00 -5.372000000e-03
298000000.0 -1.000883000e+00 1.000000000e-04
307000000.0 -1.003302000e+00 8.500000000e-05
316000000.0 -1.005332000e+00 -3.000000000e-06
325000000.0 -1.006516000e+00 -2.058000000e-03
334000000.0 -1.011194000e+00 -2.158000000e-03
343000000.0 -1.011447000e+00 -1.799000000e-03
352000000.0 -1.012280000e+00 -3.777000000e-03
361000000.0 -1.016863000e+00 -2.196400000e-02
370000000.0 -1.014920000e+00 -3.348000000e-03
379000000.0 -1.014668000e+00 -4.172000000e-03
388000000.0 -1.014462000e+00 -3.822000000e-03
397000000.0 -1.013827000e+00 -5.008000000e-03
406000000.0 -1.012528000e+00 -3.871000000e-03
415000000.0 -1.018109000e+00 -3.716700000e-02
424000000.0 -1.007912000e+00 -1.802000000e-03
433000000.0 -1.006458000e+00 -2.718000000e-03
442000000.0 -1.003373000e+00 -2.385000000e-03
451000000.0 -1.002054000e+00 1.391000000e-03
460000000.0 -1.004634000e+00 1.480000000e-03
469000000.0 -1.007839000e+00 1.964000000e-03
478000000.0 -1.010131000e+00 2.140000000e-03
487000000.0 -1.012459000e+00 1.889000000e-03
496000000.0 -1.014576000e+00 9.490000000e-04
505000000.0 -1.014501000e+00 1.639000000e-03
514000000.0 -1.015560000e+00 3.671000000e-03
523000000.0 -1.016818000e+00 4.367000000e-03
532000000.0 -1.016612000e+00 4.108000000e-03
541000000.0 -1.015555000e+00 2.707000000e-03
550000000.0 -1.013741000e+00 4.795000000e-03
559000000.0 -1.011652000e+00 4.192000000e-03
568000000.0 -1.011011000e+00 -1.458000000e-03
577000000.0 -1.008012000e+00 2.419000000e-03
586000000.0 -1.005306000e+00 2.606000000e-03
595000000.0 -1.001952000e+00 3.990000000e-04
604000000.0 -1.000224000e+00 2.005000000e-03
613000000.0 -1.005520000e+00 3.282000000e-03
622000000.0 -1.007461000e+00 7.607000000e-03
631000000.0 -1.009774000e+00 7.562000000e-03
640000000.0 -1.012413000e+00 6.842000000e-03
649000000.0 -1.010065000e+00 1.204700000e-02
658000000.0 -1.008624000e+00 1.306600000e-02
667000000.0 -1.009965000e+00 1.293700000e-02
676000000.0 -1.009938000e+00 1.413700000e-02
685000000.0 -1.011830000e+00 1.152900000e-02
694000000.0 -1.011565000e+00 1.309100000e-02
703000000.0 -1.010520000e+00 1.408100000e-02
712000000.0 -8.758590000e-01 5.214600000e-02
721000000.0 -1.003189000e+00 7.522000000e-03
730000000.0 -1.006459000e+00 7.489000000e-03
739000000.0 -1.003415000e+00 3.959000000e-03
748000000.0 -9.992780000e-01 3.889000000e-03
757000000.0 -9.982110000e-01 3.529000000e-03
766000000.0 -9.985210000e-01 -1.235000000e-03
775000000.0 -1.000485000e+00 6.547000000e-03
784000000.0 -9.969540000e-01 4.640000000e-03
793000000.0 -1.003304000e+00 -1.264700000e-02
802000000.0 -9.994270000e-01 9.300000000e-03
811000000.0 -9.986140000e-01 7.424000000e-03
820000000.0 -9.987410000e-01 7.784000000e-03
829000000.0 -1.001503000e+00 1.141100000e-02
838000000.0 -9.965280000e-01 8.204000000e-03
847000000.0 -9.965930000e-01 4.344000000e-03
856000000.0 -9.958610000e-01 2.902000000e-03
865000000.0 -9.958230000e-01 -2.908000000e-03
874000000.0 -9.970390000e-01 -1.090000000e-04
883000000.0 -9.990740000e-01 -9.920000000e-04
892000000.0 -1.001444000e+00 2.220000000e-03
901000000.0 -1.000730000e+00 1.206000000e-03
910000000.0 -1.001640000e+00 -1.331000000e-03
919000000.0 -1.000123000e+00 -7.524000000e-03
928000000.0 -9.995300000e-01 -4.946000000e-03
937000000.0 -1.001089000e+00 -5.295000000e-03
946000000.0 -1.001530000e+00 -6.546000000e-03
955000000.0 -1.001117000e+00 -1.615000000e-03
964000000.0 -9.991060000e-01 -8.042000000e-03
973000000.0 -1.002649000e+00 -2.379000000e-03
982000000.0 -1.001883000e+00 -6.720000000e-03
991000000.0 -1.002389000e+00 -6.705000000e-03
1000000000.0 -1.001111000e+00 -7.509000000e-03
1004500000.0 -1.002221000e+00 -8.672000000e-03
1009000000.0 -9.992130000e-01 -9.940000000e-03
1013500000.0 -1.004409000e+00 -9.113000000e-03
1018000000.0 -1.003916000e+00 -2.895000000e-03
1022500000.0 -1.003532000e+00 -6.408000000e-03
1027000000.0 -9.998520000e-01 -3.742000000e-03
1031500000.0 -9.989620000e-01 -7.193000000e-03
1036000000.0 -1.001081000e+00 -2.615000000e-03
1040500000.0 -1.001354000e+00 -8.950000000e-03
1045000000.0 -1.000792000e+00 -9.145000000e-03
1049500000.0 -1.002645000e+00 -2.611000000e-02
1054000000.0 -1.006058000e+00 -8.379000000e-03
1058500000.0 -1.001438000e+00 1.006600000e-02
1063000000.0 -9.992230000e-01 -6.303000000e-03
1067500000.0 -1.006425000e+00 -2.267700000e-02
1072000000.0 -1.007107000e+00 -1.257300000e-02
1076500000.0 -9.989920000e-01 9.543000000e-03
1081000000.0 -1.007968000e+00 -7.934000000e-03
1085500000.0 -1.002807000e+00 -6.455000000e-03
1090000000.0 -1.005940000e+00 -1.322600000e-02
1094500000.0 -1.004831000e+00 -1.031000000e-02
1099000000.0 -1.002666000e+00 -1.077100000e-02
1103500000.0 -1.005937000e+00 -9.485000000e-03
1108000000.0 -1.009385000e+00 -1.232500000e-02
1112500000.0 -1.006914000e+00 -1.162200000e-02
1117000000.0 -1.010065000e+00 -5.371000000e-03
1121500000.0 -1.007315000e+00 -1.305600000e-02
1126000000.0 -1.054252000e+00 -7.790000000e-02
1130500000.0 -1.009042000e+00 -6.111000000e-03
1135000000.0 -1.005560000e+00 -1.131300000e-02
1139500000.0 -1.009377000e+00 -1.389000000e-02
1144000000.0 -1.005831000e+00 -1.386800000e-02
1148500000.0 -1.005226000e+00 -1.357400000e-02
1153000000.0 -1.021317000e+00 -4.505700000e-02
1157500000.0 -1.009489000e+00 -2.440800000e-02
1162000000.0 -1.003382000e+00 -2.434000000e-03
1166500000.0 -1.003388000e+00 -6.449000000e-03
1171000000.0 -9.965980000e-01 -9.185000000e-03
1175500000.0 -1.004250000e+00 -2.050000000e-03
1180000000.0 -1.000741000e+00 -3.371000000e-03
1184500000.0 -9.996170000e-01 -1.421000000e-02
1189000000.0 -1.003751000e+00 1.775000000e-03
1193500000.0 -9.921120000e-01 -4.290000000e-03
1198000000.0 -9.965770000e-01 -2.861000000e-03
1202500000.0 -9.963590000e-01 -1.293300000e-02
1207000000.0 -9.979420000e-01 9.750000000e-04
1211500000.0 -1.001511000e+00 -4.515000000e-03
1216000000.0 -9.951060000e-01 -3.597000000e-03
1220500000.0 -1.002918000e+00 -1.399400000e-02
1225000000.0 -9.944900000e-01 3.350000000e-03
1229500000.0 -1.003941000e+00 -3.327000000e-03
1234000000.0 -1.004512000e+00 5.430000000e-04
1238500000.0 -1.001242000e+00 -6.771000000e-03
1243000000.0 -1.004514000e+00 -1.308700000e-02
1247500000.0 -1.002541000e+00 -1.555600000e-02
1252000000.0 -1.006556000e+00 -1.293100000e-02
1256500000.0 -1.003153000e+00 -4.768000000e-03
1261000000.0 -1.007766000e+00 -1.268400000e-02
1265500000.0 -1.011604000e+00 4.260000000e-04
1270000000.0 -1.006232000e+00 -5.736000000e-03
1274500000.0 -1.009671000e+00 -1.083200000e-02
1279000000.0 -1.004774000e+00 -5.918000000e-03
1283500000.0 -1.004806000e+00 -6.433000000e-03
1288000000.0 -1.002818000e+00 -7.500000000e-03
1292500000.0 -1.003204000e+00 -1.240300000e-02
1297000000.0 -1.005861000e+00 -5.512000000e-03
1301500000.0 -1.002825000e+00 -5.929000000e-03
1306000000.0 -9.980170000e-01 -6.054000000e-03
1310500000.0 -1.000003000e+00 -7.461000000e-03
1315000000.0 -1.004741000e+00 -8.257000000e-03
1319500000.0 -1.001977000e+00 2.707000000e-03
1324000000.0 -9.959170000e-01 5.430000000e-04
1328500000.0 -9.953160000e-01 1.113000000e-03
1333000000.0 -9.924230000e-01 -9.100000000e-04
1337500000.0 -9.965030000e-01 3.845000000e-03
1342000000.0 -9.928450000e-01 -6.104000000e-03
1346500000.0 -9.961230000e-01 -1.021000000e-03
1351000000.0 -9.907420000e-01 -5.183000000e-03
1355500000.0 -9.918910000e-01 -7.125000000e-03
1360000000.0 -9.984230000e-01 -4.512000000e-03
1364500000.0 -9.996970000e-01 2.801000000e-03
1369000000.0 -9.975550000e-01 -9.834000000e-03
1373500000.0 -9.995430000e-01 2.077000000e-03
1378000000.0 -1.001116000e+00 -4.961000000e-03
1382500000.0 -1.000337000e+00 -4.348000000e-03
1387000000.0 -1.004031000e+00 -5.207000000e-03
1391500000.0 -1.002106000e+00 4.115000000e-03
1396000000.0 -1.002423000e+00 1.494000000e-03
1400500000.0 -1.005876000e+00 6.544000000e-03
1405000000.0 -1.003866000e+00 -8.476000000e-03
1409500000.0 -1.007712000e+00 -1.206400000e-02
1414000000.0 -1.006699000e+00 -3.900000000e-04
1418500000.0 -1.011613000e+00 -1.114000000e-03
1423000000.0 -1.015128000e+00 -1.236000000e-03
1427500000.0 -1.017996000e+00 -1.398900000e-02
1432000000.0 -1.010792000e+00 -7.773000000e-03
1436500000.0 -1.014366000e+00 -1.066300000e-02
1441000000.0 -1.012388000e+00 1.100000000e-04
1445500000.0 -1.009774000e+00 -8.513000000e-03
1450000000.0 -1.011222000e+00 -5.696000000e-03
