! piloto_deriva / sol_carga / r01
# HZ S RI R 50
50000.0 -3.775000000e-03 -2.552900000e-02
59500.0 -3.210000000e-03 -1.732100000e-02
69000.0 -3.420000000e-04 -1.225300000e-02
78500.0 -2.139000000e-03 -6.766000000e-03
88000.0 -1.385000000e-03 -3.437000000e-03
97500.0 -6.620000000e-04 -2.610000000e-04
107000.0 -9.260000000e-04 2.199000000e-03
116500.0 -1.320000000e-04 3.948000000e-03
126000.0 8.300000000e-05 6.230000000e-03
135500.0 -4.160000000e-04 6.900000000e-03
145000.0 6.620000000e-04 7.730000000e-03
154500.0 7.370000000e-04 9.913000000e-03
164000.0 5.570000000e-04 1.034500000e-02
173500.0 1.330000000e-03 1.196000000e-02
183000.0 1.724000000e-03 1.175800000e-02
192500.0 1.699000000e-03 1.266200000e-02
202000.0 1.428000000e-03 1.455900000e-02
211500.0 1.733000000e-03 1.432700000e-02
221000.0 1.981000000e-03 1.499500000e-02
230500.0 2.135000000e-03 1.540100000e-02
240000.0 2.174000000e-03 1.665900000e-02
249500.0 1.682000000e-03 1.608700000e-02
259000.0 3.196000000e-03 1.640400000e-02
268500.0 2.127000000e-03 1.787300000e-02
278000.0 2.658000000e-03 1.748100000e-02
287500.0 2.758000000e-03 1.793100000e-02
297000.0 3.033000000e-03 1.840900000e-02
306500.0 3.044000000e-03 1.827000000e-02
316000.0 2.338000000e-03 1.914200000e-02
325500.0 2.815000000e-03 1.946300000e-02
335000.0 3.406000000e-03 1.977500000e-02
344500.0 3.220000000e-03 2.003800000e-02
354000.0 3.955000000e-03 2.017400000e-02
363500.0 4.026000000e-03 2.054400000e-02
373000.0 3.816000000e-03 2.062400000e-02
382500.0 3.768000000e-03 2.104600000e-02
392000.0 3.775000000e-03 2.104900000e-02
401500.0 3.685000000e-03 2.105800000e-02
411000.0 4.186000000e-03 2.155700000e-02
420500.0 4.014000000e-03 2.141200000e-02
430000.0 4.051000000e-03 2.283900000e-02
439500.0 3.887000000e-03 2.112800000e-02
449000.0 4.216000000e-03 2.214300000e-02
458500.0 4.019000000e-03 2.161200000e-02
468000.0 4.091000000e-03 2.273600000e-02
477500.0 4.375000000e-03 2.289900000e-02
487000.0 5.056000000e-03 2.316900000e-02
496500.0 4.734000000e-03 2.335800000e-02
506000.0 4.766000000e-03 2.340400000e-02
515500.0 5.177000000e-03 2.353100000e-02
525000.0 4.625000000e-03 2.380400000e-02
534500.0 4.766000000e-03 2.366800000e-02
544000.0 4.909000000e-03 2.480500000e-02
553500.0 6.656000000e-03 2.389100000e-02
563000.0 4.626000000e-03 2.375100000e-02
572500.0 5.573000000e-03 2.462800000e-02
582000.0 4.808000000e-03 2.475400000e-02
591500.0 5.132000000e-03 2.547000000e-02
601000.0 5.062000000e-03 2.543300000e-02
610500.0 5.077000000e-03 2.464500000e-02
620000.0 6.170000000e-03 2.491800000e-02
629500.0 5.308000000e-03 2.507100000e-02
639000.0 5.428000000e-03 2.533000000e-02
648500.0 6.615000000e-03 2.585900000e-02
658000.0 6.588000000e-03 2.506800000e-02
667500.0 6.913000000e-03 2.578700000e-02
677000.0 6.817000000e-03 2.604000000e-02
686500.0 6.664000000e-03 2.566600000e-02
696000.0 6.335000000e-03 2.640600000e-02
705500.0 6.443000000e-03 2.630300000e-02
715000.0 6.155000000e-03 2.556800000e-02
724500.0 7.105000000e-03 2.648000000e-02
734000.0 6.823000000e-03 2.689300000e-02
743500.0 6.016000000e-03 2.647400000e-02
753000.0 6.806000000e-03 2.677200000e-02
762500.0 -5.851000000e-03 1.297500000e-02
772000.0 8.560000000e-03 2.678700000e-02
781500.0 7.147000000e-03 2.643800000e-02
791000.0 7.963000000e-03 2.649200000e-02
800500.0 7.505000000e-03 2.715600000e-02
810000.0 7.729000000e-03 2.666000000e-02
819500.0 7.785000000e-03 2.660300000e-02
829000.0 8.529000000e-03 2.681900000e-02
838500.0 7.587000000e-03 2.652200000e-02
848000.0 8.367000000e-03 2.782200000e-02
857500.0 2.105000000e-02 4.006300000e-02
867000.0 8.333000000e-03 2.675600000e-02
876500.0 9.141000000e-03 2.817900000e-02
886000.0 8.055000000e-03 2.805400000e-02
895500.0 8.257000000e-03 2.677000000e-02
905000.0 7.965000000e-03 2.667800000e-02
914500.0 7.983000000e-03 2.752800000e-02
924000.0 8.561000000e-03 2.755900000e-02
933500.0 9.210000000e-03 2.700100000e-02
943000.0 1.006800000e-02 2.700700000e-02
952500.0 7.524000000e-03 2.651900000e-02
962000.0 1.019300000e-02 2.689400000e-02
971500.0 9.310000000e-03 2.788300000e-02
981000.0 1.015900000e-02 2.785900000e-02
990500.0 9.219000000e-03 2.809200000e-02
1000000.0 9.722000000e-03 2.781100000e-02
1090000.0 9.968000000e-03 2.823300000e-02
1180000.0 1.163700000e-02 2.847900000e-02
1270000.0 1.417600000e-02 2.707500000e-02
1360000.0 1.484900000e-02 2.781000000e-02
1450000.0 1.599600000e-02 2.654100000e-02
1540000.0 1.667400000e-02 2.708100000e-02
1630000.0 1.796500000e-02 2.444700000e-02
1720000.0 2.096000000e-02 2.415700000e-02
1810000.0 1.856600000e-02 2.149400000e-02
1900000.0 1.818500000e-02 1.997000000e-02
1990000.0 1.602600000e-02 1.814100000e-02
2080000.0 1.787500000e-02 1.376500000e-02
2170000.0 1.696600000e-02 1.248900000e-02
2260000.0 1.598500000e-02 1.149200000e-02
2350000.0 1.500400000e-02 1.135700000e-02
2440000.0 1.346200000e-02 1.008100000e-02
2530000.0 1.208400000e-02 8.619000000e-03
2620000.0 1.064100000e-02 8.411000000e-03
2710000.0 9.366000000e-03 1.035100000e-02
2800000.0 7.575000000e-03 7.908000000e-03
2890000.0 7.124000000e-03 9.630000000e-03
2980000.0 5.680000000e-03 8.865000000e-03
3070000.0 4.725000000e-03 9.025000000e-03
3160000.0 3.727000000e-03 7.412000000e-03
3250000.0 3.140000000e-03 9.514000000e-03
3340000.0 2.742000000e-03 9.401000000e-03
3430000.0 2.295000000e-03 8.031000000e-03
3520000.0 1.610000000e-03 9.370000000e-03
3610000.0 9.840000000e-04 9.255000000e-03
3700000.0 9.380000000e-04 1.023900000e-02
3790000.0 1.041000000e-03 9.722000000e-03
3880000.0 -2.100000000e-05 9.879000000e-03
3970000.0 -4.680000000e-04 9.289000000e-03
4060000.0 -4.860000000e-04 9.180000000e-03
4150000.0 -1.199000000e-03 9.596000000e-03
4240000.0 -1.305000000e-03 9.779000000e-03
4330000.0 -1.910000000e-03 8.845000000e-03
4420000.0 -1.367000000e-03 9.442000000e-03
4510000.0 -1.637000000e-03 8.932000000e-03
4600000.0 -1.595000000e-03 9.297000000e-03
4690000.0 -1.743000000e-03 8.777000000e-03
4780000.0 -2.379000000e-03 1.022400000e-02
4870000.0 -1.884000000e-03 9.991000000e-03
4960000.0 -1.425000000e-03 8.840000000e-03
5050000.0 -3.405000000e-03 7.962000000e-03
5140000.0 -2.267000000e-03 9.039000000e-03
5230000.0 -2.629000000e-03 8.809000000e-03
5320000.0 -2.201000000e-03 9.560000000e-03
5410000.0 -3.103000000e-03 8.934000000e-03
5500000.0 -2.984000000e-03 8.418000000e-03
5590000.0 -2.632000000e-03 1.008200000e-02
5680000.0 -2.536000000e-03 9.230000000e-03
5770000.0 -2.431000000e-03 8.809000000e-03
5860000.0 -3.484000000e-03 9.091000000e-03
5950000.0 -3.864000000e-03 8.712000000e-03
6040000.0 -3.098000000e-03 8.514000000e-03
6130000.0 -2.883000000e-03 9.015000000e-03
6220000.0 -2.388000000e-03 9.294000000e-03
6310000.0 -4.111000000e-03 8.348000000e-03
6400000.0 -3.162000000e-03 8.943000000e-03
6490000.0 -2.726000000e-03 8.447000000e-03
6580000.0 -3.922000000e-03 8.991000000e-03
6670000.0 -3.986000000e-03 7.367000000e-03
6760000.0 -3.247000000e-03 8.168000000e-03
6850000.0 -3.004000000e-03 9.048000000e-03
6940000.0 -2.968000000e-03 8.662000000e-03
7030000.0 -3.051000000e-03 8.542000000e-03
7120000.0 -3.616000000e-03 8.646000000e-03
7210000.0 -3.294000000e-03 9.028000000e-03
7300000.0 -3.735000000e-03 8.791000000e-03
7390000.0 -3.098000000e-03 7.977000000e-03
7480000.0 -3.022000000e-03 8.574000000e-03
7570000.0 -1.925500000e-02 7.890000000e-04
7660000.0 -1.834500000e-02 8.930000000e-04
7750000.0 -1.818700000e-02 6.780000000e-04
7840000.0 -1.864100000e-02 9.260000000e-04
7930000.0 -1.859400000e-02 7.150000000e-04
8020000.0 -1.839300000e-02 5.380000000e-04
8110000.0 -2.001300000e-02 1.329000000e-03
8200000.0 -1.957600000e-02 1.285000000e-03
8290000.0 -1.820600000e-02 6.530000000e-04
8380000.0 -1.822400000e-02 4.320000000e-04
8470000.0 -1.842000000e-02 1.158000000e-03
8560000.0 -1.851500000e-02 6.660000000e-04
8650000.0 -1.869800000e-02 6.740000000e-04
8740000.0 -1.829000000e-02 7.050000000e-04
8830000.0 -1.866000000e-02 1.546000000e-03
8920000.0 -1.863000000e-02 9.890000000e-04
9010000.0 -1.824200000e-02 1.970000000e-04
9100000.0 -1.811900000e-02 8.550000000e-04
9190000.0 -1.834200000e-02 6.780000000e-04
9280000.0 -1.841200000e-02 1.078000000e-03
9370000.0 -1.870400000e-02 8.530000000e-04
9460000.0 -1.935800000e-02 1.187000000e-03
9550000.0 -1.885200000e-02 1.501000000e-03
9640000.0 -1.829400000e-02 1.042000000e-03
9730000.0 -1.850600000e-02 5.440000000e-04
9820000.0 -1.856800000e-02 6.010000000e-04
9910000.0 -1.872000000e-02 1.456000000e-03
10000000.0 -1.837300000e-02 7.850000000e-04
10900000.0 -1.964300000e-02 1.019000000e-03
11800000.0 -1.822000000e-02 5.320000000e-04
12700000.0 -1.857600000e-02 1.910000000e-04
13600000.0 -1.815800000e-02 2.580000000e-04
14500000.0 -1.814400000e-02 1.610000000e-04
15400000.0 -1.865100000e-02 -4.000000000e-05
16300000.0 -1.888100000e-02 4.400000000e-04
17200000.0 -1.814200000e-02 -2.010000000e-04
18100000.0 -1.836900000e-02 -5.550000000e-04
19000000.0 -1.837400000e-02 -9.840000000e-04
19900000.0 -1.860700000e-02 -5.360000000e-04
20800000.0 -1.909200000e-02 -5.520000000e-04
21700000.0 -1.882600000e-02 -9.490000000e-04
22600000.0 -1.890400000e-02 -1.735000000e-03
23500000.0 -1.909200000e-02 -1.539000000e-03
24400000.0 -1.875500000e-02 -8.190000000e-04
25300000.0 -1.785300000e-02 -2.128000000e-03
26200000.0 -1.892400000e-02 -1.497000000e-03
27100000.0 -1.943500000e-02 -2.328000000e-03
28000000.0 -1.790400000e-02 -1.917000000e-03
28900000.0 -1.817300000e-02 -2.905000000e-03
29800000.0 -1.917100000e-02 -1.419000000e-03
30700000.0 -1.933800000e-02 -2.728000000e-03
31600000.0 -1.854300000e-02 -2.438000000e-03
32500000.0 -1.923600000e-02 -3.138000000e-03
33400000.0 -1.710900000e-02 -3.890000000e-03
34300000.0 -1.789300000e-02 -3.579000000e-03
35200000.0 -1.980200000e-02 -2.892000000e-03
36100000.0 -1.734100000e-02 -4.095000000e-03
37000000.0 -1.802000000e-02 -3.842000000e-03
37900000.0 -1.895000000e-02 -4.107000000e-03
38800000.0 -1.916600000e-02 -4.034000000e-03
39700000.0 -1.816000000e-02 -5.009000000e-03
40600000.0 -1.859600000e-02 -5.811000000e-03
41500000.0 -1.893300000e-02 -5.630000000e-03
42400000.0 -1.667900000e-02 -5.270000000e-03
43300000.0 -1.902800000e-02 -5.721000000e-03
44200000.0 -1.742900000e-02 -5.998000000e-03
45100000.0 -1.782300000e-02 -6.681000000e-03
46000000.0 -1.767600000e-02 -6.937000000e-03
46900000.0 -1.671700000e-02 -6.927000000e-03
47800000.0 -1.798500000e-02 -6.250000000e-03
48700000.0 -1.756500000e-02 -7.065000000e-03
49600000.0 -1.708600000e-02 -7.952000000e-03
50500000.0 -1.824600000e-02 -8.220000000e-03
51400000.0 -1.756600000e-02 -7.505000000e-03
52300000.0 -1.629700000e-02 -7.822000000e-03
53200000.0 -1.518800000e-02 -9.149000000e-03
54100000.0 -1.748400000e-02 -8.842000000e-03
55000000.0 -1.649300000e-02 -8.228000000e-03
55900000.0 -1.437800000e-02 -8.292000000e-03
56800000.0 -1.588400000e-02 -8.495000000e-03
57700000.0 -1.468700000e-02 -1.028200000e-02
58600000.0 -1.504900000e-02 -9.756000000e-03
59500000.0 -1.572800000e-02 -8.503000000e-03
60400000.0 -1.410500000e-02 -9.119000000e-03
61300000.0 -1.425800000e-02 -8.948000000e-03
62200000.0 -1.445700000e-02 -1.052500000e-02
63100000.0 -1.386400000e-02 -1.062100000e-02
64000000.0 -1.455300000e-02 -1.098100000e-02
64900000.0 -1.200500000e-02 -1.197800000e-02
65800000.0 -1.289000000e-02 -1.026300000e-02
66700000.0 -1.422900000e-02 -1.093700000e-02
67600000.0 -1.239700000e-02 -1.100500000e-02
68500000.0 -9.816000000e-03 -1.208500000e-02
69400000.0 -1.189300000e-02 -1.166500000e-02
70300000.0 -1.204100000e-02 -1.157400000e-02
71200000.0 -1.162900000e-02 -9.864000000e-03
72100000.0 -1.073300000e-02 -1.258100000e-02
73000000.0 -1.090300000e-02 -1.140900000e-02
73900000.0 -1.043000000e-02 -1.168800000e-02
74800000.0 -1.051400000e-02 -1.130500000e-02
75700000.0 -1.057300000e-02 -1.278700000e-02
76600000.0 -8.593000000e-03 -1.231300000e-02
77500000.0 -9.680000000e-03 -1.182600000e-02
78400000.0 -8.831000000e-03 -1.197300000e-02
79300000.0 -8.764000000e-03 -1.153000000e-02
80200000.0 -7.119000000e-03 -1.044800000e-02
81100000.0 -5.902000000e-03 -1.074600000e-02
82000000.0 -6.277000000e-03 -1.166600000e-02
82900000.0 -6.802000000e-03 -1.265300000e-02
83800000.0 -5.332000000e-03 -1.281700000e-02
84700000.0 -5.791000000e-03 -1.116900000e-02
85600000.0 -5.696000000e-03 -1.256800000e-02
86500000.0 -5.657000000e-03 -9.792000000e-03
87400000.0 -6.103000000e-03 -1.085000000e-02
88300000.0 -4.296000000e-03 -1.220700000e-02
89200000.0 -5.430000000e-03 -1.034200000e-02
90100000.0 -4.937000000e-03 -1.068800000e-02
91000000.0 -4.073000000e-03 -1.151000000e-02
91900000.0 -3.468000000e-03 -1.085400000e-02
92800000.0 -3.121000000e-03 -9.930000000e-03
93700000.0 -3.873000000e-03 -9.900000000e-03
94600000.0 -4.089000000e-03 -9.034000000e-03
95500000.0 -3.157000000e-03 -1.045000000e-02
96400000.0 -2.694000000e-03 -9.733000000e-03
97300000.0 -1.595000000e-03 -8.142000000e-03
98200000.0 -3.449000000e-03 -8.743000000e-03
99100000.0 -2.598000000e-03 -8.892000000e-03
100000000.0 -3.104000000e-03 -8.676000000e-03
109000000.0 -1.689000000e-03 -6.600000000e-03
118000000.0 -7.550000000e-04 -3.562000000e-03
127000000.0 -2.850000000e-04 -2.178000000e-03
136000000.0 6.300000000e-05 -1.794000000e-03
145000000.0 -2.850000000e-04 -3.290000000e-04
154000000.0 -6.410000000e-04 2.290000000e-04
163000000.0 -1.520000000e-04 1.650000000e-04
172000000.0 -7.020000000e-04 2.240000000e-04
181000000.0 -1.160000000e-03 -2.560000000e-04
190000000.0 -4.640000000e-04 -5.400000000e-05
199000000.0 -4.490000000e-04 3.920000000e-04
208000000.0 -6.350000000e-04 1.780000000e-04
217000000.0 -4.020000000e-04 -1.880000000e-04
226000000.0 -9.570000000e-04 2.170000000e-04
235000000.0 -5.380000000e-04 4.070000000e-04
244000000.0 -7.790000000e-04 2.590000000e-04
253000000.0 -6.160000000e-04 -5.860000000e-04
262000000.0 -4.220000000e-04 4.800000000e-05
271000000.0 -4.850000000e-04 7.700000000e-05
280000000.0 -4.870000000e-04 4.600000000e-04
289000000.0 -4.760000000e-04 2.130000000e-04
298000000.0 -5.640000000e-04 2.200000000e-05
307000000.0 -9.040000000e-04 4.480000000e-04
316000000.0 -1.239000000e-03 1.800000000e-04
325000000.0 -7.590000000e-04 4.070000000e-04
334000000.0 -5.710000000e-04 1.920000000e-04
343000000.0 -5.160000000e-04 4.680000000e-04
352000000.0 -8.390000000e-04 2.060000000e-04
361000000.0 -1.043000000e-03 2.760000000e-04
370000000.0 -7.580000000e-04 1.101000000e-03
379000000.0 -9.670000000e-04 1.700000000e-04
388000000.0 -7.690000000e-04 -1.880000000e-04
397000000.0 -1.239000000e-03 3.400000000e-04
406000000.0 -6.100000000e-04 9.300000000e-05
415000000.0 -1.116000000e-03 1.103000000e-03
424000000.0 -9.230000000e-04 -1.180000000e-04
433000000.0 -1.424000000e-03 1.350000000e-04
442000000.0 -9.800000000e-04 4.640000000e-04
451000000.0 -1.252000000e-03 6.830000000e-04
460000000.0 -9.230000000e-04 -4.000000000e-05
469000000.0 -1.434000000e-03 3.100000000e-05
478000000.0 -1.279000000e-03 3.370000000e-04
487000000.0 -1.419000000e-03 -3.300000000e-05
496000000.0 -1.154000000e-03 3.890000000e-04
505000000.0 -1.243000000e-03 1.110000000e-04
514000000.0 -1.223000000e-03 -2.190000000e-04
523000000.0 -1.289000000e-03 -3.470000000e-04
532000000.0 -1.320000000e-03 6.890000000e-04
541000000.0 -1.529000000e-03 8.800000000e-05
550000000.0 -1.387000000e-03 -2.140000000e-04
559000000.0 -1.308000000e-03 -9.200000000e-05
568000000.0 -1.246000000e-03 -4.690000000e-04
577000000.0 -1.441000000e-03 -2.830000000e-04
586000000.0 -1.245000000e-03 -2.830000000e-04
595000000.0 -1.368000000e-03 -2.680000000e-04
604000000.0 -1.283000000e-03 -3.830000000e-04
613000000.0 -1.576000000e-03 -6.290000000e-04
622000000.0 -1.564000000e-03 -5.660000000e-04
631000000.0 -1.318000000e-03 -8.100000000e-04
640000000.0 -1.286000000e-03 -9.290000000e-04
649000000.0 -1.374000000e-03 -5.500000000e-05
658000000.0 -1.602000000e-03 -7.110000000e-04
667000000.0 -1.550000000e-03 6.400000000e-05
676000000.0 -8.100000000e-04 -4.250000000e-04
685000000.0 -8.670000000e-04 -8.850000000e-04
694000000.0 -1.150000000e-03 -6.570000000e-04
703000000.0 -8.550000000e-04 -1.430000000e-04
712000000.0 -1.401000000e-03 -9.100000000e-05
721000000.0 -6.560000000e-04 1.890000000e-04
730000000.0 -1.167000000e-03 -2.290000000e-04
739000000.0 -9.550000000e-04 1.770000000e-04
748000000.0 -8.980000000e-04 -1.790000000e-04
757000000.0 -1.345000000e-03 4.000000000e-05
766000000.0 -9.820000000e-04 5.790000000e-04
775000000.0 -1.271000000e-03 2.760000000e-04
784000000.0 -1.340000000e-03 6.650000000e-04
793000000.0 -6.560000000e-04 5.970000000e-04
802000000.0 -3.200000000e-05 3.270000000e-04
811000000.0 -1.526000000e-03 3.700000000e-05
820000000.0 -1.203000000e-03 5.620000000e-04
829000000.0 -9.150000000e-04 3.700000000e-04
838000000.0 -9.210000000e-04 5.420000000e-04
847000000.0 -5.800000000e-04 1.950000000e-04
856000000.0 -1.418000000e-03 1.137000000e-03
865000000.0 -1.062000000e-03 8.110000000e-04
874000000.0 -9.580000000e-04 5.190000000e-04
883000000.0 -1.535000000e-03 2.160000000e-04
892000000.0 -9.450000000e-04 4.750000000e-04
901000000.0 -1.764000000e-03 2.930000000e-04
910000000.0 -8.140000000e-04 3.320000000e-04
919000000.0 -1.084000000e-03 2.420000000e-04
928000000.0 -2.609000000e-03 7.330000000e-04
937000000.0 -9.670000000e-04 7.690000000e-04
946000000.0 -1.217000000e-03 6.420000000e-04
955000000.0 -1.449000000e-03 7.110000000e-04
964000000.0 -1.702000000e-03 1.222000000e-03
973000000.0 -1.204000000e-03 1.219000000e-03
982000000.0 -1.383000000e-03 6.700000000e-04
991000000.0 -1.361000000e-03 1.012000000e-03
1000000000.0 -1.713000000e-03 7.510000000e-04
1004500000.0 -6.690000000e-04 5.610000000e-04
1009000000.0 -1.581000000e-03 8.130000000e-04
1013500000.0 -8.410000000e-04 9.460000000e-04
1018000000.0 -1.753000000e-03 1.503000000e-03
1022500000.0 -8.190000000e-04 8.480000000e-04
1027000000.0 -4.890000000e-04 6.200000000e-04
1031500000.0 -1.991000000e-03 6.330000000e-04
1036000000.0 -1.575000000e-03 8.080000000e-04
1040500000.0 -3.730000000e-04 7.720000000e-04
1045000000.0 -1.368000000e-03 1.127000000e-03
1049500000.0 -9.230000000e-04 8.320000000e-04
1054000000.0 -1.236000000e-03 7.270000000e-04
1058500000.0 -1.359000000e-03 1.654000000e-03
1063000000.0 -1.170000000e-03 1.263000000e-03
1067500000.0 -8.390000000e-04 1.133000000e-03
1072000000.0 -1.480000000e-03 1.303000000e-03
1076500000.0 -6.650000000e-04 1.443000000e-03
1081000000.0 -7.230000000e-04 7.970000000e-04
1085500000.0 -4.110000000e-04 6.890000000e-04
1090000000.0 -1.302000000e-03 7.200000000e-04
1094500000.0 -1.191000000e-03 1.404000000e-03
1099000000.0 -1.358000000e-03 1.229000000e-03
1103500000.0 -1.855000000e-03 7.120000000e-04
1108000000.0 -1.474000000e-03 7.550000000e-04
1112500000.0 -1.283000000e-03 1.126000000e-03
1117000000.0 5.602000000e-03 -4.970000000e-04
1121500000.0 -2.393000000e-03 1.302000000e-03
1126000000.0 -2.648000000e-03 -4.360000000e-04
1130500000.0 -9.670000000e-04 1.537000000e-03
1135000000.0 -7.470000000e-04 9.670000000e-04
1139500000.0 -1.902000000e-03 2.032000000e-03
1144000000.0 -2.737000000e-03 -5.520000000e-04
1148500000.0 -2.620000000e-04 1.872000000e-03
1153000000.0 -1.187000000e-03 1.550000000e-04
1157500000.0 -1.371000000e-03 1.244000000e-03
1162000000.0 -9.570000000e-04 7.980000000e-04
1166500000.0 -6.990000000e-04 1.147000000e-03
1171000000.0 -1.997000000e-03 1.065000000e-03
1175500000.0 -1.184000000e-03 5.340000000e-04
1180000000.0 -1.278000000e-03 1.445000000e-03
1184500000.0 -1.345000000e-03 9.440000000e-04
1189000000.0 -9.030000000e-04 9.470000000e-04
1193500000.0 -1.033000000e-03 1.070000000e-03
1198000000.0 -1.052000000e-03 1.901000000e-03
1202500000.0 -1.417000000e-03 1.094000000e-03
1207000000.0 -1.005000000e-03 1.585000000e-03
1211500000.0 -1.199000000e-03 7.360000000e-04
1216000000.0 -6.420000000e-04 1.109000000e-03
1220500000.0 -5.430000000e-04 7.040000000e-04
1225000000.0 -1.525000000e-03 1.235000000e-03
1229500000.0 -1.653000000e-03 1.050000000e-03
1234000000.0 -1.698000000e-03 1.047000000e-03
1238500000.0 -1.439000000e-03 3.060000000e-04
1243000000.0 -1.301000000e-03 7.500000000e-04
1247500000.0 -1.970000000e-03 2.250000000e-04
1252000000.0 -1.686000000e-03 1.561000000e-03
1256500000.0 -1.407000000e-03 9.690000000e-04
1261000000.0 -1.535000000e-03 5.280000000e-04
1265500000.0 -2.020000000e-03 2.630000000e-04
1270000000.0 -1.853000000e-03 8.030000000e-04
1274500000.0 -2.082000000e-03 -1.720000000e-04
1279000000.0 -1.124000000e-03 5.380000000e-04
1283500000.0 -1.754000000e-03 5.560000000e-04
1288000000.0 -1.472000000e-03 8.680000000e-04
1292500000.0 -1.470000000e-03 2.950000000e-04
1297000000.0 -1.549600000e-02 -6.179000000e-03
1301500000.0 -1.415000000e-03 2.550000000e-04
1306000000.0 -1.855000000e-03 2.420000000e-04
1310500000.0 -2.137000000e-03 4.930000000e-04
1315000000.0 -1.906000000e-03 6.010000000e-04
1319500000.0 -1.008000000e-03 7.630000000e-04
1324000000.0 -1.758000000e-03 6.270000000e-04
1328500000.0 -1.319000000e-03 -7.500000000e-05
1333000000.0 -2.506000000e-03 2.470000000e-04
1337500000.0 -2.005000000e-03 -3.530000000e-04
1342000000.0 -1.951000000e-03 -6.920000000e-04
1346500000.0 -1.657000000e-03 -5.420000000e-04
1351000000.0 -1.697000000e-03 -3.700000000e-04
1355500000.0 -2.304000000e-03 4.350000000e-04
1360000000.0 -9.300000000e-04 3.800000000e-04
1364500000.0 -2.306000000e-03 -1.390000000e-04
1369000000.0 -2.978000000e-03 1.400000000e-05
1373500000.0 -1.349000000e-03 4.200000000e-05
1378000000.0 -1.625000000e-03 5.120000000e-04
1382500000.0 -1.596000000e-03 3.730000000e-04
1387000000.0 -1.674000000e-03 4.750000000e-04
1391500000.0 -1.565000000e-03 -1.300000000e-04
1396000000.0 -7.840000000e-04 6.700000000e-04
1400500000.0 -8.870000000e-04 3.470000000e-04
1405000000.0 -1.707000000e-03 -3.640000000e-04
1409500000.0 -1.059000000e-03 -1.267000000e-03
1414000000.0 -1.426000000e-03 -2.210000000e-04
1418500000.0 -2.462000000e-03 6.300000000e-05
1423000000.0 -1.884000000e-03 1.540000000e-04
1427500000.0 -1.533000000e-03 4.320000000e-04
1432000000.0 -1.996000000e-03 -5.130000000e-04
1436500000.0 -1.998000000e-03 1.000000000e-04
1441000000.0 -1.779000000e-03 1.370000000e-04
1445500000.0 -1.611000000e-03 5.860000000e-04
1450000000.0 -1.454000000e-03 7.440000000e-04
