! piloto_deriva / corto_deriva / r55
# HZ S RI R 50
50000.0 -9.942010000e-01 -3.572800000e-02
59500.0 -9.939850000e-01 -1.833900000e-02
69000.0 -9.997060000e-01 -6.353000000e-03
78500.0 -9.992090000e-01 -1.795000000e-03
88000.0 -9.986730000e-01 9.330000000e-04
97500.0 -9.995910000e-01 3.200000000e-04
107000.0 -9.993470000e-01 -2.195000000e-03
116500.0 -9.999500000e-01 -5.645000000e-03
126000.0 -1.000968000e+00 -1.158400000e-02
135500.0 -9.997110000e-01 -1.597000000e-02
145000.0 -1.000275000e+00 -2.222600000e-02
154500.0 -1.000384000e+00 -2.950900000e-02
164000.0 -1.000358000e+00 -3.651700000e-02
173500.0 -1.000211000e+00 -4.411100000e-02
183000.0 -9.993660000e-01 -5.221100000e-02
192500.0 -1.000204000e+00 -6.043300000e-02
202000.0 -1.000294000e+00 -6.936800000e-02
211500.0 -9.995810000e-01 -7.731000000e-02
221000.0 -1.000452000e+00 -8.720300000e-02
230500.0 -1.000022000e+00 -9.574200000e-02
240000.0 -9.996330000e-01 -1.039300000e-01
249500.0 -1.001500000e+00 -1.136460000e-01
259000.0 -1.001097000e+00 -1.220870000e-01
268500.0 -1.001234000e+00 -1.318860000e-01
278000.0 -1.001352000e+00 -1.410830000e-01
287500.0 -1.001487000e+00 -1.508670000e-01
297000.0 -1.001829000e+00 -1.595110000e-01
306500.0 -1.001765000e+00 -1.695200000e-01
316000.0 -1.002646000e+00 -1.785590000e-01
325500.0 -1.003178000e+00 -1.878140000e-01
335000.0 -1.003041000e+00 -1.966350000e-01
344500.0 -1.003310000e+00 -2.055280000e-01
354000.0 -1.003509000e+00 -2.154740000e-01
363500.0 -1.003953000e+00 -2.249350000e-01
373000.0 -1.004565000e+00 -2.343640000e-01
382500.0 -1.004868000e+00 -2.437180000e-01
392000.0 -1.003698000e+00 -2.532530000e-01
401500.0 -1.004154000e+00 -2.620850000e-01
411000.0 -1.004036000e+00 -2.721900000e-01
420500.0 -1.004765000e+00 -2.812770000e-01
430000.0 -1.005193000e+00 -2.899990000e-01
439500.0 -1.005639000e+00 -3.001280000e-01
449000.0 -1.005970000e+00 -3.088130000e-01
458500.0 -1.005814000e+00 -3.186540000e-01
468000.0 -1.005126000e+00 -3.274160000e-01
477500.0 -1.006467000e+00 -3.368990000e-01
487000.0 -1.007983000e+00 -3.469690000e-01
496500.0 -1.007094000e+00 -3.559810000e-01
506000.0 -1.006357000e+00 -3.651180000e-01
515500.0 -1.008391000e+00 -3.738530000e-01
525000.0 -1.008387000e+00 -3.836210000e-01
534500.0 -1.008361000e+00 -3.923230000e-01
544000.0 -1.007807000e+00 -4.025910000e-01
553500.0 -1.009351000e+00 -4.110840000e-01
563000.0 -1.009296000e+00 -4.210150000e-01
572500.0 -1.009468000e+00 -4.298620000e-01
582000.0 -1.009682000e+00 -4.392000000e-01
591500.0 -1.009661000e+00 -4.476150000e-01
601000.0 -1.011534000e+00 -4.573190000e-01
610500.0 -1.011250000e+00 -4.650690000e-01
620000.0 -1.011497000e+00 -4.763850000e-01
629500.0 -1.012032000e+00 -4.845080000e-01
639000.0 -1.013712000e+00 -4.927320000e-01
648500.0 -1.012741000e+00 -5.029260000e-01
658000.0 -1.013947000e+00 -5.114800000e-01
667500.0 -1.014881000e+00 -5.209750000e-01
677000.0 -1.015458000e+00 -5.295400000e-01
686500.0 -1.017440000e+00 -5.389630000e-01
696000.0 -1.017902000e+00 -5.469320000e-01
705500.0 -1.018679000e+00 -5.561260000e-01
715000.0 -1.018761000e+00 -5.650420000e-01
724500.0 -1.019414000e+00 -5.745620000e-01
734000.0 -1.020758000e+00 -5.829460000e-01
743500.0 -1.022814000e+00 -5.923090000e-01
753000.0 -1.022087000e+00 -6.006220000e-01
762500.0 -1.022555000e+00 -6.103730000e-01
772000.0 -1.024588000e+00 -6.181130000e-01
781500.0 -1.024822000e+00 -6.277880000e-01
791000.0 -1.026145000e+00 -6.375630000e-01
800500.0 -1.028031000e+00 -6.453700000e-01
810000.0 -1.029920000e+00 -6.547250000e-01
819500.0 -1.031442000e+00 -6.633810000e-01
829000.0 -1.031996000e+00 -6.724700000e-01
838500.0 -1.033278000e+00 -6.804750000e-01
848000.0 -1.036400000e+00 -6.913840000e-01
857500.0 -1.037173000e+00 -6.978580000e-01
867000.0 -1.038707000e+00 -7.080580000e-01
876500.0 -1.041428000e+00 -7.154730000e-01
886000.0 -1.042693000e+00 -7.264890000e-01
895500.0 -1.044070000e+00 -7.331080000e-01
905000.0 -1.046141000e+00 -7.421670000e-01
914500.0 -1.049107000e+00 -7.501210000e-01
924000.0 -1.049820000e+00 -7.585640000e-01
933500.0 -1.050701000e+00 -7.680460000e-01
943000.0 -1.054626000e+00 -7.753930000e-01
952500.0 -1.055777000e+00 -7.841750000e-01
962000.0 -1.058429000e+00 -7.932520000e-01
971500.0 -1.061787000e+00 -8.014490000e-01
981000.0 -1.064415000e+00 -8.097660000e-01
990500.0 -1.066935000e+00 -8.180920000e-01
1000000.0 -1.070707000e+00 -8.265500000e-01
1090000.0 -1.098835000e+00 -9.043640000e-01
1180000.0 -1.134933000e+00 -9.776210000e-01
1270000.0 -1.183258000e+00 -1.046574000e+00
1360000.0 -1.242495000e+00 -1.107124000e+00
1450000.0 -1.310895000e+00 -1.156528000e+00
1540000.0 -1.387338000e+00 -1.191124000e+00
1630000.0 -1.476168000e+00 -1.210699000e+00
1720000.0 -1.566296000e+00 -1.210405000e+00
1810000.0 -1.657836000e+00 -1.186922000e+00
1900000.0 -1.738815000e+00 -1.140808000e+00
1990000.0 -1.808198000e+00 -1.075420000e+00
2080000.0 -1.862874000e+00 -9.988270000e-01
2170000.0 -1.903466000e+00 -9.102930000e-01
2260000.0 -1.923009000e+00 -8.170940000e-01
2350000.0 -1.916729000e+00 -7.261520000e-01
2440000.0 -1.902205000e+00 -6.406680000e-01
2530000.0 -1.873862000e+00 -5.647790000e-01
2620000.0 -1.840482000e+00 -4.939170000e-01
2710000.0 -1.797638000e+00 -4.330930000e-01
2800000.0 -1.757795000e+00 -3.830120000e-01
2890000.0 -1.713661000e+00 -3.410690000e-01
2980000.0 -1.672755000e+00 -3.006160000e-01
3070000.0 -1.632050000e+00 -2.690520000e-01
3160000.0 -1.592258000e+00 -2.401740000e-01
3250000.0 -1.555708000e+00 -2.147270000e-01
3340000.0 -1.520258000e+00 -1.912770000e-01
3430000.0 -1.486019000e+00 -1.727190000e-01
3520000.0 -1.456713000e+00 -1.551910000e-01
3610000.0 -1.428473000e+00 -1.386800000e-01
3700000.0 -1.401434000e+00 -1.217490000e-01
3790000.0 -1.376978000e+00 -1.061210000e-01
3880000.0 -1.353086000e+00 -9.258300000e-02
3970000.0 -1.331815000e+00 -8.011000000e-02
4060000.0 -1.312263000e+00 -6.693600000e-02
4150000.0 -1.295032000e+00 -5.477300000e-02
4240000.0 -1.279071000e+00 -4.273300000e-02
4330000.0 -1.263063000e+00 -3.164300000e-02
4420000.0 -1.248084000e+00 -1.968600000e-02
4510000.0 -1.234737000e+00 -6.416000000e-03
4600000.0 -1.223754000e+00 4.264000000e-03
4690000.0 -1.212682000e+00 1.539700000e-02
4780000.0 -1.202696000e+00 2.581500000e-02
4870000.0 -1.194649000e+00 3.582000000e-02
4960000.0 -1.186206000e+00 4.787900000e-02
5050000.0 -1.173203000e+00 5.851200000e-02
5140000.0 -1.167259000e+00 6.963100000e-02
5230000.0 -1.161952000e+00 7.996000000e-02
5320000.0 -1.156594000e+00 9.103100000e-02
5410000.0 -1.151416000e+00 1.013300000e-01
5500000.0 -1.147231000e+00 1.102670000e-01
5590000.0 -1.142359000e+00 1.205340000e-01
5680000.0 -1.139350000e+00 1.311890000e-01
5770000.0 -1.134292000e+00 1.407660000e-01
5860000.0 -1.131763000e+00 1.502430000e-01
5950000.0 -1.128933000e+00 1.572800000e-01
6040000.0 -1.124892000e+00 1.684060000e-01
6130000.0 -1.121879000e+00 1.766330000e-01
6220000.0 -1.119951000e+00 1.839270000e-01
6310000.0 -1.117447000e+00 1.919920000e-01
6400000.0 -1.114754000e+00 1.980390000e-01
6490000.0 -1.112601000e+00 2.057010000e-01
6580000.0 -1.110846000e+00 2.122630000e-01
6670000.0 -1.108333000e+00 2.180690000e-01
6760000.0 -1.106950000e+00 2.236740000e-01
6850000.0 -1.105229000e+00 2.283800000e-01
6940000.0 -1.104624000e+00 2.322140000e-01
7030000.0 -1.103963000e+00 2.360290000e-01
7120000.0 -1.101674000e+00 2.385010000e-01
7210000.0 -1.102728000e+00 2.402690000e-01
7300000.0 -1.101318000e+00 2.420650000e-01
7390000.0 -1.102420000e+00 2.424350000e-01
7480000.0 -1.101726000e+00 2.425990000e-01
7570000.0 1.956630000e-01 1.072961000e+00
7660000.0 1.952940000e-01 1.074082000e+00
7750000.0 1.938520000e-01 1.075074000e+00
7840000.0 1.925090000e-01 1.074759000e+00
7930000.0 1.920170000e-01 1.074393000e+00
8020000.0 1.916520000e-01 1.075288000e+00
8110000.0 1.907820000e-01 1.075153000e+00
8200000.0 1.902810000e-01 1.075705000e+00
8290000.0 1.896450000e-01 1.075993000e+00
8380000.0 1.888740000e-01 1.077557000e+00
8470000.0 1.882990000e-01 1.077512000e+00
8560000.0 1.867220000e-01 1.078203000e+00
8650000.0 1.868320000e-01 1.078924000e+00
8740000.0 1.854710000e-01 1.079044000e+00
8830000.0 1.844530000e-01 1.079737000e+00
8920000.0 1.839570000e-01 1.080606000e+00
9010000.0 1.835000000e-01 1.079873000e+00
9100000.0 1.823770000e-01 1.081092000e+00
9190000.0 1.828040000e-01 1.081451000e+00
9280000.0 1.808090000e-01 1.081635000e+00
9370000.0 1.809430000e-01 1.082203000e+00
9460000.0 1.798050000e-01 1.083432000e+00
9550000.0 1.788220000e-01 1.084528000e+00
9640000.0 1.789650000e-01 1.084900000e+00
9730000.0 1.783960000e-01 1.084939000e+00
9820000.0 1.769730000e-01 1.086024000e+00
9910000.0 1.767170000e-01 1.086780000e+00
10000000.0 1.762760000e-01 1.088185000e+00
10900000.0 1.687720000e-01 1.094686000e+00
11800000.0 1.634250000e-01 1.101037000e+00
12700000.0 1.562100000e-01 1.109396000e+00
13600000.0 1.511170000e-01 1.118949000e+00
14500000.0 1.451650000e-01 1.126956000e+00
15400000.0 1.386510000e-01 1.136330000e+00
16300000.0 1.302850000e-01 1.144504000e+00
17200000.0 1.236500000e-01 1.154768000e+00
18100000.0 1.159110000e-01 1.163015000e+00
19000000.0 1.092790000e-01 1.172927000e+00
19900000.0 1.009120000e-01 1.183460000e+00
20800000.0 9.279000000e-02 1.191733000e+00
21700000.0 8.471300000e-02 1.202772000e+00
22600000.0 7.570900000e-02 1.211246000e+00
23500000.0 6.538100000e-02 1.222133000e+00
24400000.0 5.784800000e-02 1.231537000e+00
25300000.0 4.654400000e-02 1.242019000e+00
26200000.0 3.629400000e-02 1.251498000e+00
27100000.0 2.587700000e-02 1.261282000e+00
28000000.0 1.353000000e-02 1.272461000e+00
28900000.0 2.592000000e-03 1.281661000e+00
29800000.0 -7.630000000e-03 1.291203000e+00
30700000.0 -2.258900000e-02 1.302728000e+00
31600000.0 -3.472400000e-02 1.311593000e+00
32500000.0 -4.845300000e-02 1.323376000e+00
33400000.0 -6.223800000e-02 1.331857000e+00
34300000.0 -7.579800000e-02 1.341106000e+00
35200000.0 -9.118100000e-02 1.350870000e+00
36100000.0 -1.044680000e-01 1.361124000e+00
37000000.0 -1.205500000e-01 1.370030000e+00
37900000.0 -1.378270000e-01 1.379625000e+00
38800000.0 -1.536920000e-01 1.388507000e+00
39700000.0 -1.715590000e-01 1.396757000e+00
40600000.0 -1.883190000e-01 1.404730000e+00
41500000.0 -2.061000000e-01 1.414131000e+00
42400000.0 -2.248680000e-01 1.420056000e+00
43300000.0 -2.434190000e-01 1.428720000e+00
44200000.0 -2.625730000e-01 1.436693000e+00
45100000.0 -2.841140000e-01 1.442501000e+00
46000000.0 -3.024280000e-01 1.447675000e+00
46900000.0 -3.227140000e-01 1.453518000e+00
47800000.0 -3.430020000e-01 1.457603000e+00
48700000.0 -3.656820000e-01 1.464011000e+00
49600000.0 -3.872490000e-01 1.468108000e+00
50500000.0 -4.097430000e-01 1.471436000e+00
51400000.0 -4.316300000e-01 1.473545000e+00
52300000.0 -4.543310000e-01 1.477957000e+00
53200000.0 -4.772790000e-01 1.479150000e+00
54100000.0 -4.987820000e-01 1.480961000e+00
55000000.0 -5.238360000e-01 1.481167000e+00
55900000.0 -5.468790000e-01 1.480364000e+00
56800000.0 -5.699490000e-01 1.481245000e+00
57700000.0 -5.941020000e-01 1.480113000e+00
58600000.0 -6.180380000e-01 1.477469000e+00
59500000.0 -6.432500000e-01 1.475254000e+00
60400000.0 -6.682160000e-01 1.471573000e+00
61300000.0 -6.925550000e-01 1.466759000e+00
62200000.0 -7.160430000e-01 1.462785000e+00
63100000.0 -7.410250000e-01 1.457618000e+00
64000000.0 -7.650160000e-01 1.451332000e+00
64900000.0 -7.900570000e-01 1.444190000e+00
65800000.0 -8.130120000e-01 1.435534000e+00
66700000.0 -8.376320000e-01 1.427513000e+00
67600000.0 -8.607230000e-01 1.418270000e+00
68500000.0 -8.838330000e-01 1.407608000e+00
69400000.0 -9.083600000e-01 1.397381000e+00
70300000.0 -9.298380000e-01 1.386660000e+00
71200000.0 -9.525920000e-01 1.374601000e+00
72100000.0 -9.755440000e-01 1.361357000e+00
73000000.0 -9.973440000e-01 1.348212000e+00
73900000.0 -1.018914000e+00 1.334199000e+00
74800000.0 -1.040821000e+00 1.318170000e+00
75700000.0 -1.060225000e+00 1.305011000e+00
76600000.0 -1.081681000e+00 1.289174000e+00
77500000.0 -1.100559000e+00 1.272748000e+00
78400000.0 -1.120442000e+00 1.255869000e+00
79300000.0 -1.139156000e+00 1.237877000e+00
80200000.0 -1.157531000e+00 1.220292000e+00
81100000.0 -1.174969000e+00 1.200661000e+00
82000000.0 -1.192433000e+00 1.179987000e+00
82900000.0 -1.209880000e+00 1.161583000e+00
83800000.0 -1.225042000e+00 1.140912000e+00
84700000.0 -1.239233000e+00 1.121176000e+00
85600000.0 -1.255401000e+00 1.100392000e+00
86500000.0 -1.268516000e+00 1.079047000e+00
87400000.0 -1.282969000e+00 1.057685000e+00
88300000.0 -1.295075000e+00 1.035827000e+00
89200000.0 -1.306951000e+00 1.014121000e+00
90100000.0 -1.317717000e+00 9.917390000e-01
91000000.0 -1.327723000e+00 9.675540000e-01
91900000.0 -1.337643000e+00 9.461190000e-01
92800000.0 -1.345219000e+00 9.237630000e-01
93700000.0 -1.354513000e+00 8.988780000e-01
94600000.0 -1.360708000e+00 8.767270000e-01
95500000.0 -1.369663000e+00 8.536010000e-01
96400000.0 -1.376192000e+00 8.300430000e-01
97300000.0 -1.379180000e+00 8.068070000e-01
98200000.0 -1.384099000e+00 7.824560000e-01
99100000.0 -1.388456000e+00 7.615870000e-01
100000000.0 -1.391671000e+00 7.375340000e-01
109000000.0 -1.384603000e+00 5.202100000e-01
118000000.0 -1.330583000e+00 3.383330000e-01
127000000.0 -1.248924000e+00 2.000950000e-01
136000000.0 -1.133719000e+00 1.005840000e-01
145000000.0 -1.046631000e+00 2.960200000e-02
154000000.0 -1.000587000e+00 -4.020000000e-04
163000000.0 -1.002385000e+00 -3.854000000e-03
172000000.0 -1.004502000e+00 -6.880000000e-03
181000000.0 -1.006077000e+00 -8.587000000e-03
190000000.0 -1.007283000e+00 -1.011300000e-02
199000000.0 -1.008191000e+00 -1.127400000e-02
208000000.0 -1.010197000e+00 -1.196900000e-02
217000000.0 -1.010493000e+00 -1.233600000e-02
226000000.0 -1.010314000e+00 -1.042400000e-02
235000000.0 -1.010122000e+00 -1.201600000e-02
244000000.0 -1.010206000e+00 -1.030000000e-02
253000000.0 -1.008710000e+00 -1.048600000e-02
262000000.0 -1.007344000e+00 -8.459000000e-03
271000000.0 -1.006976000e+00 -8.128000000e-03
280000000.0 -1.004305000e+00 -5.501000000e-03
289000000.0 -1.003181000e+00 -3.861000000e-03
298000000.0 -1.000189000e+00 -6.720000000e-04
307000000.0 -1.001885000e+00 -1.014000000e-03
316000000.0 -1.005335000e+00 -8.530000000e-04
325000000.0 -1.007004000e+00 -1.910000000e-03
334000000.0 -1.009819000e+00 -2.043000000e-03
343000000.0 -1.012107000e+00 -4.353000000e-03
352000000.0 -1.013585000e+00 -3.434000000e-03
361000000.0 -1.014424000e+00 -3.591000000e-03
370000000.0 -1.013906000e+00 -4.409000000e-03
379000000.0 -1.014063000e+00 -4.017000000e-03
388000000.0 -1.012560000e+00 1.363600000e-02
397000000.0 -1.003913000e+00 3.080000000e-02
406000000.0 -1.020186000e+00 -3.903700000e-02
415000000.0 -1.010958000e+00 -2.450000000e-03
424000000.0 -9.900340000e-01 4.453000000e-02
433000000.0 -1.004190000e+00 -3.938000000e-03
442000000.0 -1.001892000e+00 -3.448000000e-03
451000000.0 -1.000310000e+00 2.434000000e-03
460000000.0 -1.004586000e+00 7.940000000e-04
469000000.0 -1.008185000e+00 2.056000000e-03
478000000.0 -1.009889000e+00 2.914000000e-03
487000000.0 -1.012527000e+00 2.368000000e-03
496000000.0 -1.015887000e+00 -1.545300000e-02
505000000.0 -1.015579000e+00 1.710000000e-03
514000000.0 -1.014839000e+00 1.957300000e-02
523000000.0 -1.016645000e+00 2.233000000e-03
532000000.0 -1.019158000e+00 -1.407000000e-02
541000000.0 -1.014453000e+00 8.010000000e-04
550000000.0 -1.010733000e+00 1.905600000e-02
559000000.0 -1.009407000e+00 4.104000000e-03
568000000.0 -1.012742000e+00 -1.566200000e-02
577000000.0 -1.008843000e+00 1.733000000e-03
586000000.0 -1.005356000e+00 1.650000000e-03
595000000.0 -1.003673000e+00 -1.930000000e-04
604000000.0 -1.002513000e+00 -4.870000000e-04
613000000.0 -1.003721000e+00 7.800000000e-03
622000000.0 -1.005957000e+00 4.840000000e-03
631000000.0 -1.003518000e+00 1.014500000e-02
640000000.0 -1.008107000e+00 6.612000000e-03
649000000.0 -1.009735000e+00 1.054700000e-02
658000000.0 -1.011689000e+00 1.328300000e-02
667000000.0 -1.007353000e+00 1.166800000e-02
676000000.0 -1.013301000e+00 1.225400000e-02
685000000.0 -1.010402000e+00 9.394000000e-03
694000000.0 -1.010625000e+00 1.260800000e-02
703000000.0 -1.010681000e+00 7.952000000e-03
712000000.0 -1.005129000e+00 9.765000000e-03
721000000.0 -1.006188000e+00 3.729000000e-03
730000000.0 -1.004585000e+00 5.110000000e-03
739000000.0 -1.000764000e+00 5.974000000e-03
748000000.0 -1.000073000e+00 1.697000000e-03
757000000.0 -1.000530000e+00 1.102000000e-03
766000000.0 -9.979160000e-01 4.231000000e-03
775000000.0 -9.987760000e-01 6.137000000e-03
784000000.0 -9.987750000e-01 8.162000000e-03
793000000.0 -9.984280000e-01 7.994000000e-03
802000000.0 -9.960170000e-01 1.171100000e-02
811000000.0 -9.987170000e-01 6.434000000e-03
820000000.0 -9.983580000e-01 5.568000000e-03
829000000.0 -9.977160000e-01 2.445000000e-03
838000000.0 -9.983670000e-01 7.376000000e-03
847000000.0 -9.949030000e-01 6.195000000e-03
856000000.0 -9.979680000e-01 3.598000000e-03
865000000.0 -9.986620000e-01 2.944000000e-03
874000000.0 -9.953730000e-01 2.422000000e-03
883000000.0 -9.979960000e-01 -1.384000000e-03
892000000.0 -9.967890000e-01 -4.458000000e-03
901000000.0 -9.978990000e-01 -8.060000000e-03
910000000.0 -9.984600000e-01 -3.101000000e-03
919000000.0 -9.977420000e-01 -4.641000000e-03
928000000.0 -1.001574000e+00 -5.289000000e-03
937000000.0 -1.000793000e+00 -1.128200000e-02
946000000.0 -9.989950000e-01 -4.855000000e-03
955000000.0 -1.002350000e+00 -8.712000000e-03
964000000.0 -1.002427000e+00 -1.002700000e-02
973000000.0 -1.002862000e+00 -9.501000000e-03
982000000.0 -1.000936000e+00 -6.962000000e-03
991000000.0 -1.002752000e+00 -8.839000000e-03
1000000000.0 -9.996860000e-01 -6.343000000e-03
1004500000.0 -1.000968000e+00 -6.536000000e-03
1009000000.0 -1.002299000e+00 -5.278000000e-03
1013500000.0 -9.982530000e-01 -2.993000000e-03
1018000000.0 -9.999810000e-01 -6.357000000e-03
1022500000.0 -1.004480000e+00 -8.232000000e-03
1027000000.0 -1.002521000e+00 -4.289000000e-03
1031500000.0 -1.002076000e+00 -5.100000000e-03
1036000000.0 -9.981100000e-01 -2.063000000e-03
1040500000.0 -1.001173000e+00 -7.153000000e-03
1045000000.0 -1.002042000e+00 -6.442000000e-03
1049500000.0 -9.995800000e-01 -4.313000000e-03
1054000000.0 -1.001539000e+00 -8.590000000e-04
1058500000.0 -1.002860000e+00 -6.056000000e-03
1063000000.0 -1.002250000e+00 -3.652000000e-03
1067500000.0 -1.003793000e+00 -8.628000000e-03
1072000000.0 -1.002523000e+00 -1.215400000e-02
1076500000.0 -1.000625000e+00 -7.503000000e-03
1081000000.0 -1.007882000e+00 -8.490000000e-03
1085500000.0 -1.006300000e+00 -7.625000000e-03
1090000000.0 -1.005271000e+00 -5.773000000e-03
1094500000.0 -1.008864000e+00 -9.926000000e-03
1099000000.0 -1.009777000e+00 -7.493000000e-03
1103500000.0 -1.003038000e+00 -1.298600000e-02
1108000000.0 -1.006131000e+00 -8.500000000e-03
1112500000.0 -1.005240000e+00 -6.177000000e-03
1117000000.0 -1.010471000e+00 -1.825800000e-02
1121500000.0 -1.009439000e+00 -1.027900000e-02
1126000000.0 -1.009058000e+00 -8.306000000e-03
1130500000.0 -9.952450000e-01 2.680800000e-02
1135000000.0 -9.872290000e-01 2.813600000e-02
1139500000.0 -1.007589000e+00 -1.338700000e-02
1144000000.0 -1.007289000e+00 -9.111000000e-03
1148500000.0 -1.005608000e+00 -4.990000000e-03
1153000000.0 -1.000487000e+00 -7.906000000e-03
1157500000.0 -1.008067000e+00 -1.117300000e-02
1162000000.0 -9.849900000e-01 3.400600000e-02
1166500000.0 -1.004182000e+00 -4.823000000e-03
1171000000.0 -1.007554000e+00 -8.403000000e-03
1175500000.0 -1.000887000e+00 -4.507000000e-03
1180000000.0 -9.992360000e-01 -1.003400000e-02
1184500000.0 -9.983710000e-01 -1.511000000e-03
1189000000.0 -1.004644000e+00 -6.390000000e-03
1193500000.0 -9.996730000e-01 -9.013000000e-03
1198000000.0 -1.001154000e+00 -6.139000000e-03
1202500000.0 -9.976890000e-01 -1.018100000e-02
1207000000.0 -9.950830000e-01 1.291000000e-03
1211500000.0 -9.967620000e-01 -1.024000000e-03
1216000000.0 -9.998750000e-01 -8.013000000e-03
1220500000.0 -1.002255000e+00 8.920000000e-04
1225000000.0 -9.942380000e-01 3.680000000e-03
1229500000.0 -1.004346000e+00 -9.696000000e-03
1234000000.0 -9.995890000e-01 -8.986000000e-03
1238500000.0 -1.005011000e+00 -6.810000000e-03
1243000000.0 -1.011943000e+00 -1.052700000e-02
1247500000.0 -9.991520000e-01 -4.615000000e-03
1252000000.0 -1.004206000e+00 -9.710000000e-03
1256500000.0 -1.000256000e+00 -6.226000000e-03
1261000000.0 -1.005883000e+00 -1.350200000e-02
1265500000.0 -1.010614000e+00 -6.182000000e-03
1270000000.0 -9.999680000e-01 -5.316000000e-03
1274500000.0 -1.002166000e+00 -7.235000000e-03
1279000000.0 -1.005750000e+00 -2.038000000e-03
1283500000.0 -1.001775000e+00 -3.546000000e-03
1288000000.0 -1.007561000e+00 -6.299000000e-03
1292500000.0 -1.009909000e+00 -1.410100000e-02
1297000000.0 -1.000746000e+00 -1.026200000e-02
1301500000.0 -1.005332000e+00 -1.111100000e-02
1306000000.0 -1.004248000e+00 -8.658000000e-03
1310500000.0 -1.003779000e+00 -3.517000000e-03
1315000000.0 -1.004948000e+00 3.500000000e-04
1319500000.0 -1.001452000e+00 -4.437000000e-03
1324000000.0 -9.994150000e-01 -3.137000000e-03
1328500000.0 -9.923040000e-01 -9.500000000e-05
1333000000.0 -1.003774000e+00 -2.383000000e-03
1337500000.0 -9.932630000e-01 -1.137200000e-02
1342000000.0 -9.899060000e-01 -1.130000000e-02
1346500000.0 -9.989840000e-01 -1.508000000e-03
1351000000.0 -9.942350000e-01 -2.200000000e-05
1355500000.0 -9.913490000e-01 -1.074700000e-02
1360000000.0 -9.969480000e-01 -5.894000000e-03
1364500000.0 -9.982230000e-01 1.939000000e-03
1369000000.0 -1.000617000e+00 -3.079000000e-03
1373500000.0 -9.940320000e-01 -2.756000000e-03
1378000000.0 -9.953410000e-01 -6.645000000e-03
1382500000.0 -1.004213000e+00 -3.918000000e-03
1387000000.0 -9.990430000e-01 -9.592000000e-03
1391500000.0 -1.004327000e+00 -6.191000000e-03
1396000000.0 -1.007985000e+00 -2.654000000e-03
1400500000.0 -1.002952000e+00 1.960000000e-03
1405000000.0 -1.013446000e+00 -7.056000000e-03
1409500000.0 -1.012786000e+00 4.661000000e-03
1414000000.0 -1.005833000e+00 -1.002600000e-02
1418500000.0 -1.010761000e+00 -8.535000000e-03
1423000000.0 -1.014752000e+00 1.860000000e-04
1427500000.0 -1.013204000e+00 -5.900000000e-04
1432000000.0 -1.008991000e+00 -6.560000000e-04
1436500000.0 -1.013383000e+00 -5.658000000e-03
1441000000.0 -1.008530000e+00 -7.554000000e-03
1445500000.0 -1.010695000e+00 -3.970000000e-04
1450000000.0 -1.010822000e+00 -6.569000000e-03
