! piloto_deriva / corto_deriva / r14
# HZ S RI R 50
50000.0 -9.983620000e-01 -3.688400000e-02
59500.0 -9.994640000e-01 -1.791000000e-02
69000.0 -9.983460000e-01 -1.023700000e-02
78500.0 -9.995060000e-01 -1.100000000e-03
88000.0 -9.990490000e-01 1.800000000e-05
97500.0 -9.997020000e-01 -3.430000000e-04
107000.0 -1.000044000e+00 -2.489000000e-03
116500.0 -9.997910000e-01 -5.497000000e-03
126000.0 -1.000528000e+00 -1.045700000e-02
135500.0 -1.000140000e+00 -1.513900000e-02
145000.0 -1.000424000e+00 -2.259500000e-02
154500.0 -9.995010000e-01 -2.983100000e-02
164000.0 -1.000297000e+00 -3.637500000e-02
173500.0 -9.996280000e-01 -4.402200000e-02
183000.0 -1.000103000e+00 -5.192200000e-02
192500.0 -9.998880000e-01 -6.004100000e-02
202000.0 -1.000166000e+00 -6.898800000e-02
211500.0 -1.000125000e+00 -7.705100000e-02
221000.0 -1.000430000e+00 -8.608500000e-02
230500.0 -1.000872000e+00 -9.459000000e-02
240000.0 -1.000626000e+00 -1.037940000e-01
249500.0 -1.018882000e+00 -1.091060000e-01
259000.0 -1.001356000e+00 -1.219400000e-01
268500.0 -1.001187000e+00 -1.313270000e-01
278000.0 -1.001522000e+00 -1.409490000e-01
287500.0 -1.001538000e+00 -1.490980000e-01
297000.0 -1.002778000e+00 -1.591880000e-01
306500.0 -1.002258000e+00 -1.688900000e-01
316000.0 -1.002615000e+00 -1.783030000e-01
325500.0 -1.002638000e+00 -1.869820000e-01
335000.0 -1.003135000e+00 -1.960290000e-01
344500.0 -1.002886000e+00 -2.056330000e-01
354000.0 -1.004038000e+00 -2.143040000e-01
363500.0 -1.004229000e+00 -2.239580000e-01
373000.0 -1.004014000e+00 -2.337070000e-01
382500.0 -1.004629000e+00 -2.424780000e-01
392000.0 -1.005164000e+00 -2.513780000e-01
401500.0 -1.004819000e+00 -2.617800000e-01
411000.0 -1.004352000e+00 -2.707710000e-01
420500.0 -1.004400000e+00 -2.804840000e-01
430000.0 -1.005467000e+00 -2.891820000e-01
439500.0 -1.005337000e+00 -2.996940000e-01
449000.0 -1.005969000e+00 -3.079940000e-01
458500.0 -1.005926000e+00 -3.184160000e-01
468000.0 -1.006690000e+00 -3.272690000e-01
477500.0 -1.006053000e+00 -3.354860000e-01
487000.0 -1.007112000e+00 -3.444940000e-01
496500.0 -1.007153000e+00 -3.533150000e-01
506000.0 -1.007158000e+00 -3.639640000e-01
515500.0 -1.007997000e+00 -3.726290000e-01
525000.0 -1.007280000e+00 -3.826820000e-01
534500.0 -1.007883000e+00 -3.913620000e-01
544000.0 -1.008214000e+00 -4.013100000e-01
553500.0 -1.008734000e+00 -4.105360000e-01
563000.0 -1.009362000e+00 -4.183000000e-01
572500.0 -1.009228000e+00 -4.282540000e-01
582000.0 -1.009606000e+00 -4.380820000e-01
591500.0 -1.009529000e+00 -4.461880000e-01
601000.0 -1.010567000e+00 -4.555100000e-01
610500.0 -1.011161000e+00 -4.635790000e-01
620000.0 -1.011677000e+00 -4.738620000e-01
629500.0 -1.011952000e+00 -4.825410000e-01
639000.0 -1.012468000e+00 -4.922040000e-01
648500.0 -1.013479000e+00 -5.012140000e-01
658000.0 -1.013737000e+00 -5.109830000e-01
667500.0 -1.016066000e+00 -5.189040000e-01
677000.0 -1.024537000e+00 -5.092880000e-01
686500.0 -1.007441000e+00 -5.559920000e-01
696000.0 -1.023766000e+00 -5.274630000e-01
705500.0 -1.010624000e+00 -5.748770000e-01
715000.0 -1.027189000e+00 -5.450640000e-01
724500.0 -1.009789000e+00 -5.927340000e-01
734000.0 -1.028037000e+00 -5.629280000e-01
743500.0 -1.012823000e+00 -6.103250000e-01
753000.0 -1.007550000e+00 -5.861000000e-01
762500.0 -1.023612000e+00 -6.090310000e-01
772000.0 -1.024250000e+00 -6.171730000e-01
781500.0 -1.024671000e+00 -6.264620000e-01
791000.0 -1.026418000e+00 -6.360080000e-01
800500.0 -1.027429000e+00 -6.449100000e-01
810000.0 -1.029335000e+00 -6.537550000e-01
819500.0 -1.029714000e+00 -6.622140000e-01
829000.0 -1.030972000e+00 -6.704760000e-01
838500.0 -1.032609000e+00 -6.795730000e-01
848000.0 -1.033875000e+00 -6.882770000e-01
857500.0 -1.036723000e+00 -6.967360000e-01
867000.0 -1.036756000e+00 -7.042320000e-01
876500.0 -1.037714000e+00 -7.134500000e-01
886000.0 -1.041294000e+00 -7.234110000e-01
895500.0 -1.043216000e+00 -7.317320000e-01
905000.0 -1.043490000e+00 -7.394590000e-01
914500.0 -1.046086000e+00 -7.489790000e-01
924000.0 -1.049124000e+00 -7.571860000e-01
933500.0 -1.050580000e+00 -7.647550000e-01
943000.0 -1.053012000e+00 -7.748760000e-01
952500.0 -1.053769000e+00 -7.815900000e-01
962000.0 -1.057154000e+00 -7.906800000e-01
971500.0 -1.059997000e+00 -7.994920000e-01
981000.0 -1.062184000e+00 -8.074610000e-01
990500.0 -1.066536000e+00 -8.162270000e-01
1000000.0 -1.066735000e+00 -8.260460000e-01
1090000.0 -1.095564000e+00 -9.035250000e-01
1180000.0 -1.133587000e+00 -9.759280000e-01
1270000.0 -1.181220000e+00 -1.043017000e+00
1360000.0 -1.236878000e+00 -1.105751000e+00
1450000.0 -1.307816000e+00 -1.155792000e+00
1540000.0 -1.384058000e+00 -1.189444000e+00
1630000.0 -1.471297000e+00 -1.210847000e+00
1720000.0 -1.558381000e+00 -1.212351000e+00
1810000.0 -1.647552000e+00 -1.191204000e+00
1900000.0 -1.734328000e+00 -1.145920000e+00
1990000.0 -1.805036000e+00 -1.082221000e+00
2080000.0 -1.860115000e+00 -1.002891000e+00
2170000.0 -1.898883000e+00 -9.123790000e-01
2260000.0 -1.916371000e+00 -8.225620000e-01
2350000.0 -1.914956000e+00 -7.324850000e-01
2440000.0 -1.902587000e+00 -6.455320000e-01
2530000.0 -1.873354000e+00 -5.726890000e-01
2620000.0 -1.842774000e+00 -5.018190000e-01
2710000.0 -1.799153000e+00 -4.397950000e-01
2800000.0 -1.758567000e+00 -3.881840000e-01
2890000.0 -1.716376000e+00 -3.425060000e-01
2980000.0 -1.672826000e+00 -3.033260000e-01
3070000.0 -1.633934000e+00 -2.711830000e-01
3160000.0 -1.593620000e+00 -2.408040000e-01
3250000.0 -1.558774000e+00 -2.166990000e-01
3340000.0 -1.521782000e+00 -1.950140000e-01
3430000.0 -1.489115000e+00 -1.730190000e-01
3520000.0 -1.456692000e+00 -1.538140000e-01
3610000.0 -1.430196000e+00 -1.380300000e-01
3700000.0 -1.402543000e+00 -1.224690000e-01
3790000.0 -1.377963000e+00 -1.053060000e-01
3880000.0 -1.355689000e+00 -9.295100000e-02
3970000.0 -1.334761000e+00 -7.974800000e-02
4060000.0 -1.314658000e+00 -6.696200000e-02
4150000.0 -1.295232000e+00 -5.324300000e-02
4240000.0 -1.279739000e+00 -4.164800000e-02
4330000.0 -1.264341000e+00 -3.007100000e-02
4420000.0 -1.249270000e+00 -1.858800000e-02
4510000.0 -1.235795000e+00 -5.910000000e-03
4600000.0 -1.223797000e+00 2.535000000e-03
4690000.0 -1.213886000e+00 1.552600000e-02
4780000.0 -1.204179000e+00 2.609000000e-02
4870000.0 -1.194890000e+00 3.693500000e-02
4960000.0 -1.187244000e+00 4.824900000e-02
5050000.0 -1.173610000e+00 5.938600000e-02
5140000.0 -1.167011000e+00 6.979600000e-02
5230000.0 -1.161771000e+00 7.947900000e-02
5320000.0 -1.156641000e+00 9.021900000e-02
5410000.0 -1.152280000e+00 1.012380000e-01
5500000.0 -1.148507000e+00 1.113800000e-01
5590000.0 -1.143603000e+00 1.225520000e-01
5680000.0 -1.138754000e+00 1.312160000e-01
5770000.0 -1.135595000e+00 1.410030000e-01
5860000.0 -1.130432000e+00 1.494540000e-01
5950000.0 -1.128915000e+00 1.592750000e-01
6040000.0 -1.125666000e+00 1.675330000e-01
6130000.0 -1.122275000e+00 1.767360000e-01
6220000.0 -1.119504000e+00 1.852490000e-01
6310000.0 -1.117010000e+00 1.930750000e-01
6400000.0 -1.114278000e+00 1.998580000e-01
6490000.0 -1.112630000e+00 2.064610000e-01
6580000.0 -1.111066000e+00 2.132060000e-01
6670000.0 -1.109739000e+00 2.184870000e-01
6760000.0 -1.107410000e+00 2.250940000e-01
6850000.0 -1.106382000e+00 2.284110000e-01
6940000.0 -1.104941000e+00 2.324390000e-01
7030000.0 -1.103177000e+00 2.367750000e-01
7120000.0 -1.102676000e+00 2.393030000e-01
7210000.0 -1.103145000e+00 2.392030000e-01
7300000.0 -1.102958000e+00 2.428240000e-01
7390000.0 -1.102352000e+00 2.424840000e-01
7480000.0 -1.101915000e+00 2.417380000e-01
7570000.0 1.950400000e-01 1.074972000e+00
7660000.0 1.942290000e-01 1.074156000e+00
7750000.0 1.940970000e-01 1.074322000e+00
7840000.0 1.936890000e-01 1.074976000e+00
7930000.0 1.927290000e-01 1.074521000e+00
8020000.0 1.911630000e-01 1.074618000e+00
8110000.0 1.912380000e-01 1.075824000e+00
8200000.0 1.904490000e-01 1.075861000e+00
8290000.0 1.891450000e-01 1.076532000e+00
8380000.0 1.891710000e-01 1.077266000e+00
8470000.0 1.881150000e-01 1.076059000e+00
8560000.0 1.863200000e-01 1.077840000e+00
8650000.0 1.862640000e-01 1.079029000e+00
8740000.0 1.854300000e-01 1.078826000e+00
8830000.0 1.848230000e-01 1.080885000e+00
8920000.0 1.839020000e-01 1.080406000e+00
9010000.0 1.848250000e-01 1.080628000e+00
9100000.0 1.833920000e-01 1.081517000e+00
9190000.0 1.823410000e-01 1.082071000e+00
9280000.0 1.822640000e-01 1.081890000e+00
9370000.0 1.800600000e-01 1.082813000e+00
9460000.0 1.796460000e-01 1.083974000e+00
9550000.0 1.794900000e-01 1.085258000e+00
9640000.0 1.782090000e-01 1.086803000e+00
9730000.0 1.792350000e-01 1.084968000e+00
9820000.0 1.780390000e-01 1.086575000e+00
9910000.0 1.758940000e-01 1.086752000e+00
10000000.0 1.765040000e-01 1.085866000e+00
10900000.0 1.700950000e-01 1.094247000e+00
11800000.0 1.636000000e-01 1.101594000e+00
12700000.0 1.567140000e-01 1.110296000e+00
13600000.0 1.509110000e-01 1.118713000e+00
14500000.0 1.451470000e-01 1.127677000e+00
15400000.0 1.382110000e-01 1.135655000e+00
16300000.0 1.319070000e-01 1.145440000e+00
17200000.0 1.242580000e-01 1.155255000e+00
18100000.0 1.176450000e-01 1.164140000e+00
19000000.0 1.092040000e-01 1.172484000e+00
19900000.0 1.012670000e-01 1.182267000e+00
20800000.0 9.287500000e-02 1.191713000e+00
21700000.0 8.460200000e-02 1.201928000e+00
22600000.0 7.599300000e-02 1.212498000e+00
23500000.0 6.521400000e-02 1.221508000e+00
24400000.0 5.655400000e-02 1.230933000e+00
25300000.0 4.587300000e-02 1.241850000e+00
26200000.0 3.653500000e-02 1.251451000e+00
27100000.0 2.524500000e-02 1.262601000e+00
28000000.0 1.447000000e-02 1.271642000e+00
28900000.0 3.025000000e-03 1.281241000e+00
29800000.0 -9.885000000e-03 1.292421000e+00
30700000.0 -2.259800000e-02 1.302717000e+00
31600000.0 -3.436700000e-02 1.311685000e+00
32500000.0 -4.794400000e-02 1.322051000e+00
33400000.0 -6.312800000e-02 1.333057000e+00
34300000.0 -7.648400000e-02 1.341325000e+00
35200000.0 -9.048400000e-02 1.351519000e+00
36100000.0 -1.059090000e-01 1.361530000e+00
37000000.0 -1.217590000e-01 1.371051000e+00
37900000.0 -1.376000000e-01 1.379843000e+00
38800000.0 -1.538020000e-01 1.388047000e+00
39700000.0 -1.704530000e-01 1.397018000e+00
40600000.0 -1.891570000e-01 1.404720000e+00
41500000.0 -2.066040000e-01 1.412795000e+00
42400000.0 -2.245530000e-01 1.421203000e+00
43300000.0 -2.433910000e-01 1.429146000e+00
44200000.0 -2.617720000e-01 1.434836000e+00
45100000.0 -2.831070000e-01 1.441630000e+00
46000000.0 -3.019970000e-01 1.447544000e+00
46900000.0 -3.228540000e-01 1.454868000e+00
47800000.0 -3.441490000e-01 1.459589000e+00
48700000.0 -3.652060000e-01 1.464042000e+00
49600000.0 -3.872710000e-01 1.468003000e+00
50500000.0 -4.085550000e-01 1.471373000e+00
51400000.0 -4.324590000e-01 1.474862000e+00
52300000.0 -4.548090000e-01 1.476225000e+00
53200000.0 -4.772680000e-01 1.479696000e+00
54100000.0 -5.007220000e-01 1.480750000e+00
55000000.0 -5.245490000e-01 1.481413000e+00
55900000.0 -5.469200000e-01 1.481296000e+00
56800000.0 -5.697460000e-01 1.479998000e+00
57700000.0 -5.949190000e-01 1.480163000e+00
58600000.0 -6.189640000e-01 1.477326000e+00
59500000.0 -6.436270000e-01 1.475774000e+00
60400000.0 -6.663210000e-01 1.469538000e+00
61300000.0 -6.912440000e-01 1.467941000e+00
62200000.0 -7.148840000e-01 1.462463000e+00
63100000.0 -7.396500000e-01 1.456265000e+00
64000000.0 -7.630810000e-01 1.450328000e+00
64900000.0 -7.888700000e-01 1.444574000e+00
65800000.0 -8.130980000e-01 1.435986000e+00
66700000.0 -8.371920000e-01 1.427204000e+00
67600000.0 -8.600400000e-01 1.417795000e+00
68500000.0 -8.848910000e-01 1.408956000e+00
69400000.0 -9.058820000e-01 1.397339000e+00
70300000.0 -9.307470000e-01 1.385423000e+00
71200000.0 -9.525910000e-01 1.373566000e+00
72100000.0 -9.758100000e-01 1.361598000e+00
73000000.0 -9.970070000e-01 1.348433000e+00
73900000.0 -1.018574000e+00 1.334205000e+00
74800000.0 -1.040073000e+00 1.320650000e+00
75700000.0 -1.061101000e+00 1.304948000e+00
76600000.0 -1.080923000e+00 1.289132000e+00
77500000.0 -1.101409000e+00 1.271975000e+00
78400000.0 -1.119099000e+00 1.254350000e+00
79300000.0 -1.139670000e+00 1.237451000e+00
80200000.0 -1.158460000e+00 1.220259000e+00
81100000.0 -1.175121000e+00 1.200357000e+00
82000000.0 -1.191472000e+00 1.181697000e+00
82900000.0 -1.209605000e+00 1.162711000e+00
83800000.0 -1.225155000e+00 1.142397000e+00
84700000.0 -1.240656000e+00 1.120661000e+00
85600000.0 -1.255907000e+00 1.099697000e+00
86500000.0 -1.270508000e+00 1.079330000e+00
87400000.0 -1.283901000e+00 1.056350000e+00
88300000.0 -1.293417000e+00 1.036039000e+00
89200000.0 -1.305484000e+00 1.014030000e+00
90100000.0 -1.317732000e+00 9.910880000e-01
91000000.0 -1.329511000e+00 9.670630000e-01
91900000.0 -1.337305000e+00 9.450170000e-01
92800000.0 -1.346723000e+00 9.229910000e-01
93700000.0 -1.355097000e+00 9.001280000e-01
94600000.0 -1.361811000e+00 8.750910000e-01
95500000.0 -1.368621000e+00 8.536240000e-01
96400000.0 -1.375184000e+00 8.304620000e-01
97300000.0 -1.379653000e+00 8.069590000e-01
98200000.0 -1.385243000e+00 7.837720000e-01
99100000.0 -1.387093000e+00 7.609520000e-01
100000000.0 -1.392628000e+00 7.376960000e-01
109000000.0 -1.386427000e+00 5.213010000e-01
118000000.0 -1.330973000e+00 3.393510000e-01
127000000.0 -1.249355000e+00 1.993640000e-01
136000000.0 -1.134635000e+00 1.008100000e-01
145000000.0 -1.046521000e+00 2.989100000e-02
154000000.0 -1.000586000e+00 -4.110000000e-04
163000000.0 -1.002113000e+00 -3.148000000e-03
172000000.0 -1.004708000e+00 -6.087000000e-03
181000000.0 -1.006464000e+00 -7.979000000e-03
190000000.0 -1.007236000e+00 -9.603000000e-03
199000000.0 -1.009040000e+00 -1.011000000e-02
208000000.0 -1.009429000e+00 -1.158400000e-02
217000000.0 -1.010365000e+00 -1.180900000e-02
226000000.0 -1.010526000e+00 -1.210500000e-02
235000000.0 -1.009884000e+00 -1.079200000e-02
244000000.0 -1.009436000e+00 -1.127800000e-02
253000000.0 -1.008862000e+00 -1.013800000e-02
262000000.0 -1.007908000e+00 -7.556000000e-03
271000000.0 -1.005667000e+00 -7.499000000e-03
280000000.0 -1.004850000e+00 -4.896000000e-03
289000000.0 -1.001937000e+00 -1.150000000e-03
298000000.0 -1.000132000e+00 -1.540000000e-04
307000000.0 -1.001779000e+00 1.900000000e-04
316000000.0 -1.005450000e+00 4.460000000e-04
325000000.0 -1.008053000e+00 -2.075000000e-03
334000000.0 -1.010310000e+00 -1.657000000e-03
343000000.0 -1.015387000e+00 -2.176700000e-02
352000000.0 -1.013071000e+00 -4.253000000e-03
361000000.0 -1.014894000e+00 -3.366000000e-03
370000000.0 -1.015163000e+00 -3.934000000e-03
379000000.0 -1.012226000e+00 1.503000000e-02
388000000.0 -1.012604000e+00 1.510300000e-02
397000000.0 -1.012762000e+00 -3.639000000e-03
406000000.0 -1.011195000e+00 -4.559000000e-03
415000000.0 -1.010073000e+00 -3.229000000e-03
424000000.0 -1.009089000e+00 -3.673000000e-03
433000000.0 -1.005442000e+00 -6.070000000e-04
442000000.0 -1.003370000e+00 -3.212000000e-03
451000000.0 -9.990170000e-01 8.410000000e-04
460000000.0 -1.004690000e+00 1.897000000e-03
469000000.0 -1.007434000e+00 2.088000000e-03
478000000.0 -1.010274000e+00 1.558000000e-03
487000000.0 -1.012120000e+00 6.700000000e-04
496000000.0 -1.015291000e+00 2.781000000e-03
505000000.0 -1.016620000e+00 2.094000000e-03
514000000.0 -1.017377000e+00 2.015000000e-03
523000000.0 -1.015991000e+00 4.605000000e-03
532000000.0 -1.016774000e+00 1.444000000e-03
541000000.0 -1.017163000e+00 2.860000000e-03
550000000.0 -1.012772000e+00 1.972600000e-02
559000000.0 -1.012114000e+00 4.066000000e-03
568000000.0 -1.012702000e+00 -1.722400000e-02
577000000.0 -1.008423000e+00 1.596000000e-03
586000000.0 -1.004963000e+00 2.091600000e-02
595000000.0 -1.002486000e+00 1.420000000e-04
604000000.0 -1.002573000e+00 -1.590200000e-02
613000000.0 -1.003947000e+00 5.118000000e-03
622000000.0 -1.002280000e+00 2.447000000e-02
631000000.0 -1.009344000e+00 8.731000000e-03
640000000.0 -1.010987000e+00 -8.516000000e-03
649000000.0 -1.010231000e+00 9.555000000e-03
658000000.0 -1.008400000e+00 9.888000000e-03
667000000.0 -1.012396000e+00 1.721600000e-02
676000000.0 -1.011492000e+00 1.035200000e-02
685000000.0 -1.008965000e+00 8.770000000e-03
694000000.0 -1.009636000e+00 1.004900000e-02
703000000.0 -1.008074000e+00 9.705000000e-03
712000000.0 -1.008138000e+00 1.214800000e-02
721000000.0 -1.005548000e+00 9.788000000e-03
730000000.0 -1.004220000e+00 4.938000000e-03
739000000.0 -1.003926000e+00 4.700000000e-03
748000000.0 -1.000007000e+00 -1.249000000e-03
757000000.0 -1.001330000e+00 1.683000000e-03
766000000.0 -9.998750000e-01 3.745000000e-03
775000000.0 -9.981970000e-01 9.328000000e-03
784000000.0 -1.001922000e+00 5.479000000e-03
793000000.0 -9.968680000e-01 8.835000000e-03
802000000.0 -9.985120000e-01 7.471000000e-03
811000000.0 -9.996200000e-01 1.023600000e-02
820000000.0 -9.993100000e-01 9.723000000e-03
829000000.0 -9.976460000e-01 5.845000000e-03
838000000.0 -9.974520000e-01 8.260000000e-03
847000000.0 -9.974080000e-01 5.865000000e-03
856000000.0 -9.995350000e-01 2.839000000e-03
865000000.0 -9.957980000e-01 1.267000000e-03
874000000.0 -9.958500000e-01 6.890000000e-03
883000000.0 -9.999060000e-01 -2.184000000e-03
892000000.0 -9.995740000e-01 -7.990000000e-04
901000000.0 -9.949430000e-01 1.379000000e-03
910000000.0 -9.985850000e-01 6.200000000e-05
919000000.0 -9.994530000e-01 -1.589000000e-03
928000000.0 -9.988140000e-01 -5.239000000e-03
937000000.0 -1.002626000e+00 -5.587000000e-03
946000000.0 -1.001194000e+00 -3.641000000e-03
955000000.0 -1.001489000e+00 -6.482000000e-03
964000000.0 -1.001432000e+00 -7.040000000e-03
973000000.0 -9.991960000e-01 -9.205000000e-03
982000000.0 -1.001199000e+00 -8.009000000e-03
991000000.0 -1.002217000e+00 -9.578000000e-03
1000000000.0 -1.000874000e+00 -7.212000000e-03
1004500000.0 -1.001145000e+00 -8.960000000e-03
1009000000.0 -9.990470000e-01 -4.056000000e-03
1013500000.0 -1.002313000e+00 -3.179000000e-03
1018000000.0 -9.995190000e-01 -8.111000000e-03
1022500000.0 -1.003146000e+00 -5.802000000e-03
1027000000.0 -9.994990000e-01 -9.251000000e-03
1031500000.0 -9.995620000e-01 -1.003000000e-02
1036000000.0 -1.000862000e+00 -7.435000000e-03
1040500000.0 -1.003522000e+00 -2.534000000e-03
1045000000.0 -1.002631000e+00 -5.930000000e-03
1049500000.0 -1.001543000e+00 -1.641000000e-03
1054000000.0 -1.000022000e+00 -9.469000000e-03
1058500000.0 -1.002213000e+00 -7.867000000e-03
1063000000.0 -1.006271000e+00 -6.766000000e-03
1067500000.0 -1.005696000e+00 -7.361000000e-03
1072000000.0 -1.007063000e+00 -1.051000000e-02
1076500000.0 -1.003498000e+00 -1.545000000e-02
1081000000.0 -1.008682000e+00 -8.520000000e-03
1085500000.0 -1.007131000e+00 -4.765000000e-03
1090000000.0 -1.004199000e+00 -1.843400000e-02
1094500000.0 -1.004021000e+00 -1.107100000e-02
1099000000.0 -1.007548000e+00 -9.536000000e-03
1103500000.0 -1.006546000e+00 -1.219800000e-02
1108000000.0 -1.007316000e+00 -9.497000000e-03
1112500000.0 -1.006429000e+00 -9.843000000e-03
1117000000.0 -1.005040000e+00 -1.266700000e-02
1121500000.0 -1.005984000e+00 -1.119400000e-02
1126000000.0 -1.001881000e+00 2.591700000e-02
1130500000.0 -1.012523000e+00 -9.420000000e-03
1135000000.0 -1.007124000e+00 -7.272000000e-03
1139500000.0 -1.008341000e+00 -2.183500000e-02
1144000000.0 -1.009712000e+00 -2.285800000e-02
1148500000.0 -1.005889000e+00 -8.003000000e-03
1153000000.0 -1.018765000e+00 -6.231400000e-02
1157500000.0 -1.014686000e+00 -4.588800000e-02
1162000000.0 -1.004987000e+00 -6.223000000e-03
1166500000.0 -1.003504000e+00 -9.320000000e-03
1171000000.0 -9.965530000e-01 -8.426000000e-03
1175500000.0 -1.000438000e+00 -6.037000000e-03
1180000000.0 -1.005514000e+00 -9.457000000e-03
1184500000.0 -1.001765000e+00 -3.229000000e-03
1189000000.0 -1.000030000e+00 -6.338000000e-03
1193500000.0 -9.921360000e-01 -4.951000000e-03
1198000000.0 -9.987850000e-01 -3.252000000e-03
1202500000.0 -9.976730000e-01 -7.009000000e-03
1207000000.0 -9.956540000e-01 -6.940000000e-04
1211500000.0 -1.000327000e+00 -3.821000000e-03
1216000000.0 -9.940770000e-01 4.300000000e-04
1220500000.0 -1.002042000e+00 -4.340000000e-03
1225000000.0 -9.973730000e-01 -7.240000000e-03
1229500000.0 -1.004670000e+00 -6.036000000e-03
1234000000.0 -1.003060000e+00 -7.097000000e-03
1238500000.0 -1.000458000e+00 -4.976000000e-03
1243000000.0 -1.008528000e+00 -5.704000000e-03
1247500000.0 -1.005693000e+00 -5.336000000e-03
1252000000.0 -9.999680000e-01 -1.372000000e-03
1256500000.0 -1.009640000e+00 -6.524000000e-03
1261000000.0 -1.009420000e+00 -1.034100000e-02
1265500000.0 -1.007127000e+00 -4.422000000e-03
1270000000.0 -1.003277000e+00 -7.525000000e-03
1274500000.0 -1.002723000e+00 -2.497000000e-03
1279000000.0 -1.002713000e+00 -1.561000000e-03
1283500000.0 -1.006828000e+00 -3.787000000e-03
1288000000.0 -1.005314000e+00 -6.356000000e-03
1292500000.0 -1.000582000e+00 -5.196000000e-03
1297000000.0 -9.993310000e-01 2.840000000e-03
1301500000.0 -1.001689000e+00 -5.959000000e-03
1306000000.0 -1.003836000e+00 -4.832000000e-03
1310500000.0 -1.006016000e+00 2.200000000e-04
1315000000.0 -1.005509000e+00 -5.650000000e-03
1319500000.0 -1.003898000e+00 -1.792000000e-03
1324000000.0 -1.000118000e+00 -5.572000000e-03
1328500000.0 -9.939650000e-01 -2.691000000e-03
1333000000.0 -9.914710000e-01 1.908000000e-03
1337500000.0 -9.957790000e-01 -1.800000000e-03
1342000000.0 -9.999280000e-01 5.890000000e-04
1346500000.0 -9.982590000e-01 -1.165700000e-02
1351000000.0 -9.910600000e-01 -9.518000000e-03
1355500000.0 -9.945740000e-01 -2.120000000e-04
1360000000.0 -9.982860000e-01 -5.984000000e-03
1364500000.0 -9.949430000e-01 -9.319000000e-03
1369000000.0 -1.004394000e+00 -1.516000000e-02
1373500000.0 -9.948730000e-01 -3.444000000e-03
1378000000.0 -1.002126000e+00 9.130000000e-04
1382500000.0 -1.010031000e+00 -3.027000000e-03
1387000000.0 -9.987560000e-01 2.478000000e-03
1391500000.0 -1.007324000e+00 -1.278000000e-03
1396000000.0 -1.002428000e+00 -3.508000000e-03
1400500000.0 -1.003289000e+00 6.427000000e-03
1405000000.0 -9.987950000e-01 -5.205000000e-03
1409500000.0 -1.007627000e+00 -1.902000000e-03
1414000000.0 -1.006562000e+00 5.506000000e-03
1418500000.0 -1.002038000e+00 -6.281000000e-03
1423000000.0 -9.993050000e-01 -3.279000000e-03
1427500000.0 -1.002319000e+00 -1.157000000e-03
1432000000.0 -1.011041000e+00 -1.236000000e-03
1436500000.0 -1.009999000e+00 -3.108000000e-03
1441000000.0 -1.010517000e+00 4.037000000e-03
1445500000.0 -1.009709000e+00 -7.386000000e-03
1450000000.0 -1.010821000e+00 -2.882000000e-03
