! piloto_deriva / corto_deriva / r42
# HZ S RI R 50
50000.0 -9.980020000e-01 -3.678000000e-02
59500.0 -9.963930000e-01 -1.805700000e-02
69000.0 -9.995790000e-01 -8.200000000e-03
78500.0 -9.992140000e-01 -6.820000000e-04
88000.0 -9.992070000e-01 3.990000000e-04
97500.0 -1.000161000e+00 -8.500000000e-05
107000.0 -1.000701000e+00 -2.591000000e-03
116500.0 -9.998900000e-01 -5.994000000e-03
126000.0 -9.994790000e-01 -1.075700000e-02
135500.0 -9.994270000e-01 -1.550400000e-02
145000.0 -1.000114000e+00 -2.300300000e-02
154500.0 -1.000206000e+00 -2.950200000e-02
164000.0 -1.001095000e+00 -3.639800000e-02
173500.0 -1.000099000e+00 -4.433900000e-02
183000.0 -9.999380000e-01 -5.247000000e-02
192500.0 -9.997720000e-01 -6.069200000e-02
202000.0 -1.000412000e+00 -6.882500000e-02
211500.0 -1.000163000e+00 -7.734400000e-02
221000.0 -1.000047000e+00 -8.675500000e-02
230500.0 -1.000798000e+00 -9.503300000e-02
240000.0 -9.999030000e-01 -1.046570000e-01
249500.0 -1.000381000e+00 -1.132230000e-01
259000.0 -1.001176000e+00 -1.225430000e-01
268500.0 -1.001362000e+00 -1.311280000e-01
278000.0 -1.002308000e+00 -1.420660000e-01
287500.0 -1.002539000e+00 -1.500760000e-01
297000.0 -1.002383000e+00 -1.593120000e-01
306500.0 -1.002324000e+00 -1.691480000e-01
316000.0 -1.002027000e+00 -1.773290000e-01
325500.0 -1.003076000e+00 -1.874540000e-01
335000.0 -1.002730000e+00 -1.961970000e-01
344500.0 -1.003271000e+00 -2.059280000e-01
354000.0 -1.003043000e+00 -2.150050000e-01
363500.0 -1.003766000e+00 -2.249170000e-01
373000.0 -1.003598000e+00 -2.343050000e-01
382500.0 -1.004556000e+00 -2.435350000e-01
392000.0 -1.004703000e+00 -2.516450000e-01
401500.0 -1.004351000e+00 -2.620510000e-01
411000.0 -1.004887000e+00 -2.720830000e-01
420500.0 -1.005132000e+00 -2.800900000e-01
430000.0 -1.005224000e+00 -2.895100000e-01
439500.0 -1.005191000e+00 -2.997080000e-01
449000.0 -1.004759000e+00 -3.083660000e-01
458500.0 -1.005349000e+00 -3.180190000e-01
468000.0 -1.006376000e+00 -3.275490000e-01
477500.0 -1.006697000e+00 -3.372150000e-01
487000.0 -1.006489000e+00 -3.455290000e-01
496500.0 -1.006793000e+00 -3.552460000e-01
506000.0 -1.007933000e+00 -3.652790000e-01
515500.0 -1.007249000e+00 -3.734910000e-01
525000.0 -1.008523000e+00 -3.826660000e-01
534500.0 -1.008192000e+00 -3.920060000e-01
544000.0 -1.009039000e+00 -4.009420000e-01
553500.0 -1.008880000e+00 -4.100290000e-01
563000.0 -1.008557000e+00 -4.203570000e-01
572500.0 -1.009158000e+00 -4.300850000e-01
582000.0 -1.010537000e+00 -4.385160000e-01
591500.0 -1.009637000e+00 -4.468860000e-01
601000.0 -1.011393000e+00 -4.563570000e-01
610500.0 -1.011923000e+00 -4.660850000e-01
620000.0 -1.011846000e+00 -4.747420000e-01
629500.0 -1.011704000e+00 -4.829780000e-01
639000.0 -1.013439000e+00 -4.927810000e-01
648500.0 -1.013369000e+00 -5.012980000e-01
658000.0 -1.014429000e+00 -5.103580000e-01
667500.0 -1.015348000e+00 -5.198310000e-01
677000.0 -1.014365000e+00 -5.291020000e-01
686500.0 -1.016039000e+00 -5.383530000e-01
696000.0 -1.017700000e+00 -5.466010000e-01
705500.0 -1.018529000e+00 -5.565240000e-01
715000.0 -1.018629000e+00 -5.653480000e-01
724500.0 -1.019993000e+00 -5.742980000e-01
734000.0 -1.020436000e+00 -5.823000000e-01
743500.0 -1.020640000e+00 -5.913870000e-01
753000.0 -1.023383000e+00 -5.999060000e-01
762500.0 -1.024475000e+00 -6.094900000e-01
772000.0 -1.023469000e+00 -6.197590000e-01
781500.0 -1.024872000e+00 -6.274640000e-01
791000.0 -1.026154000e+00 -6.362300000e-01
800500.0 -1.027864000e+00 -6.443140000e-01
810000.0 -1.029152000e+00 -6.545040000e-01
819500.0 -1.032053000e+00 -6.637160000e-01
829000.0 -1.032619000e+00 -6.706140000e-01
838500.0 -1.033564000e+00 -6.805600000e-01
848000.0 -1.036057000e+00 -6.890940000e-01
857500.0 -1.035728000e+00 -6.985450000e-01
867000.0 -1.038246000e+00 -7.057080000e-01
876500.0 -1.038505000e+00 -7.148790000e-01
886000.0 -1.042345000e+00 -7.245850000e-01
895500.0 -1.042722000e+00 -7.331130000e-01
905000.0 -1.045913000e+00 -7.406920000e-01
914500.0 -1.046892000e+00 -7.501830000e-01
924000.0 -1.048291000e+00 -7.591000000e-01
933500.0 -1.051045000e+00 -7.672200000e-01
943000.0 -1.054760000e+00 -7.767080000e-01
952500.0 -1.054752000e+00 -7.838920000e-01
962000.0 -1.058730000e+00 -7.920550000e-01
971500.0 -1.059829000e+00 -8.012070000e-01
981000.0 -1.063063000e+00 -8.102740000e-01
990500.0 -1.065355000e+00 -8.179680000e-01
1000000.0 -1.068152000e+00 -8.284600000e-01
1090000.0 -1.097664000e+00 -9.044580000e-01
1180000.0 -1.134879000e+00 -9.780520000e-01
1270000.0 -1.181684000e+00 -1.045576000e+00
1360000.0 -1.242691000e+00 -1.106160000e+00
1450000.0 -1.309188000e+00 -1.154135000e+00
1540000.0 -1.384352000e+00 -1.195073000e+00
1630000.0 -1.474896000e+00 -1.212485000e+00
1720000.0 -1.565582000e+00 -1.212358000e+00
1810000.0 -1.650890000e+00 -1.188240000e+00
1900000.0 -1.735959000e+00 -1.145880000e+00
1990000.0 -1.807783000e+00 -1.078761000e+00
2080000.0 -1.863169000e+00 -1.000222000e+00
2170000.0 -1.900154000e+00 -9.131220000e-01
2260000.0 -1.916095000e+00 -8.192450000e-01
2350000.0 -1.916413000e+00 -7.285440000e-01
2440000.0 -1.899629000e+00 -6.470150000e-01
2530000.0 -1.872852000e+00 -5.639420000e-01
2620000.0 -1.838711000e+00 -4.975870000e-01
2710000.0 -1.798386000e+00 -4.373470000e-01
2800000.0 -1.758439000e+00 -3.871200000e-01
2890000.0 -1.717008000e+00 -3.408930000e-01
2980000.0 -1.672630000e+00 -3.013470000e-01
3070000.0 -1.631700000e+00 -2.686700000e-01
3160000.0 -1.592372000e+00 -2.408180000e-01
3250000.0 -1.554177000e+00 -2.156380000e-01
3340000.0 -1.522160000e+00 -1.940570000e-01
3430000.0 -1.488042000e+00 -1.716660000e-01
3520000.0 -1.457174000e+00 -1.551090000e-01
3610000.0 -1.429730000e+00 -1.370460000e-01
3700000.0 -1.402911000e+00 -1.216970000e-01
3790000.0 -1.375890000e+00 -1.074760000e-01
3880000.0 -1.354141000e+00 -9.390900000e-02
3970000.0 -1.333141000e+00 -8.015600000e-02
4060000.0 -1.313930000e+00 -6.683800000e-02
4150000.0 -1.294931000e+00 -5.453900000e-02
4240000.0 -1.278821000e+00 -4.212900000e-02
4330000.0 -1.262123000e+00 -3.071300000e-02
4420000.0 -1.247949000e+00 -1.818700000e-02
4510000.0 -1.235619000e+00 -6.744000000e-03
4600000.0 -1.224589000e+00 5.184000000e-03
4690000.0 -1.215048000e+00 1.442300000e-02
4780000.0 -1.202996000e+00 2.571200000e-02
4870000.0 -1.194785000e+00 3.775100000e-02
4960000.0 -1.186810000e+00 4.781400000e-02
5050000.0 -1.174185000e+00 5.883900000e-02
5140000.0 -1.167791000e+00 7.033700000e-02
5230000.0 -1.162059000e+00 7.979600000e-02
5320000.0 -1.155880000e+00 9.073800000e-02
5410000.0 -1.152019000e+00 1.008820000e-01
5500000.0 -1.147815000e+00 1.101440000e-01
5590000.0 -1.142734000e+00 1.208560000e-01
5680000.0 -1.139947000e+00 1.308050000e-01
5770000.0 -1.135437000e+00 1.415960000e-01
5860000.0 -1.133400000e+00 1.499190000e-01
5950000.0 -1.128374000e+00 1.598280000e-01
6040000.0 -1.125329000e+00 1.685440000e-01
6130000.0 -1.122417000e+00 1.762730000e-01
6220000.0 -1.119647000e+00 1.844880000e-01
6310000.0 -1.115852000e+00 1.917780000e-01
6400000.0 -1.114815000e+00 2.000590000e-01
6490000.0 -1.112859000e+00 2.075760000e-01
6580000.0 -1.110582000e+00 2.123720000e-01
6670000.0 -1.109411000e+00 2.184060000e-01
6760000.0 -1.107423000e+00 2.230490000e-01
6850000.0 -1.106472000e+00 2.288840000e-01
6940000.0 -1.104744000e+00 2.319000000e-01
7030000.0 -1.103543000e+00 2.365870000e-01
7120000.0 -1.102305000e+00 2.380370000e-01
7210000.0 -1.102375000e+00 2.403740000e-01
7300000.0 -1.102279000e+00 2.422010000e-01
7390000.0 -1.101361000e+00 2.418480000e-01
7480000.0 -1.102356000e+00 2.432200000e-01
7570000.0 1.961020000e-01 1.073959000e+00
7660000.0 1.950380000e-01 1.074701000e+00
7750000.0 1.948630000e-01 1.074319000e+00
7840000.0 1.930760000e-01 1.074688000e+00
7930000.0 1.917310000e-01 1.075139000e+00
8020000.0 1.919630000e-01 1.075533000e+00
8110000.0 1.914930000e-01 1.075323000e+00
8200000.0 1.896370000e-01 1.076312000e+00
8290000.0 1.891330000e-01 1.076022000e+00
8380000.0 1.882800000e-01 1.077616000e+00
8470000.0 1.886360000e-01 1.077965000e+00
8560000.0 1.865430000e-01 1.077566000e+00
8650000.0 1.862100000e-01 1.078338000e+00
8740000.0 1.861290000e-01 1.078661000e+00
8830000.0 1.854730000e-01 1.079787000e+00
8920000.0 1.843300000e-01 1.079169000e+00
9010000.0 1.830210000e-01 1.081454000e+00
9100000.0 1.826690000e-01 1.081583000e+00
9190000.0 1.829900000e-01 1.081091000e+00
9280000.0 1.818470000e-01 1.083140000e+00
9370000.0 1.811880000e-01 1.082319000e+00
9460000.0 1.798040000e-01 1.084042000e+00
9550000.0 1.788330000e-01 1.083689000e+00
9640000.0 1.800670000e-01 1.085024000e+00
9730000.0 1.782720000e-01 1.085085000e+00
9820000.0 1.769190000e-01 1.085378000e+00
9910000.0 1.771600000e-01 1.087055000e+00
10000000.0 1.757410000e-01 1.086593000e+00
10900000.0 1.695630000e-01 1.094159000e+00
11800000.0 1.628880000e-01 1.102402000e+00
12700000.0 1.568800000e-01 1.110245000e+00
13600000.0 1.514740000e-01 1.118742000e+00
14500000.0 1.443230000e-01 1.126857000e+00
15400000.0 1.380200000e-01 1.137559000e+00
16300000.0 1.307440000e-01 1.144795000e+00
17200000.0 1.242590000e-01 1.153947000e+00
18100000.0 9.645800000e-02 1.168346000e+00
19000000.0 1.288080000e-01 1.169073000e+00
19900000.0 8.106300000e-02 1.185701000e+00
20800000.0 1.137940000e-01 1.188263000e+00
21700000.0 6.391000000e-02 1.205585000e+00
22600000.0 9.502600000e-02 1.207670000e+00
23500000.0 4.549500000e-02 1.225218000e+00
24400000.0 7.775000000e-02 1.227238000e+00
25300000.0 4.682200000e-02 1.241398000e+00
26200000.0 3.664800000e-02 1.252672000e+00
27100000.0 2.453500000e-02 1.261480000e+00
28000000.0 1.313100000e-02 1.272327000e+00
28900000.0 2.922000000e-03 1.281926000e+00
29800000.0 -1.027900000e-02 1.292482000e+00
30700000.0 -2.151400000e-02 1.302238000e+00
31600000.0 -3.478100000e-02 1.312509000e+00
32500000.0 -4.816200000e-02 1.321917000e+00
33400000.0 -6.185400000e-02 1.332240000e+00
34300000.0 -7.621300000e-02 1.342386000e+00
35200000.0 -8.924100000e-02 1.351465000e+00
36100000.0 -1.051420000e-01 1.361473000e+00
37000000.0 -1.209210000e-01 1.370205000e+00
37900000.0 -1.378390000e-01 1.378622000e+00
38800000.0 -1.537240000e-01 1.388108000e+00
39700000.0 -1.706400000e-01 1.396452000e+00
40600000.0 -1.882420000e-01 1.403720000e+00
41500000.0 -2.065590000e-01 1.412941000e+00
42400000.0 -2.253510000e-01 1.420142000e+00
43300000.0 -2.443870000e-01 1.427736000e+00
44200000.0 -2.629430000e-01 1.435763000e+00
45100000.0 -2.822940000e-01 1.440810000e+00
46000000.0 -3.020720000e-01 1.447478000e+00
46900000.0 -3.228300000e-01 1.453780000e+00
47800000.0 -3.444490000e-01 1.459294000e+00
48700000.0 -3.657320000e-01 1.463222000e+00
49600000.0 -3.881060000e-01 1.467456000e+00
50500000.0 -4.091390000e-01 1.472316000e+00
51400000.0 -4.314330000e-01 1.475463000e+00
52300000.0 -4.546480000e-01 1.477826000e+00
53200000.0 -4.769530000e-01 1.479522000e+00
54100000.0 -5.009620000e-01 1.481106000e+00
55000000.0 -5.235850000e-01 1.481785000e+00
55900000.0 -5.469800000e-01 1.480643000e+00
56800000.0 -5.710950000e-01 1.481128000e+00
57700000.0 -5.944550000e-01 1.478676000e+00
58600000.0 -6.192600000e-01 1.477289000e+00
59500000.0 -6.434730000e-01 1.475021000e+00
60400000.0 -6.677350000e-01 1.470643000e+00
61300000.0 -6.931400000e-01 1.467282000e+00
62200000.0 -7.165790000e-01 1.463267000e+00
63100000.0 -7.407740000e-01 1.456610000e+00
64000000.0 -7.649340000e-01 1.450364000e+00
64900000.0 -7.884110000e-01 1.443984000e+00
65800000.0 -8.138970000e-01 1.435825000e+00
66700000.0 -8.367230000e-01 1.427301000e+00
67600000.0 -8.598800000e-01 1.417324000e+00
68500000.0 -8.841960000e-01 1.409819000e+00
69400000.0 -9.067640000e-01 1.397911000e+00
70300000.0 -9.318240000e-01 1.387390000e+00
71200000.0 -9.522000000e-01 1.374143000e+00
72100000.0 -9.739580000e-01 1.361653000e+00
73000000.0 -9.963500000e-01 1.349123000e+00
73900000.0 -1.018331000e+00 1.335417000e+00
74800000.0 -1.038545000e+00 1.319245000e+00
75700000.0 -1.059869000e+00 1.303255000e+00
76600000.0 -1.082330000e+00 1.289168000e+00
77500000.0 -1.100848000e+00 1.272567000e+00
78400000.0 -1.120840000e+00 1.253947000e+00
79300000.0 -1.138773000e+00 1.238243000e+00
80200000.0 -1.157236000e+00 1.220320000e+00
81100000.0 -1.174624000e+00 1.200890000e+00
82000000.0 -1.193051000e+00 1.181817000e+00
82900000.0 -1.209558000e+00 1.162916000e+00
83800000.0 -1.225308000e+00 1.142265000e+00
84700000.0 -1.241071000e+00 1.121154000e+00
85600000.0 -1.255363000e+00 1.099198000e+00
86500000.0 -1.270019000e+00 1.079192000e+00
87400000.0 -1.281817000e+00 1.057259000e+00
88300000.0 -1.294381000e+00 1.036853000e+00
89200000.0 -1.305573000e+00 1.014081000e+00
90100000.0 -1.317785000e+00 9.914660000e-01
91000000.0 -1.327867000e+00 9.699530000e-01
91900000.0 -1.338592000e+00 9.458240000e-01
92800000.0 -1.345222000e+00 9.223650000e-01
93700000.0 -1.354846000e+00 8.996550000e-01
94600000.0 -1.362369000e+00 8.771190000e-01
95500000.0 -1.369312000e+00 8.525490000e-01
96400000.0 -1.374754000e+00 8.311830000e-01
97300000.0 -1.379817000e+00 8.066570000e-01
98200000.0 -1.385768000e+00 7.832710000e-01
99100000.0 -1.387004000e+00 7.609020000e-01
100000000.0 -1.390966000e+00 7.378240000e-01
109000000.0 -1.386596000e+00 5.195630000e-01
118000000.0 -1.330454000e+00 3.402710000e-01
127000000.0 -1.250851000e+00 1.986310000e-01
136000000.0 -1.133693000e+00 1.013460000e-01
145000000.0 -1.046231000e+00 3.042400000e-02
154000000.0 -1.001112000e+00 -4.820000000e-04
163000000.0 -1.003080000e+00 -3.868000000e-03
172000000.0 -1.004122000e+00 -5.345000000e-03
181000000.0 -1.006487000e+00 -7.468000000e-03
190000000.0 -1.007987000e+00 -8.549000000e-03
199000000.0 -1.008129000e+00 -1.132100000e-02
208000000.0 -1.009256000e+00 -1.220800000e-02
217000000.0 -1.010799000e+00 -1.216800000e-02
226000000.0 -1.009920000e+00 -1.217600000e-02
235000000.0 -1.009571000e+00 -1.140500000e-02
244000000.0 -1.009814000e+00 -1.074800000e-02
253000000.0 -1.009301000e+00 -9.942000000e-03
262000000.0 -1.006838000e+00 -8.106000000e-03
271000000.0 -1.005760000e+00 -6.250000000e-03
280000000.0 -1.004997000e+00 -4.404000000e-03
289000000.0 -1.002083000e+00 -3.629000000e-03
298000000.0 -9.993470000e-01 3.540000000e-04
307000000.0 -1.002269000e+00 -1.014000000e-03
316000000.0 -1.005611000e+00 -6.780000000e-04
325000000.0 -1.007702000e+00 -1.387000000e-03
334000000.0 -1.009961000e+00 -1.539000000e-03
343000000.0 -1.011808000e+00 -2.930000000e-03
352000000.0 -1.013839000e+00 -3.954000000e-03
361000000.0 -1.151222000e+00 -1.632070000e-01
370000000.0 -1.015615000e+00 -4.252000000e-03
379000000.0 -1.015861000e+00 -4.054000000e-03
388000000.0 -1.012033000e+00 1.525900000e-02
397000000.0 -1.011793000e+00 -4.944000000e-03
406000000.0 -1.012252000e+00 -4.096000000e-03
415000000.0 -1.009760000e+00 -2.539000000e-03
424000000.0 -1.008279000e+00 -3.894000000e-03
433000000.0 -1.005430000e+00 -2.177000000e-03
442000000.0 -1.002810000e+00 -1.820000000e-03
451000000.0 -1.001248000e+00 -1.430000000e-04
460000000.0 -1.004447000e+00 -1.340000000e-04
469000000.0 -1.007947000e+00 1.340000000e-03
478000000.0 -1.009161000e+00 -2.900000000e-04
487000000.0 -1.013232000e+00 1.414000000e-03
496000000.0 -1.015500000e+00 2.352000000e-03
505000000.0 -1.015689000e+00 3.654000000e-03
514000000.0 -1.017867000e+00 3.883000000e-03
523000000.0 -1.017960000e+00 3.009000000e-03
532000000.0 -1.015907000e+00 3.918000000e-03
541000000.0 -1.015473000e+00 4.664000000e-03
550000000.0 -1.012865000e+00 -5.390000000e-04
559000000.0 -1.012113000e+00 4.560000000e-03
568000000.0 -1.012333000e+00 2.368000000e-03
577000000.0 -1.010772000e+00 -4.430000000e-04
586000000.0 -1.005056000e+00 1.285000000e-03
595000000.0 -1.000869000e+00 -2.864000000e-03
604000000.0 -1.001761000e+00 4.898000000e-03
613000000.0 -1.001922000e+00 6.608000000e-03
622000000.0 -1.004279000e+00 7.681000000e-03
631000000.0 -1.005443000e+00 4.765000000e-03
640000000.0 -1.008577000e+00 1.205600000e-02
649000000.0 -1.008404000e+00 1.322400000e-02
658000000.0 -1.010441000e+00 9.261000000e-03
667000000.0 -1.013626000e+00 1.585300000e-02
676000000.0 -1.012412000e+00 1.171700000e-02
685000000.0 -1.007264000e+00 1.257800000e-02
694000000.0 -1.011748000e+00 8.123000000e-03
703000000.0 -1.005580000e+00 1.073700000e-02
712000000.0 -1.012935000e+00 1.072900000e-02
721000000.0 -1.007314000e+00 6.364000000e-03
730000000.0 -1.003972000e+00 9.300000000e-03
739000000.0 -1.000744000e+00 4.702000000e-03
748000000.0 -9.995190000e-01 2.431000000e-03
757000000.0 -9.986920000e-01 1.375000000e-03
766000000.0 -9.967730000e-01 4.127000000e-03
775000000.0 -1.001125000e+00 3.845000000e-03
784000000.0 -9.994300000e-01 9.208000000e-03
793000000.0 -1.000612000e+00 6.883000000e-03
802000000.0 -9.983710000e-01 8.473000000e-03
811000000.0 -9.999520000e-01 8.208000000e-03
820000000.0 -9.977210000e-01 7.165000000e-03
829000000.0 -9.998550000e-01 1.147500000e-02
838000000.0 -9.970730000e-01 5.897000000e-03
847000000.0 -9.975580000e-01 5.841000000e-03
856000000.0 -9.968850000e-01 7.475000000e-03
865000000.0 -9.990410000e-01 3.912000000e-03
874000000.0 -9.988800000e-01 4.876000000e-03
883000000.0 -9.997600000e-01 1.314000000e-03
892000000.0 -1.001625000e+00 -3.225000000e-03
901000000.0 -1.000785000e+00 -7.050000000e-04
910000000.0 -1.001275000e+00 -5.322000000e-03
919000000.0 -9.980280000e-01 -2.357000000e-03
928000000.0 -9.989800000e-01 -4.696000000e-03
937000000.0 -9.999110000e-01 -6.809000000e-03
946000000.0 -9.983180000e-01 -8.929000000e-03
955000000.0 -9.996430000e-01 -4.942000000e-03
964000000.0 -1.003069000e+00 -4.952000000e-03
973000000.0 -1.001924000e+00 -6.718000000e-03
982000000.0 -1.002912000e+00 -1.046000000e-02
991000000.0 -1.003316000e+00 -5.041000000e-03
1000000000.0 -1.003932000e+00 -6.054000000e-03
1004500000.0 -1.001146000e+00 -1.117900000e-02
1009000000.0 -1.000503000e+00 -3.043000000e-03
1013500000.0 -1.000194000e+00 -6.706000000e-03
1018000000.0 -1.002297000e+00 -5.974000000e-03
1022500000.0 -1.002900000e+00 -3.281000000e-03
1027000000.0 -1.001909000e+00 -9.434000000e-03
1031500000.0 -1.002000000e+00 -5.579000000e-03
1036000000.0 -1.001225000e+00 -4.166000000e-03
1040500000.0 -9.999640000e-01 -5.738000000e-03
1045000000.0 -1.000986000e+00 -2.542000000e-03
1049500000.0 -9.980900000e-01 -5.581000000e-03
1054000000.0 -9.972120000e-01 -4.617000000e-03
1058500000.0 -1.001179000e+00 1.472000000e-03
1063000000.0 -1.000905000e+00 -4.846000000e-03
1067500000.0 -1.005747000e+00 -8.970000000e-03
1072000000.0 -1.003648000e+00 -1.292500000e-02
1076500000.0 -1.007606000e+00 -4.999000000e-03
1081000000.0 -1.000217000e+00 -9.862000000e-03
1085500000.0 -1.005195000e+00 -1.711600000e-02
1090000000.0 -1.004269000e+00 -8.862000000e-03
1094500000.0 -1.007625000e+00 -7.707000000e-03
1099000000.0 -1.009065000e+00 -1.654600000e-02
1103500000.0 -1.005314000e+00 -1.138300000e-02
1108000000.0 -1.007666000e+00 -1.439500000e-02
1112500000.0 -1.005566000e+00 -3.309000000e-03
1117000000.0 -1.002045000e+00 -1.082000000e-02
1121500000.0 -1.009820000e+00 -1.280700000e-02
1126000000.0 -1.006568000e+00 -9.898000000e-03
1130500000.0 -9.936580000e-01 2.678700000e-02
1135000000.0 -1.010668000e+00 -9.770000000e-03
1139500000.0 -1.003615000e+00 1.287700000e-02
1144000000.0 -1.007247000e+00 -9.388000000e-03
1148500000.0 -1.005862000e+00 -6.965000000e-03
1153000000.0 -1.006000000e+00 -3.313000000e-03
1157500000.0 -1.009223000e+00 -1.212800000e-02
1162000000.0 -1.006912000e+00 -6.171000000e-03
1166500000.0 -1.004772000e+00 -8.977000000e-03
1171000000.0 -1.008993000e+00 -9.966000000e-03
1175500000.0 -1.001079000e+00 -5.594000000e-03
1180000000.0 -1.000698000e+00 -6.756000000e-03
1184500000.0 -9.997570000e-01 -2.060000000e-04
1189000000.0 -9.990030000e-01 2.838000000e-03
1193500000.0 -1.000368000e+00 -1.054800000e-02
1198000000.0 -9.991540000e-01 -6.443000000e-03
1202500000.0 -1.002058000e+00 -8.789000000e-03
1207000000.0 -9.926270000e-01 -6.727000000e-03
1211500000.0 -9.986150000e-01 -5.075000000e-03
1216000000.0 -1.004862000e+00 -4.586000000e-03
1220500000.0 -9.953560000e-01 -7.298000000e-03
1225000000.0 -9.967990000e-01 2.000000000e-06
1229500000.0 -1.000362000e+00 -7.548000000e-03
1234000000.0 -1.003378000e+00 -8.498000000e-03
1238500000.0 -9.995090000e-01 1.849000000e-03
1243000000.0 -1.005032000e+00 -1.620000000e-04
1247500000.0 -1.003404000e+00 -8.766000000e-03
1252000000.0 -1.001473000e+00 -7.685000000e-03
1256500000.0 -1.002133000e+00 1.240400000e-02
1261000000.0 -1.006365000e+00 -1.094400000e-02
1265500000.0 -1.011994000e+00 -2.090000000e-04
1270000000.0 -1.008991000e+00 -6.383000000e-03
1274500000.0 -1.009112000e+00 9.851000000e-03
1279000000.0 -1.002036000e+00 -1.196000000e-02
1283500000.0 -1.010878000e+00 -1.797700000e-02
1288000000.0 -1.007395000e+00 -6.081000000e-03
1292500000.0 -9.989690000e-01 1.878200000e-02
1297000000.0 -1.001526000e+00 4.124000000e-03
1301500000.0 -1.004077000e+00 -3.639300000e-02
1306000000.0 -1.002793000e+00 -6.831000000e-03
1310500000.0 -1.000637000e+00 5.470000000e-03
1315000000.0 -1.007142000e+00 3.207000000e-03
1319500000.0 -1.000859000e+00 -8.596000000e-03
1324000000.0 -9.967140000e-01 2.175000000e-03
1328500000.0 -9.988550000e-01 -1.302600000e-02
1333000000.0 -9.990180000e-01 7.670000000e-04
1337500000.0 -9.954920000e-01 -4.421000000e-03
1342000000.0 -9.928020000e-01 -1.095800000e-02
1346500000.0 -9.974540000e-01 1.690000000e-03
1351000000.0 -9.908650000e-01 1.824000000e-03
1355500000.0 -9.899380000e-01 7.608000000e-03
1360000000.0 -9.909710000e-01 -5.868000000e-03
1364500000.0 -9.979000000e-01 -8.853000000e-03
1369000000.0 -1.002278000e+00 5.252000000e-03
1373500000.0 -9.949070000e-01 -1.722000000e-03
1378000000.0 -1.001126000e+00 4.063000000e-03
1382500000.0 -1.000844000e+00 -4.637000000e-03
1387000000.0 -1.008604000e+00 -9.876000000e-03
1391500000.0 -1.007136000e+00 -4.589000000e-03
1396000000.0 -1.004338000e+00 -7.033000000e-03
1400500000.0 -1.008257000e+00 -2.783000000e-03
1405000000.0 -1.011492000e+00 2.735000000e-03
1409500000.0 -1.004669000e+00 -9.810000000e-03
1414000000.0 -1.009126000e+00 -5.122000000e-03
1418500000.0 -1.015211000e+00 -6.014000000e-03
1423000000.0 -1.004585000e+00 -2.018000000e-03
1427500000.0 -1.015971000e+00 -1.697200000e-02
1432000000.0 -1.012753000e+00 -8.809000000e-03
1436500000.0 -1.014417000e+00 -9.645000000e-03
1441000000.0 -1.011658000e+00 -9.893000000e-03
1445500000.0 -1.009704000e+00 5.149000000e-03
1450000000.0 -1.012596000e+00 -6.547000000e-03
