! piloto_deriva / sol_corto / r02
# HZ S RI R 50
50000.0 1.007299000e+00 -7.050800000e-02
59500.0 1.004317000e+00 -5.646900000e-02
69000.0 1.004147000e+00 -4.348600000e-02
78500.0 1.002853000e+00 -2.976900000e-02
88000.0 1.000039000e+00 -1.664600000e-02
97500.0 1.000464000e+00 -4.286000000e-03
107000.0 1.000081000e+00 7.706000000e-03
116500.0 1.000808000e+00 2.010300000e-02
126000.0 1.001311000e+00 3.497000000e-02
135500.0 1.000694000e+00 4.426000000e-02
145000.0 1.001099000e+00 5.785700000e-02
154500.0 1.001974000e+00 7.000900000e-02
164000.0 1.002188000e+00 8.120400000e-02
173500.0 1.002981000e+00 9.291700000e-02
183000.0 1.003096000e+00 1.049850000e-01
192500.0 1.002787000e+00 1.157550000e-01
202000.0 1.004192000e+00 1.282500000e-01
211500.0 1.003995000e+00 1.399810000e-01
221000.0 1.004234000e+00 1.510020000e-01
230500.0 1.004547000e+00 1.632230000e-01
240000.0 1.003939000e+00 1.737490000e-01
249500.0 1.004755000e+00 1.858520000e-01
259000.0 1.005386000e+00 1.964950000e-01
268500.0 1.005938000e+00 2.074520000e-01
278000.0 1.005991000e+00 2.189260000e-01
287500.0 1.005736000e+00 2.293440000e-01
297000.0 1.005337000e+00 2.408500000e-01
306500.0 1.005840000e+00 2.511780000e-01
316000.0 1.005820000e+00 2.627540000e-01
325500.0 1.006753000e+00 2.737190000e-01
335000.0 1.007004000e+00 2.836670000e-01
344500.0 1.007623000e+00 2.951600000e-01
354000.0 1.007420000e+00 3.055390000e-01
363500.0 1.007635000e+00 3.158920000e-01
373000.0 1.007589000e+00 3.265300000e-01
382500.0 1.008338000e+00 3.371130000e-01
392000.0 1.007784000e+00 3.482510000e-01
401500.0 1.008049000e+00 3.580820000e-01
411000.0 1.008713000e+00 3.688270000e-01
420500.0 1.009755000e+00 3.788840000e-01
430000.0 1.008991000e+00 3.893460000e-01
439500.0 1.009943000e+00 3.997840000e-01
449000.0 1.010448000e+00 4.098260000e-01
458500.0 1.010597000e+00 4.209820000e-01
468000.0 1.010392000e+00 4.299240000e-01
477500.0 1.010949000e+00 4.402100000e-01
487000.0 1.011497000e+00 4.500700000e-01
496500.0 1.011686000e+00 4.608420000e-01
506000.0 1.011910000e+00 4.706200000e-01
515500.0 1.011803000e+00 4.806300000e-01
525000.0 1.012174000e+00 4.902610000e-01
534500.0 1.013200000e+00 5.010350000e-01
544000.0 1.013348000e+00 5.097070000e-01
553500.0 1.014456000e+00 5.202630000e-01
563000.0 1.014619000e+00 5.298790000e-01
572500.0 1.013332000e+00 5.393010000e-01
582000.0 1.015527000e+00 5.489880000e-01
591500.0 1.016035000e+00 5.591970000e-01
601000.0 1.015166000e+00 5.688690000e-01
610500.0 1.016786000e+00 5.790520000e-01
620000.0 1.016543000e+00 5.883800000e-01
629500.0 1.018361000e+00 5.973790000e-01
639000.0 1.018582000e+00 6.075620000e-01
648500.0 1.019393000e+00 6.176270000e-01
658000.0 1.020695000e+00 6.270010000e-01
667500.0 1.021172000e+00 6.356890000e-01
677000.0 1.021700000e+00 6.454770000e-01
686500.0 1.021960000e+00 6.547380000e-01
696000.0 1.022271000e+00 6.644680000e-01
705500.0 1.022826000e+00 6.743560000e-01
715000.0 1.026034000e+00 6.839130000e-01
724500.0 1.026594000e+00 6.926620000e-01
734000.0 1.027842000e+00 7.022620000e-01
743500.0 1.028365000e+00 7.118060000e-01
753000.0 1.028117000e+00 7.211320000e-01
762500.0 1.030443000e+00 7.292180000e-01
772000.0 1.030878000e+00 7.402800000e-01
781500.0 1.032887000e+00 7.494040000e-01
791000.0 1.033909000e+00 7.586520000e-01
800500.0 1.035136000e+00 7.662130000e-01
810000.0 1.036777000e+00 7.756760000e-01
819500.0 1.037171000e+00 7.851460000e-01
829000.0 1.039678000e+00 7.953290000e-01
838500.0 1.042093000e+00 8.045500000e-01
848000.0 1.042699000e+00 8.138810000e-01
857500.0 1.045663000e+00 8.223620000e-01
867000.0 1.045730000e+00 8.299190000e-01
876500.0 1.048887000e+00 8.403460000e-01
886000.0 1.050463000e+00 8.496290000e-01
895500.0 1.051305000e+00 8.576970000e-01
905000.0 1.054354000e+00 8.683840000e-01
914500.0 1.056066000e+00 8.762150000e-01
924000.0 1.058156000e+00 8.859580000e-01
933500.0 1.061511000e+00 8.932020000e-01
943000.0 1.064187000e+00 9.043120000e-01
952500.0 1.064527000e+00 9.118660000e-01
962000.0 1.068036000e+00 9.193440000e-01
971500.0 1.069349000e+00 9.281880000e-01
981000.0 1.073465000e+00 9.369970000e-01
990500.0 1.075280000e+00 9.462810000e-01
1000000.0 1.077765000e+00 9.535730000e-01
1090000.0 -1.092802000e+00 -8.976050000e-01
1180000.0 -1.132150000e+00 -9.719050000e-01
1270000.0 -1.178117000e+00 -1.040084000e+00
1360000.0 -1.234844000e+00 -1.099971000e+00
1450000.0 -1.305098000e+00 -1.152872000e+00
1540000.0 -1.375116000e+00 -1.184637000e+00
1630000.0 -1.454327000e+00 -1.198685000e+00
1720000.0 -1.553879000e+00 -1.207589000e+00
1810000.0 -1.641151000e+00 -1.187817000e+00
1900000.0 -1.720989000e+00 -1.140739000e+00
1990000.0 -1.795037000e+00 -1.078788000e+00
2080000.0 -1.852763000e+00 -1.003125000e+00
2170000.0 -1.870636000e+00 -9.046200000e-01
2260000.0 -1.783356000e+00 -7.725430000e-01
2350000.0 -1.550322000e+00 -5.681990000e-01
2440000.0 -1.851404000e+00 -6.322800000e-01
2530000.0 -1.795081000e+00 -5.487720000e-01
2620000.0 -1.823517000e+00 -4.968850000e-01
2710000.0 -1.785862000e+00 -4.370250000e-01
2800000.0 -1.755314000e+00 -3.880090000e-01
2890000.0 -1.758608000e+00 -4.043840000e-01
2980000.0 -1.670041000e+00 -3.044120000e-01
3070000.0 -1.631498000e+00 -2.704540000e-01
3160000.0 -1.592997000e+00 -2.409670000e-01
3250000.0 -1.554314000e+00 -2.114090000e-01
3340000.0 -1.519550000e+00 -1.914160000e-01
3430000.0 -1.486465000e+00 -1.730060000e-01
3520000.0 -1.449984000e+00 -1.525520000e-01
3610000.0 -1.418233000e+00 -1.348450000e-01
3700000.0 -1.398600000e+00 -1.199870000e-01
3790000.0 -1.376060000e+00 -1.056070000e-01
3880000.0 -1.354607000e+00 -9.109900000e-02
3970000.0 -1.331604000e+00 -7.922400000e-02
4060000.0 -1.310287000e+00 -6.569900000e-02
4150000.0 -1.291923000e+00 -5.221000000e-02
4240000.0 -1.259804000e+00 -4.085700000e-02
4330000.0 -1.253426000e+00 -2.865700000e-02
4420000.0 -1.238329000e+00 -1.695000000e-02
4510000.0 -1.229110000e+00 -5.708000000e-03
4600000.0 -1.213993000e+00 5.430000000e-03
4690000.0 -1.208142000e+00 1.739700000e-02
4780000.0 -1.189767000e+00 2.838600000e-02
4870000.0 -1.182319000e+00 3.766600000e-02
4960000.0 -1.176729000e+00 4.913600000e-02
5050000.0 -1.169045000e+00 6.071800000e-02
5140000.0 -1.163690000e+00 6.956200000e-02
5230000.0 -1.159562000e+00 8.072500000e-02
5320000.0 -1.156249000e+00 9.251800000e-02
5410000.0 -1.149937000e+00 1.030870000e-01
5500000.0 -1.146335000e+00 1.128600000e-01
5590000.0 -1.141428000e+00 1.230630000e-01
5680000.0 -1.139051000e+00 1.323100000e-01
5770000.0 -1.123743000e+00 1.405000000e-01
5860000.0 -9.536800000e-01 1.273360000e-01
5950000.0 -6.008060000e-01 8.197800000e-02
6040000.0 -7.168240000e-01 1.048550000e-01
6130000.0 -7.018490000e-01 1.073830000e-01
6220000.0 -7.295210000e-01 1.176330000e-01
6310000.0 -7.596390000e-01 1.282610000e-01
6400000.0 -7.619550000e-01 1.345660000e-01
6490000.0 -7.719360000e-01 1.406370000e-01
6580000.0 -7.511190000e-01 1.418940000e-01
6670000.0 -7.664480000e-01 1.487170000e-01
6760000.0 -7.705990000e-01 1.532080000e-01
6850000.0 -7.703320000e-01 1.576230000e-01
6940000.0 -7.641470000e-01 1.588170000e-01
7030000.0 -7.661050000e-01 1.621690000e-01
7120000.0 -7.679890000e-01 1.634370000e-01
7210000.0 -7.709490000e-01 1.665120000e-01
7300000.0 -7.756680000e-01 1.680440000e-01
7390000.0 -7.794320000e-01 1.691870000e-01
7480000.0 -7.822520000e-01 1.708200000e-01
7570000.0 1.337170000e-01 7.686560000e-01
7660000.0 1.339410000e-01 7.730970000e-01
7750000.0 1.343270000e-01 7.768610000e-01
7840000.0 1.345590000e-01 7.826450000e-01
7930000.0 1.332650000e-01 7.851030000e-01
8020000.0 1.914320000e-01 1.063516000e+00
8110000.0 1.920740000e-01 1.067415000e+00
8200000.0 1.907930000e-01 1.070908000e+00
8290000.0 1.908870000e-01 1.073942000e+00
8380000.0 1.895040000e-01 1.074518000e+00
8470000.0 1.899320000e-01 1.075953000e+00
8560000.0 1.891670000e-01 1.076615000e+00
8650000.0 1.871770000e-01 1.074472000e+00
8740000.0 1.849710000e-01 1.068429000e+00
8830000.0 1.836970000e-01 1.064612000e+00
8920000.0 1.548600000e-01 9.196180000e-01
9010000.0 1.813810000e-01 1.057850000e+00
9100000.0 -1.214130000e-01 -3.009440000e-01
9190000.0 -3.053490000e-01 -1.252268000e+00
9280000.0 -2.848960000e-01 -1.258193000e+00
9370000.0 -2.898900000e-01 -1.256231000e+00
9460000.0 -2.594750000e-01 -9.342310000e-01
9550000.0 -3.089520000e-01 -1.253218000e+00
9640000.0 -2.324820000e-01 -8.765930000e-01
9730000.0 1.931000000e-03 2.068220000e-01
9820000.0 -3.175450000e-01 -1.234261000e+00
9910000.0 -3.406430000e-01 -1.236095000e+00
10000000.0 -3.395030000e-01 -1.245231000e+00
10900000.0 1.506800000e-01 1.099124000e+00
11800000.0 1.825840000e-01 1.096000000e+00
12700000.0 1.387090000e-01 1.114548000e+00
13600000.0 1.702720000e-01 1.112935000e+00
14500000.0 1.247900000e-01 1.131813000e+00
15400000.0 1.565800000e-01 1.130710000e+00
16300000.0 1.314770000e-01 1.145077000e+00
17200000.0 1.245500000e-01 1.154112000e+00
18100000.0 1.166400000e-01 1.163035000e+00
19000000.0 1.091780000e-01 1.173956000e+00
19900000.0 1.016820000e-01 1.183424000e+00
20800000.0 9.138700000e-02 1.192995000e+00
21700000.0 8.434600000e-02 1.201563000e+00
22600000.0 7.515600000e-02 1.211633000e+00
23500000.0 6.641900000e-02 1.222182000e+00
24400000.0 5.717400000e-02 1.231505000e+00
25300000.0 4.652300000e-02 1.240912000e+00
26200000.0 3.593200000e-02 1.252489000e+00
27100000.0 2.593900000e-02 1.261752000e+00
28000000.0 1.473400000e-02 1.271705000e+00
28900000.0 2.830000000e-03 1.281850000e+00
29800000.0 -1.049900000e-02 1.291915000e+00
30700000.0 -1.097700000e-01 1.463308000e+00
31600000.0 -3.475400000e-02 1.311078000e+00
32500000.0 -4.775100000e-02 1.322006000e+00
33400000.0 -6.135900000e-02 1.331925000e+00
34300000.0 -7.632400000e-02 1.341492000e+00
35200000.0 -9.118300000e-02 1.351606000e+00
36100000.0 -1.054710000e-01 1.361402000e+00
37000000.0 -1.202990000e-01 1.370257000e+00
37900000.0 -1.371390000e-01 1.378558000e+00
38800000.0 -1.541670000e-01 1.387286000e+00
39700000.0 -1.705650000e-01 1.395987000e+00
40600000.0 -1.877920000e-01 1.404432000e+00
41500000.0 -2.061190000e-01 1.412673000e+00
42400000.0 -2.232780000e-01 1.420771000e+00
43300000.0 -2.447130000e-01 1.427610000e+00
44200000.0 -2.631830000e-01 1.436265000e+00
45100000.0 -2.823330000e-01 1.443067000e+00
46000000.0 -3.029240000e-01 1.448460000e+00
46900000.0 -3.243610000e-01 1.454584000e+00
47800000.0 -3.427240000e-01 1.458383000e+00
48700000.0 -3.639700000e-01 1.463543000e+00
49600000.0 -3.876180000e-01 1.467785000e+00
50500000.0 -4.082960000e-01 1.471877000e+00
51400000.0 -4.310380000e-01 1.475012000e+00
52300000.0 -4.545400000e-01 1.477873000e+00
53200000.0 -4.766900000e-01 1.478516000e+00
54100000.0 -4.991460000e-01 1.480653000e+00
55000000.0 -5.234060000e-01 1.481309000e+00
55900000.0 -5.463640000e-01 1.480827000e+00
56800000.0 -5.705420000e-01 1.481176000e+00
57700000.0 -5.951120000e-01 1.478940000e+00
58600000.0 -6.190320000e-01 1.478192000e+00
59500000.0 -6.429810000e-01 1.474733000e+00
60400000.0 -6.664990000e-01 1.471592000e+00
61300000.0 -6.929750000e-01 1.467361000e+00
62200000.0 -7.176180000e-01 1.462130000e+00
63100000.0 -7.401080000e-01 1.456074000e+00
64000000.0 -7.635280000e-01 1.450133000e+00
64900000.0 -7.894720000e-01 1.444318000e+00
65800000.0 -8.128600000e-01 1.436836000e+00
66700000.0 -8.359620000e-01 1.428427000e+00
67600000.0 -8.598520000e-01 1.419285000e+00
68500000.0 -8.848380000e-01 1.408235000e+00
69400000.0 -9.071510000e-01 1.398074000e+00
70300000.0 -9.311230000e-01 1.387241000e+00
71200000.0 -9.523760000e-01 1.374967000e+00
72100000.0 -9.758340000e-01 1.362212000e+00
73000000.0 -9.978060000e-01 1.347063000e+00
73900000.0 -1.018631000e+00 1.334460000e+00
74800000.0 -1.038623000e+00 1.320799000e+00
75700000.0 -1.061105000e+00 1.306032000e+00
76600000.0 -1.082794000e+00 1.288783000e+00
77500000.0 -1.101366000e+00 1.271881000e+00
78400000.0 -1.121405000e+00 1.255931000e+00
79300000.0 -1.140211000e+00 1.238006000e+00
80200000.0 -1.157333000e+00 1.221415000e+00
81100000.0 -1.175900000e+00 1.201177000e+00
82000000.0 -1.191994000e+00 1.181236000e+00
82900000.0 -1.208742000e+00 1.163381000e+00
83800000.0 -1.225389000e+00 1.143034000e+00
84700000.0 -1.240241000e+00 1.123680000e+00
85600000.0 -1.255007000e+00 1.101000000e+00
86500000.0 -1.267658000e+00 1.080510000e+00
87400000.0 -1.282555000e+00 1.058156000e+00
88300000.0 -1.294405000e+00 1.036533000e+00
89200000.0 -1.306566000e+00 1.013718000e+00
90100000.0 -1.318812000e+00 9.904010000e-01
91000000.0 -1.329719000e+00 9.689510000e-01
91900000.0 -1.336966000e+00 9.469020000e-01
92800000.0 -1.347137000e+00 9.226270000e-01
93700000.0 -1.354332000e+00 8.992500000e-01
94600000.0 -1.363950000e+00 8.771780000e-01
95500000.0 -1.369905000e+00 8.536410000e-01
96400000.0 -1.374442000e+00 8.316430000e-01
97300000.0 -1.379529000e+00 8.067710000e-01
98200000.0 -1.383686000e+00 7.837830000e-01
99100000.0 -1.386604000e+00 7.612970000e-01
100000000.0 -1.391708000e+00 7.373590000e-01
109000000.0 -1.385620000e+00 5.201830000e-01
118000000.0 -1.328388000e+00 3.394580000e-01
127000000.0 -1.250319000e+00 1.991920000e-01
136000000.0 -1.134155000e+00 9.944500000e-02
145000000.0 -1.046188000e+00 2.973700000e-02
154000000.0 -1.000773000e+00 -1.389000000e-03
163000000.0 -1.002161000e+00 -3.520000000e-03
172000000.0 -1.004361000e+00 -7.004000000e-03
181000000.0 -1.006311000e+00 -7.616000000e-03
190000000.0 -1.007616000e+00 -9.883000000e-03
199000000.0 -1.008088000e+00 -1.080300000e-02
208000000.0 -1.010159000e+00 -1.231700000e-02
217000000.0 -1.010641000e+00 -1.228900000e-02
226000000.0 -1.009864000e+00 -1.247600000e-02
235000000.0 -1.010075000e+00 -1.145600000e-02
244000000.0 -1.009221000e+00 -9.865000000e-03
253000000.0 -1.009328000e+00 -9.937000000e-03
262000000.0 -1.007519000e+00 -7.870000000e-03
271000000.0 -1.006951000e+00 -7.081000000e-03
280000000.0 -1.003742000e+00 -3.927000000e-03
289000000.0 -1.001909000e+00 -3.031000000e-03
298000000.0 -9.988220000e-01 -1.170000000e-04
307000000.0 -1.002064000e+00 -6.290000000e-04
316000000.0 -1.005018000e+00 -9.300000000e-04
325000000.0 -1.008924000e+00 -2.049000000e-03
334000000.0 -1.009091000e+00 -1.040000000e-03
343000000.0 -1.012365000e+00 -3.630000000e-03
352000000.0 -1.014274000e+00 -3.066000000e-03
361000000.0 -1.014300000e+00 -4.178000000e-03
370000000.0 -1.015663000e+00 -5.375000000e-03
379000000.0 -1.014306000e+00 -3.116000000e-03
388000000.0 -1.004340000e+00 3.194900000e-02
397000000.0 -1.032377000e+00 -5.311700000e-02
406000000.0 -1.012099000e+00 -2.915000000e-03
415000000.0 -1.000004000e+00 3.129900000e-02
424000000.0 -1.008437000e+00 -2.275000000e-03
433000000.0 -1.005834000e+00 -2.225000000e-03
442000000.0 -1.002331000e+00 -6.070000000e-04
451000000.0 -9.996870000e-01 5.430000000e-04
460000000.0 -1.005118000e+00 -1.149000000e-03
469000000.0 -1.007245000e+00 5.690000000e-04
478000000.0 -1.010776000e+00 1.722000000e-03
487000000.0 -1.011357000e+00 2.446000000e-03
496000000.0 -1.015197000e+00 4.108000000e-03
505000000.0 -1.016731000e+00 2.351000000e-03
514000000.0 -1.017808000e+00 1.713000000e-03
523000000.0 -1.018096000e+00 1.859000000e-03
532000000.0 -1.017085000e+00 1.688000000e-03
541000000.0 -1.014872000e+00 5.705000000e-03
550000000.0 -1.015273000e+00 1.375000000e-03
559000000.0 -1.011180000e+00 3.737000000e-03
568000000.0 -1.011340000e+00 3.171000000e-03
577000000.0 -1.010011000e+00 6.960000000e-04
586000000.0 -1.006612000e+00 1.193000000e-03
595000000.0 -1.003211000e+00 -1.841000000e-03
604000000.0 -1.001205000e+00 9.750000000e-04
613000000.0 -1.003295000e+00 7.171000000e-03
622000000.0 -1.004071000e+00 5.694000000e-03
631000000.0 -1.006051000e+00 8.553000000e-03
640000000.0 -1.008174000e+00 1.114400000e-02
649000000.0 -1.008365000e+00 1.003800000e-02
658000000.0 -1.011926000e+00 1.374000000e-02
667000000.0 -1.010535000e+00 9.813000000e-03
676000000.0 -1.012452000e+00 1.547000000e-02
685000000.0 -1.010481000e+00 1.657900000e-02
694000000.0 -1.007790000e+00 1.073300000e-02
703000000.0 -1.011660000e+00 1.183500000e-02
712000000.0 -1.011588000e+00 1.090600000e-02
721000000.0 -1.005413000e+00 5.378000000e-03
730000000.0 -1.004348000e+00 5.224000000e-03
739000000.0 -1.002665000e+00 7.166000000e-03
748000000.0 -9.985850000e-01 2.976000000e-03
757000000.0 -1.000219000e+00 3.106000000e-03
766000000.0 -9.981140000e-01 4.852000000e-03
775000000.0 -1.002553000e+00 6.362000000e-03
784000000.0 -9.993480000e-01 6.891000000e-03
793000000.0 -9.988690000e-01 1.030800000e-02
802000000.0 -9.978790000e-01 8.038000000e-03
811000000.0 -9.970280000e-01 5.222000000e-03
820000000.0 -1.000174000e+00 6.758000000e-03
829000000.0 -9.967190000e-01 5.447000000e-03
838000000.0 -9.972280000e-01 8.805000000e-03
847000000.0 -9.970810000e-01 2.344000000e-03
856000000.0 -9.972230000e-01 4.075000000e-03
865000000.0 -9.984890000e-01 1.120000000e-03
874000000.0 -9.973570000e-01 -2.299000000e-03
883000000.0 -1.000256000e+00 4.600000000e-05
892000000.0 -9.997030000e-01 2.576000000e-03
901000000.0 -9.983920000e-01 -2.539000000e-03
910000000.0 -9.977180000e-01 -5.344000000e-03
919000000.0 -1.000473000e+00 -9.700000000e-05
928000000.0 -1.000352000e+00 -5.100000000e-03
937000000.0 -9.996140000e-01 -4.736000000e-03
946000000.0 -1.000591000e+00 -5.366000000e-03
955000000.0 -1.002264000e+00 -1.103600000e-02
964000000.0 -1.000387000e+00 -4.555000000e-03
973000000.0 -1.000661000e+00 -7.751000000e-03
982000000.0 -1.004717000e+00 -8.567000000e-03
991000000.0 -1.003692000e+00 -1.255400000e-02
1000000000.0 -1.000686000e+00 -8.696000000e-03
1004500000.0 -1.001119000e+00 -5.946000000e-03
1009000000.0 -1.002550000e+00 -9.770000000e-03
1013500000.0 -1.000588000e+00 -8.413000000e-03
1018000000.0 -1.003933000e+00 -1.121500000e-02
1022500000.0 -1.001142000e+00 -5.001000000e-03
1027000000.0 -1.001757000e+00 -5.674000000e-03
1031500000.0 -1.001736000e+00 -1.197100000e-02
1036000000.0 -1.003353000e+00 -1.033000000e-03
1040500000.0 -1.001431000e+00 -1.159900000e-02
1045000000.0 -1.001423000e+00 -8.384000000e-03
1049500000.0 -9.996000000e-01 -3.386000000e-03
1054000000.0 -1.001565000e+00 -6.129000000e-03
1058500000.0 -1.001589000e+00 -6.434000000e-03
1063000000.0 -1.003171000e+00 -8.735000000e-03
1067500000.0 -1.005853000e+00 -1.078500000e-02
1072000000.0 -1.006036000e+00 -1.079800000e-02
1076500000.0 -1.003017000e+00 -3.787000000e-03
1081000000.0 -1.007380000e+00 -1.739700000e-02
1085500000.0 -1.003523000e+00 -7.978000000e-03
1090000000.0 -1.004092000e+00 -1.185600000e-02
1094500000.0 -1.008077000e+00 -6.233000000e-03
1099000000.0 -1.009031000e+00 -5.287000000e-03
1103500000.0 -1.005690000e+00 -1.445900000e-02
1108000000.0 -1.007818000e+00 -1.108300000e-02
1112500000.0 -1.013315000e+00 -8.439000000e-03
1117000000.0 -1.004895000e+00 -5.132000000e-03
1121500000.0 -1.030698000e+00 -5.911300000e-02
1126000000.0 -1.005801000e+00 -1.110300000e-02
1130500000.0 -1.007780000e+00 -8.867000000e-03
1135000000.0 -1.008204000e+00 -1.880100000e-02
1139500000.0 -1.005375000e+00 -7.570000000e-03
1144000000.0 -9.976180000e-01 2.486100000e-02
1148500000.0 -1.000748000e+00 1.120800000e-02
1153000000.0 -9.972750000e-01 1.451900000e-02
1157500000.0 -1.003483000e+00 4.268000000e-03
1162000000.0 -1.004445000e+00 -7.258000000e-03
1166500000.0 -1.005400000e+00 -1.325000000e-03
1171000000.0 -1.003441000e+00 -1.034400000e-02
1175500000.0 -9.990170000e-01 -3.600000000e-03
1180000000.0 -1.001275000e+00 -6.631000000e-03
1184500000.0 -9.974440000e-01 -6.481000000e-03
1189000000.0 -1.002287000e+00 -1.420000000e-04
1193500000.0 -1.000367000e+00 -6.092000000e-03
1198000000.0 -9.990750000e-01 -1.710000000e-04
1202500000.0 -9.921420000e-01 -3.834000000e-03
1207000000.0 -9.962640000e-01 1.113100000e-02
1211500000.0 -9.988160000e-01 -1.096000000e-03
1216000000.0 -9.983970000e-01 -2.374300000e-02
1220500000.0 -1.005422000e+00 -3.180000000e-03
1225000000.0 -9.932210000e-01 1.191000000e-02
1229500000.0 -1.001942000e+00 -1.828000000e-03
1234000000.0 -1.002868000e+00 -3.151000000e-03
1238500000.0 -9.994210000e-01 -3.776000000e-03
1243000000.0 -1.000023000e+00 1.018500000e-02
1247500000.0 -1.010035000e+00 -4.310000000e-03
1252000000.0 -1.001566000e+00 -7.436000000e-03
1256500000.0 -1.003510000e+00 -6.828000000e-03
1261000000.0 -1.005502000e+00 -1.716800000e-02
1265500000.0 -1.010609000e+00 -1.606600000e-02
1270000000.0 -1.004023000e+00 -6.861000000e-03
1274500000.0 -1.008857000e+00 -4.172000000e-03
1279000000.0 -1.002852000e+00 -3.305000000e-03
1283500000.0 -1.006773000e+00 -4.354000000e-03
1288000000.0 -1.008534000e+00 -7.264000000e-03
1292500000.0 -1.005803000e+00 -6.413000000e-03
1297000000.0 -1.007995000e+00 -6.463000000e-03
1301500000.0 -1.009053000e+00 -1.648400000e-02
1306000000.0 -1.001062000e+00 -8.431000000e-03
1310500000.0 -1.002363000e+00 -5.204000000e-03
1315000000.0 -1.002438000e+00 -1.706000000e-03
1319500000.0 -1.004765000e+00 -8.297000000e-03
1324000000.0 -1.001429000e+00 -1.708000000e-03
1328500000.0 -9.994120000e-01 -9.511000000e-03
1333000000.0 -9.948740000e-01 -3.257000000e-03
1337500000.0 -9.923140000e-01 -8.358000000e-03
1342000000.0 -9.974750000e-01 -2.439000000e-03
1346500000.0 -9.970670000e-01 8.069000000e-03
1351000000.0 -9.970520000e-01 -6.969000000e-03
1355500000.0 -9.891260000e-01 1.104000000e-03
1360000000.0 -9.970690000e-01 9.700000000e-04
1364500000.0 -1.000045000e+00 -6.352000000e-03
1369000000.0 -1.004007000e+00 -4.685000000e-03
1373500000.0 -1.007172000e+00 -3.265000000e-03
1378000000.0 -1.000022000e+00 6.800000000e-03
1382500000.0 -1.003190000e+00 -6.660000000e-04
1387000000.0 -1.003099000e+00 1.870000000e-04
1391500000.0 -1.001744000e+00 4.633000000e-03
1396000000.0 -1.010243000e+00 -9.035000000e-03
1400500000.0 -1.006928000e+00 -4.889000000e-03
1405000000.0 -1.008614000e+00 -2.163000000e-03
1409500000.0 -1.009603000e+00 4.477000000e-03
1414000000.0 -1.010154000e+00 -3.628000000e-03
1418500000.0 -1.010263000e+00 -6.411000000e-03
1423000000.0 -1.013740000e+00 -1.524000000e-03
1427500000.0 -1.018707000e+00 -1.511500000e-02
1432000000.0 -1.009623000e+00 -1.834000000e-03
1436500000.0 -1.011299000e+00 -3.839000000e-03
1441000000.0 -1.014574000e+00 -2.260000000e-03
1445500000.0 -1.013918000e+00 -7.232000000e-03
1450000000.0 -1.011258000e+00 -7.710000000e-03
