! piloto_deriva / corto_deriva / r21
# HZ S RI R 50
50000.0 -9.986250000e-01 -3.778800000e-02
59500.0 -9.946510000e-01 -1.788400000e-02
69000.0 -9.986970000e-01 -8.893000000e-03
78500.0 -9.994940000e-01 -1.192000000e-03
88000.0 -9.984630000e-01 2.140000000e-04
97500.0 -9.999450000e-01 -4.140000000e-04
107000.0 -9.996460000e-01 -1.881000000e-03
116500.0 -9.999830000e-01 -6.198000000e-03
126000.0 -9.986640000e-01 -1.004700000e-02
135500.0 -9.999620000e-01 -1.604500000e-02
145000.0 -1.000461000e+00 -2.250900000e-02
154500.0 -1.000025000e+00 -2.841400000e-02
164000.0 -1.000212000e+00 -3.591700000e-02
173500.0 -1.000018000e+00 -4.409400000e-02
183000.0 -1.000867000e+00 -5.147700000e-02
192500.0 -1.000077000e+00 -6.051900000e-02
202000.0 -1.000582000e+00 -6.943400000e-02
211500.0 -9.996100000e-01 -7.732300000e-02
221000.0 -1.000627000e+00 -8.663000000e-02
230500.0 -1.000482000e+00 -9.516600000e-02
240000.0 -9.998820000e-01 -1.036330000e-01
249500.0 -1.000589000e+00 -1.128510000e-01
259000.0 -1.001449000e+00 -1.219070000e-01
268500.0 -1.000950000e+00 -1.312070000e-01
278000.0 -1.001934000e+00 -1.404940000e-01
287500.0 -1.002075000e+00 -1.498070000e-01
297000.0 -1.001919000e+00 -1.590340000e-01
306500.0 -1.003509000e+00 -1.503840000e-01
316000.0 -1.002652000e+00 -1.778050000e-01
325500.0 -1.003647000e+00 -1.687470000e-01
335000.0 -1.001201000e+00 -2.145020000e-01
344500.0 -1.003383000e+00 -2.054620000e-01
354000.0 -1.000877000e+00 -2.338730000e-01
363500.0 -1.004784000e+00 -2.052550000e-01
373000.0 -1.001356000e+00 -2.519640000e-01
382500.0 -1.006405000e+00 -2.238810000e-01
392000.0 -1.001380000e+00 -2.704080000e-01
401500.0 -1.008282000e+00 -2.428250000e-01
411000.0 -1.004790000e+00 -2.714360000e-01
420500.0 -1.004757000e+00 -2.808730000e-01
430000.0 -1.005643000e+00 -2.896050000e-01
439500.0 -1.005444000e+00 -2.982060000e-01
449000.0 -1.005947000e+00 -3.074610000e-01
458500.0 -1.005399000e+00 -3.176650000e-01
468000.0 -1.005953000e+00 -3.271230000e-01
477500.0 -1.006578000e+00 -3.354850000e-01
487000.0 -1.006806000e+00 -3.456880000e-01
496500.0 -1.006889000e+00 -3.550810000e-01
506000.0 -1.008106000e+00 -3.642230000e-01
515500.0 -1.007695000e+00 -3.728860000e-01
525000.0 -1.008404000e+00 -3.832910000e-01
534500.0 -1.007860000e+00 -3.922000000e-01
544000.0 -1.008982000e+00 -4.008580000e-01
553500.0 -1.008226000e+00 -4.106280000e-01
563000.0 -1.008141000e+00 -4.199420000e-01
572500.0 -1.009537000e+00 -4.283960000e-01
582000.0 -1.010188000e+00 -4.371780000e-01
591500.0 -1.010816000e+00 -4.466270000e-01
601000.0 -1.010659000e+00 -4.551130000e-01
610500.0 -1.010812000e+00 -4.658420000e-01
620000.0 -1.011551000e+00 -4.739060000e-01
629500.0 -1.012612000e+00 -4.836370000e-01
639000.0 -1.012870000e+00 -4.925310000e-01
648500.0 -1.013256000e+00 -5.019010000e-01
658000.0 -1.013987000e+00 -5.112380000e-01
667500.0 -1.014945000e+00 -5.199920000e-01
677000.0 -1.015281000e+00 -5.282080000e-01
686500.0 -1.016311000e+00 -5.374290000e-01
696000.0 -1.017260000e+00 -5.466700000e-01
705500.0 -1.017209000e+00 -5.553530000e-01
715000.0 -1.018012000e+00 -5.654360000e-01
724500.0 -1.019287000e+00 -5.723430000e-01
734000.0 -1.020428000e+00 -5.825100000e-01
743500.0 -1.021582000e+00 -5.912500000e-01
753000.0 -1.021772000e+00 -5.997740000e-01
762500.0 -1.023110000e+00 -6.090050000e-01
772000.0 -1.024744000e+00 -6.184490000e-01
781500.0 -1.025159000e+00 -6.266610000e-01
791000.0 -1.026603000e+00 -6.362680000e-01
800500.0 -1.027657000e+00 -6.447760000e-01
810000.0 -1.029162000e+00 -6.545210000e-01
819500.0 -1.029846000e+00 -6.617170000e-01
829000.0 -1.031886000e+00 -6.711090000e-01
838500.0 -1.033681000e+00 -6.804920000e-01
848000.0 -1.033445000e+00 -6.880210000e-01
857500.0 -1.036574000e+00 -6.972460000e-01
867000.0 -1.036477000e+00 -7.061190000e-01
876500.0 -1.039712000e+00 -7.139190000e-01
886000.0 -1.040253000e+00 -7.247240000e-01
895500.0 -1.042211000e+00 -7.310770000e-01
905000.0 -1.045195000e+00 -7.405740000e-01
914500.0 -1.046318000e+00 -7.483950000e-01
924000.0 -1.048536000e+00 -7.575070000e-01
933500.0 -1.050983000e+00 -7.656420000e-01
943000.0 -1.054739000e+00 -7.748170000e-01
952500.0 -1.055842000e+00 -7.828850000e-01
962000.0 -1.057278000e+00 -7.910160000e-01
971500.0 -1.059953000e+00 -8.011030000e-01
981000.0 -1.061776000e+00 -8.083240000e-01
990500.0 -1.064998000e+00 -8.166230000e-01
1000000.0 -1.066949000e+00 -8.234950000e-01
1090000.0 -1.097552000e+00 -9.027610000e-01
1180000.0 -1.134979000e+00 -9.754660000e-01
1270000.0 -1.180642000e+00 -1.045654000e+00
1360000.0 -1.236995000e+00 -1.104998000e+00
1450000.0 -1.306392000e+00 -1.156970000e+00
1540000.0 -1.385920000e+00 -1.192318000e+00
1630000.0 -1.471741000e+00 -1.209874000e+00
1720000.0 -1.561916000e+00 -1.207681000e+00
1810000.0 -1.650041000e+00 -1.187509000e+00
1900000.0 -1.732521000e+00 -1.143155000e+00
1990000.0 -1.805874000e+00 -1.082378000e+00
2080000.0 -1.861898000e+00 -1.006095000e+00
2170000.0 -1.900224000e+00 -9.138070000e-01
2260000.0 -1.919412000e+00 -8.211210000e-01
2350000.0 -1.913566000e+00 -7.294400000e-01
2440000.0 -1.900617000e+00 -6.448730000e-01
2530000.0 -1.874448000e+00 -5.660990000e-01
2620000.0 -1.840909000e+00 -4.996940000e-01
2710000.0 -1.799275000e+00 -4.379190000e-01
2800000.0 -1.756995000e+00 -3.877180000e-01
2890000.0 -1.715880000e+00 -3.423120000e-01
2980000.0 -1.674408000e+00 -3.030440000e-01
3070000.0 -1.632356000e+00 -2.687170000e-01
3160000.0 -1.592809000e+00 -2.417090000e-01
3250000.0 -1.556375000e+00 -2.152710000e-01
3340000.0 -1.522079000e+00 -1.922330000e-01
3430000.0 -1.487708000e+00 -1.714950000e-01
3520000.0 -1.458161000e+00 -1.543040000e-01
3610000.0 -1.431046000e+00 -1.371120000e-01
3700000.0 -1.401577000e+00 -1.230590000e-01
3790000.0 -1.377748000e+00 -1.071050000e-01
3880000.0 -1.353578000e+00 -9.193400000e-02
3970000.0 -1.333986000e+00 -7.895100000e-02
4060000.0 -1.314092000e+00 -6.754500000e-02
4150000.0 -1.295416000e+00 -5.488800000e-02
4240000.0 -1.278502000e+00 -4.361500000e-02
4330000.0 -1.262200000e+00 -3.158100000e-02
4420000.0 -1.249109000e+00 -1.898400000e-02
4510000.0 -1.235809000e+00 -7.475000000e-03
4600000.0 -1.223127000e+00 2.911000000e-03
4690000.0 -1.212826000e+00 1.605000000e-02
4780000.0 -1.203630000e+00 2.603800000e-02
4870000.0 -1.195117000e+00 3.698500000e-02
4960000.0 -1.186224000e+00 4.932300000e-02
5050000.0 -1.173034000e+00 5.818000000e-02
5140000.0 -1.167884000e+00 7.031600000e-02
5230000.0 -1.161660000e+00 8.055400000e-02
5320000.0 -1.157891000e+00 9.116600000e-02
5410000.0 -1.151077000e+00 1.030060000e-01
5500000.0 -1.142011000e+00 1.341770000e-01
5590000.0 -1.142156000e+00 1.237220000e-01
5680000.0 -1.140280000e+00 1.306250000e-01
5770000.0 -1.134635000e+00 1.409630000e-01
5860000.0 -1.132775000e+00 1.502840000e-01
5950000.0 -1.128566000e+00 1.597170000e-01
6040000.0 -1.124575000e+00 1.680550000e-01
6130000.0 -1.122797000e+00 1.775430000e-01
6220000.0 -1.119899000e+00 1.849620000e-01
6310000.0 -1.118401000e+00 1.924600000e-01
6400000.0 -1.114804000e+00 1.997750000e-01
6490000.0 -1.113363000e+00 2.054520000e-01
6580000.0 -1.110179000e+00 2.121690000e-01
6670000.0 -1.108494000e+00 2.186240000e-01
6760000.0 -1.106465000e+00 2.235120000e-01
6850000.0 -1.105115000e+00 2.288750000e-01
6940000.0 -1.104382000e+00 2.323750000e-01
7030000.0 -1.104252000e+00 2.357590000e-01
7120000.0 -1.103352000e+00 2.391090000e-01
7210000.0 -1.102103000e+00 2.406890000e-01
7300000.0 -1.102163000e+00 2.410490000e-01
7390000.0 -1.102002000e+00 2.428660000e-01
7480000.0 -1.103336000e+00 2.428100000e-01
7570000.0 1.963910000e-01 1.073616000e+00
7660000.0 1.948150000e-01 1.074125000e+00
7750000.0 1.941020000e-01 1.073563000e+00
7840000.0 1.937370000e-01 1.074450000e+00
7930000.0 1.918910000e-01 1.075286000e+00
8020000.0 1.920150000e-01 1.074967000e+00
8110000.0 1.901830000e-01 1.075247000e+00
8200000.0 1.897180000e-01 1.076374000e+00
8290000.0 1.885870000e-01 1.077276000e+00
8380000.0 1.891950000e-01 1.076797000e+00
8470000.0 1.880400000e-01 1.078192000e+00
8560000.0 1.874500000e-01 1.077731000e+00
8650000.0 1.862100000e-01 1.077987000e+00
8740000.0 1.855090000e-01 1.079256000e+00
8830000.0 1.857110000e-01 1.079957000e+00
8920000.0 1.841870000e-01 1.079568000e+00
9010000.0 1.842550000e-01 1.080972000e+00
9100000.0 1.825370000e-01 1.082037000e+00
9190000.0 1.819500000e-01 1.081151000e+00
9280000.0 1.818880000e-01 1.082034000e+00
9370000.0 1.817910000e-01 1.082944000e+00
9460000.0 1.803000000e-01 1.082715000e+00
9550000.0 1.789930000e-01 1.084902000e+00
9640000.0 1.791760000e-01 1.084678000e+00
9730000.0 1.784140000e-01 1.085665000e+00
9820000.0 1.780450000e-01 1.086696000e+00
9910000.0 1.769400000e-01 1.085895000e+00
10000000.0 1.764400000e-01 1.086473000e+00
10900000.0 1.697700000e-01 1.094104000e+00
11800000.0 1.629360000e-01 1.102373000e+00
12700000.0 1.566940000e-01 1.111017000e+00
13600000.0 1.506940000e-01 1.117199000e+00
14500000.0 1.450140000e-01 1.127689000e+00
15400000.0 1.383320000e-01 1.135237000e+00
16300000.0 1.313830000e-01 1.145107000e+00
17200000.0 1.240690000e-01 1.154935000e+00
18100000.0 1.170620000e-01 1.164172000e+00
19000000.0 1.090020000e-01 1.172608000e+00
19900000.0 1.014670000e-01 1.183168000e+00
20800000.0 9.370200000e-02 1.191792000e+00
21700000.0 8.416700000e-02 1.201659000e+00
22600000.0 7.531500000e-02 1.212304000e+00
23500000.0 6.708100000e-02 1.221208000e+00
24400000.0 5.698200000e-02 1.230590000e+00
25300000.0 4.630300000e-02 1.241093000e+00
26200000.0 3.631600000e-02 1.252375000e+00
27100000.0 2.633000000e-02 1.261361000e+00
28000000.0 1.395000000e-02 1.271817000e+00
28900000.0 2.588000000e-03 1.281780000e+00
29800000.0 -9.768000000e-03 1.292588000e+00
30700000.0 -2.223000000e-02 1.301473000e+00
31600000.0 -3.552600000e-02 1.312067000e+00
32500000.0 -4.732900000e-02 1.321620000e+00
33400000.0 -6.177100000e-02 1.331678000e+00
34300000.0 -7.502200000e-02 1.342122000e+00
35200000.0 -9.023500000e-02 1.351488000e+00
36100000.0 -1.053510000e-01 1.361953000e+00
37000000.0 -1.210010000e-01 1.370572000e+00
37900000.0 -1.369980000e-01 1.378653000e+00
38800000.0 -1.538570000e-01 1.387359000e+00
39700000.0 -1.715150000e-01 1.397080000e+00
40600000.0 -1.886440000e-01 1.405857000e+00
41500000.0 -2.052220000e-01 1.413670000e+00
42400000.0 -2.243390000e-01 1.421485000e+00
43300000.0 -2.433490000e-01 1.428194000e+00
44200000.0 -2.624510000e-01 1.435038000e+00
45100000.0 -2.827230000e-01 1.440989000e+00
46000000.0 -3.029110000e-01 1.447780000e+00
46900000.0 -3.233710000e-01 1.454418000e+00
47800000.0 -3.430860000e-01 1.458818000e+00
48700000.0 -3.655040000e-01 1.462798000e+00
49600000.0 -3.864030000e-01 1.467250000e+00
50500000.0 -4.099740000e-01 1.472118000e+00
51400000.0 -4.310190000e-01 1.474842000e+00
52300000.0 -4.530660000e-01 1.477978000e+00
53200000.0 -4.773670000e-01 1.479013000e+00
54100000.0 -5.002460000e-01 1.481422000e+00
55000000.0 -5.228980000e-01 1.481870000e+00
55900000.0 -5.473450000e-01 1.481228000e+00
56800000.0 -5.700810000e-01 1.479940000e+00
57700000.0 -5.963690000e-01 1.480019000e+00
58600000.0 -6.185280000e-01 1.478157000e+00
59500000.0 -6.429300000e-01 1.475558000e+00
60400000.0 -6.668120000e-01 1.471706000e+00
61300000.0 -6.919120000e-01 1.468552000e+00
62200000.0 -7.155870000e-01 1.463520000e+00
63100000.0 -7.400540000e-01 1.457150000e+00
64000000.0 -7.643440000e-01 1.450895000e+00
64900000.0 -7.889430000e-01 1.442968000e+00
65800000.0 -8.120000000e-01 1.436149000e+00
66700000.0 -8.367950000e-01 1.427568000e+00
67600000.0 -8.605080000e-01 1.417471000e+00
68500000.0 -8.831220000e-01 1.408945000e+00
69400000.0 -9.084630000e-01 1.397357000e+00
70300000.0 -9.285240000e-01 1.387870000e+00
71200000.0 -9.540830000e-01 1.373927000e+00
72100000.0 -9.762180000e-01 1.362287000e+00
73000000.0 -9.978670000e-01 1.349318000e+00
73900000.0 -1.018555000e+00 1.334441000e+00
74800000.0 -1.040436000e+00 1.321177000e+00
75700000.0 -1.061277000e+00 1.304680000e+00
76600000.0 -1.081916000e+00 1.288456000e+00
77500000.0 -1.103217000e+00 1.272970000e+00
78400000.0 -1.120683000e+00 1.254931000e+00
79300000.0 -1.139625000e+00 1.238341000e+00
80200000.0 -1.159523000e+00 1.219687000e+00
81100000.0 -1.175255000e+00 1.199689000e+00
82000000.0 -1.192987000e+00 1.181663000e+00
82900000.0 -1.209803000e+00 1.162502000e+00
83800000.0 -1.226243000e+00 1.142064000e+00
84700000.0 -1.239676000e+00 1.121169000e+00
85600000.0 -1.254016000e+00 1.100950000e+00
86500000.0 -1.269579000e+00 1.079687000e+00
87400000.0 -1.281408000e+00 1.057629000e+00
88300000.0 -1.293765000e+00 1.035576000e+00
89200000.0 -1.306969000e+00 1.013675000e+00
90100000.0 -1.317385000e+00 9.920130000e-01
91000000.0 -1.328271000e+00 9.682300000e-01
91900000.0 -1.338339000e+00 9.452030000e-01
92800000.0 -1.348236000e+00 9.214500000e-01
93700000.0 -1.354562000e+00 8.995410000e-01
94600000.0 -1.363307000e+00 8.761470000e-01
95500000.0 -1.368390000e+00 8.526800000e-01
96400000.0 -1.373929000e+00 8.306020000e-01
97300000.0 -1.378905000e+00 8.072450000e-01
98200000.0 -1.384700000e+00 7.838990000e-01
99100000.0 -1.387644000e+00 7.598760000e-01
100000000.0 -1.391349000e+00 7.394120000e-01
109000000.0 -1.385783000e+00 5.215150000e-01
118000000.0 -1.331607000e+00 3.375530000e-01
127000000.0 -1.251621000e+00 1.994460000e-01
136000000.0 -1.134194000e+00 9.996100000e-02
145000000.0 -1.046300000e+00 2.955600000e-02
154000000.0 -9.998100000e-01 -1.107000000e-03
163000000.0 -1.002818000e+00 -4.155000000e-03
172000000.0 -1.004161000e+00 -6.583000000e-03
181000000.0 -1.006162000e+00 -8.248000000e-03
190000000.0 -1.007413000e+00 -9.174000000e-03
199000000.0 -1.008689000e+00 -1.009200000e-02
208000000.0 -1.009223000e+00 -1.065600000e-02
217000000.0 -1.009440000e+00 -1.128500000e-02
226000000.0 -1.010099000e+00 -1.121000000e-02
235000000.0 -1.009871000e+00 -1.226900000e-02
244000000.0 -1.009500000e+00 -1.042200000e-02
253000000.0 -1.008220000e+00 -8.631000000e-03
262000000.0 -1.008536000e+00 -8.173000000e-03
271000000.0 -1.006833000e+00 -6.968000000e-03
280000000.0 -1.004192000e+00 -7.004000000e-03
289000000.0 -1.002833000e+00 -3.444000000e-03
298000000.0 -9.995790000e-01 -1.261000000e-03
307000000.0 -1.002237000e+00 -2.570000000e-04
316000000.0 -1.004911000e+00 -8.140000000e-04
325000000.0 -1.008255000e+00 -2.238000000e-03
334000000.0 -1.009588000e+00 -2.408000000e-03
343000000.0 -1.012449000e+00 -3.840000000e-03
352000000.0 -1.003642000e+00 3.258500000e-02
361000000.0 -1.002639000e+00 4.793900000e-02
370000000.0 -1.014495000e+00 -3.405000000e-03
379000000.0 -1.014514000e+00 -4.345000000e-03
388000000.0 -1.020606000e+00 -1.954600000e-02
397000000.0 -1.020900000e+00 -3.934700000e-02
406000000.0 -1.029725000e+00 -5.358800000e-02
415000000.0 -1.010283000e+00 -2.816000000e-03
424000000.0 -1.009027000e+00 -3.130000000e-03
433000000.0 -1.007038000e+00 -1.643000000e-03
442000000.0 -1.002183000e+00 -6.720000000e-04
451000000.0 -1.000938000e+00 1.041000000e-03
460000000.0 -1.003777000e+00 5.140000000e-04
469000000.0 -1.006542000e+00 2.110000000e-03
478000000.0 -1.009731000e+00 1.699000000e-03
487000000.0 -1.012131000e+00 2.620000000e-04
496000000.0 -1.014134000e+00 3.927000000e-03
505000000.0 -1.015100000e+00 3.123000000e-03
514000000.0 -1.018331000e+00 3.157000000e-03
523000000.0 -1.017149000e+00 2.654000000e-03
532000000.0 -1.015558000e+00 4.377000000e-03
541000000.0 -1.015419000e+00 3.112000000e-03
550000000.0 -1.014709000e+00 4.197000000e-03
559000000.0 -1.010348000e+00 1.338000000e-03
568000000.0 -1.012074000e+00 2.926000000e-03
577000000.0 -1.007783000e+00 1.304000000e-03
586000000.0 -1.006739000e+00 1.838000000e-03
595000000.0 -1.002918000e+00 3.459000000e-03
604000000.0 -9.993460000e-01 2.566000000e-03
613000000.0 -1.000774000e+00 3.343000000e-03
622000000.0 -1.004871000e+00 5.374000000e-03
631000000.0 -1.010031000e+00 9.901000000e-03
640000000.0 -1.012091000e+00 4.944000000e-03
649000000.0 -1.011718000e+00 1.077500000e-02
658000000.0 -1.012262000e+00 1.591600000e-02
667000000.0 -1.011595000e+00 1.323400000e-02
676000000.0 -1.010136000e+00 1.193100000e-02
685000000.0 -1.010352000e+00 1.251900000e-02
694000000.0 -1.012725000e+00 1.232000000e-02
703000000.0 -1.009680000e+00 1.185400000e-02
712000000.0 -1.011840000e+00 9.484000000e-03
721000000.0 -1.009344000e+00 7.644000000e-03
730000000.0 -1.003800000e+00 3.734000000e-03
739000000.0 -1.000605000e+00 6.636000000e-03
748000000.0 -9.982230000e-01 2.319000000e-03
757000000.0 -9.984300000e-01 1.001000000e-03
766000000.0 -9.986110000e-01 2.638000000e-03
775000000.0 -1.000642000e+00 4.071000000e-03
784000000.0 -9.975960000e-01 7.356000000e-03
793000000.0 -1.001487000e+00 6.636000000e-03
802000000.0 -9.976120000e-01 7.016000000e-03
811000000.0 -9.990290000e-01 7.982000000e-03
820000000.0 -9.995230000e-01 6.390000000e-03
829000000.0 -9.974430000e-01 6.443000000e-03
838000000.0 -9.960520000e-01 1.028200000e-02
847000000.0 -9.955440000e-01 4.972000000e-03
856000000.0 -9.983060000e-01 4.596000000e-03
865000000.0 -9.980030000e-01 5.747000000e-03
874000000.0 -9.964500000e-01 1.054000000e-03
883000000.0 -1.001767000e+00 8.430000000e-04
892000000.0 -9.975870000e-01 1.961000000e-03
901000000.0 -9.993030000e-01 -1.929000000e-03
910000000.0 -9.996720000e-01 -2.852000000e-03
919000000.0 -1.001259000e+00 -2.830000000e-03
928000000.0 -1.001630000e+00 -2.604000000e-03
937000000.0 -1.002230000e+00 -2.046000000e-03
946000000.0 -1.000864000e+00 -8.136000000e-03
955000000.0 -1.002717000e+00 -3.127000000e-03
964000000.0 -1.001496000e+00 -1.651000000e-03
973000000.0 -9.995430000e-01 -1.005400000e-02
982000000.0 -1.000500000e+00 -7.203000000e-03
991000000.0 -1.000214000e+00 -5.759000000e-03
1000000000.0 -1.002176000e+00 -6.543000000e-03
1004500000.0 -1.001460000e+00 -3.533000000e-03
1009000000.0 -1.003295000e+00 -1.934000000e-03
1013500000.0 -1.001401000e+00 -8.196000000e-03
1018000000.0 -1.000329000e+00 -5.505000000e-03
1022500000.0 -9.987390000e-01 -6.123000000e-03
1027000000.0 -9.986430000e-01 -9.678000000e-03
1031500000.0 -1.000425000e+00 -4.693000000e-03
1036000000.0 -9.986980000e-01 -5.745000000e-03
1040500000.0 -1.002200000e+00 -5.292000000e-03
1045000000.0 -9.970450000e-01 -3.600000000e-03
1049500000.0 -9.993610000e-01 -4.950000000e-03
1054000000.0 -9.977300000e-01 -1.031400000e-02
1058500000.0 -1.000094000e+00 -6.405000000e-03
1063000000.0 -1.000402000e+00 -9.062000000e-03
1067500000.0 -1.000422000e+00 -9.427000000e-03
1072000000.0 -1.004377000e+00 -6.662000000e-03
1076500000.0 -1.003434000e+00 -8.527000000e-03
1081000000.0 -1.006818000e+00 -6.530000000e-03
1085500000.0 -1.005705000e+00 -1.506800000e-02
1090000000.0 -1.008563000e+00 -9.862000000e-03
1094500000.0 -1.005903000e+00 -7.727000000e-03
1099000000.0 -1.004548000e+00 -9.325000000e-03
1103500000.0 -1.006921000e+00 -1.432300000e-02
1108000000.0 -1.007312000e+00 -1.383700000e-02
1112500000.0 -1.010102000e+00 -1.412100000e-02
1117000000.0 -1.004622000e+00 -1.186700000e-02
1121500000.0 -1.006017000e+00 -8.013000000e-03
1126000000.0 -1.005157000e+00 -1.016100000e-02
1130500000.0 -1.006817000e+00 -3.858000000e-03
1135000000.0 -1.007396000e+00 -9.045000000e-03
1139500000.0 -1.008246000e+00 -2.709300000e-02
1144000000.0 -1.008259000e+00 -2.368000000e-03
1148500000.0 -1.010542000e+00 -3.335000000e-03
1153000000.0 -1.006593000e+00 -6.588000000e-03
1157500000.0 -1.008268000e+00 -9.730000000e-03
1162000000.0 -1.005916000e+00 -1.105700000e-02
1166500000.0 -1.003544000e+00 -1.238000000e-03
1171000000.0 -1.001832000e+00 -9.907000000e-03
1175500000.0 -9.997110000e-01 -4.409000000e-03
1180000000.0 -9.988260000e-01 9.800000000e-05
1184500000.0 -1.001855000e+00 -1.459200000e-02
1189000000.0 -1.000700000e+00 -1.127200000e-02
1193500000.0 -9.960950000e-01 3.260000000e-03
1198000000.0 -1.000541000e+00 -6.799000000e-03
1202500000.0 -9.918500000e-01 -5.243000000e-03
1207000000.0 -9.988110000e-01 -6.155000000e-03
1211500000.0 -9.995540000e-01 -3.622000000e-03
1216000000.0 -9.951950000e-01 -4.777000000e-03
1220500000.0 -1.005872000e+00 -4.641000000e-03
1225000000.0 -9.954680000e-01 -5.268000000e-03
1229500000.0 -1.003995000e+00 -6.037000000e-03
1234000000.0 -1.004010000e+00 -6.922000000e-03
1238500000.0 -9.994440000e-01 5.738000000e-03
1243000000.0 -1.002859000e+00 -8.876000000e-03
1247500000.0 -1.003076000e+00 -9.220000000e-03
1252000000.0 -1.005586000e+00 -6.983000000e-03
1256500000.0 -1.012216000e+00 -5.596000000e-03
1261000000.0 -9.978460000e-01 -3.919000000e-03
1265500000.0 -1.006783000e+00 -7.303000000e-03
1270000000.0 -1.008520000e+00 -5.392000000e-03
1274500000.0 -1.009042000e+00 -1.097500000e-02
1279000000.0 -1.001477000e+00 -6.515000000e-03
1283500000.0 -1.005437000e+00 -5.139000000e-03
1288000000.0 -1.006674000e+00 -4.957000000e-03
1292500000.0 -1.011129000e+00 -1.243400000e-02
1297000000.0 -1.010495000e+00 -1.487000000e-03
1301500000.0 -1.000890000e+00 -5.071000000e-03
1306000000.0 -1.004385000e+00 -1.076600000e-02
1310500000.0 -9.984580000e-01 2.101000000e-03
1315000000.0 -9.962190000e-01 -6.969000000e-03
1319500000.0 -1.000233000e+00 3.212000000e-03
1324000000.0 -1.000517000e+00 -1.631000000e-03
1328500000.0 -1.004169000e+00 -3.391000000e-03
1333000000.0 -9.921830000e-01 -6.130000000e-04
1337500000.0 -9.982680000e-01 5.406000000e-03
1342000000.0 -9.910240000e-01 3.812000000e-03
1346500000.0 -9.906170000e-01 -2.670000000e-04
1351000000.0 -9.944610000e-01 7.350000000e-04
1355500000.0 -1.000199000e+00 -4.059000000e-03
1360000000.0 -9.976480000e-01 -4.619000000e-03
1364500000.0 -1.003122000e+00 -5.515000000e-03
1369000000.0 -1.003623000e+00 -9.892000000e-03
1373500000.0 -1.003179000e+00 -2.949000000e-03
1378000000.0 -1.002020000e+00 1.670000000e-03
1382500000.0 -1.004822000e+00 -7.310000000e-04
1387000000.0 -1.004080000e+00 -9.740000000e-04
1391500000.0 -1.005285000e+00 -3.242000000e-03
1396000000.0 -1.008300000e+00 1.397000000e-03
1400500000.0 -1.006801000e+00 1.950000000e-04
1405000000.0 -1.007713000e+00 -9.994000000e-03
1409500000.0 -1.011858000e+00 -1.010100000e-02
1414000000.0 -1.006007000e+00 -7.434000000e-03
1418500000.0 -1.011190000e+00 -8.850000000e-03
1423000000.0 -9.989000000e-01 2.035000000e-03
1427500000.0 -1.019854000e+00 -3.618000000e-03
1432000000.0 -1.010460000e+00 -4.633000000e-03
1436500000.0 -1.009689000e+00 1.619000000e-03
1441000000.0 -1.013089000e+00 -4.442000000e-03
1445500000.0 -1.009661000e+00 -3.700000000e-03
1450000000.0 -1.012689000e+00 -4.140000000e-04
