! piloto_deriva / corto_deriva / r12
# HZ S RI R 50
50000.0 -9.940890000e-01 -3.513800000e-02
59500.0 -9.972050000e-01 -1.773600000e-02
69000.0 -9.989010000e-01 -6.846000000e-03
78500.0 -9.980840000e-01 -1.810000000e-03
88000.0 -9.994440000e-01 2.610000000e-04
97500.0 -9.992590000e-01 3.650000000e-04
107000.0 -9.996940000e-01 -2.456000000e-03
116500.0 -9.999070000e-01 -5.632000000e-03
126000.0 -1.000379000e+00 -9.805000000e-03
135500.0 -1.000113000e+00 -1.580700000e-02
145000.0 -1.000548000e+00 -2.299700000e-02
154500.0 -9.995030000e-01 -2.981200000e-02
164000.0 -1.000036000e+00 -3.550400000e-02
173500.0 -1.000108000e+00 -4.358900000e-02
183000.0 -9.999330000e-01 -5.214500000e-02
192500.0 -1.000151000e+00 -6.026300000e-02
202000.0 -9.994650000e-01 -6.842300000e-02
211500.0 -1.000302000e+00 -7.740000000e-02
221000.0 -1.000425000e+00 -8.544800000e-02
230500.0 -1.000312000e+00 -9.524800000e-02
240000.0 -1.001286000e+00 -1.039100000e-01
249500.0 -1.000595000e+00 -1.127230000e-01
259000.0 -1.000849000e+00 -1.221040000e-01
268500.0 -1.001427000e+00 -1.317640000e-01
278000.0 -1.001303000e+00 -1.400800000e-01
287500.0 -1.001549000e+00 -1.497890000e-01
297000.0 -1.001551000e+00 -1.594410000e-01
306500.0 -1.002117000e+00 -1.687840000e-01
316000.0 -1.002832000e+00 -1.776760000e-01
325500.0 -1.002511000e+00 -1.874010000e-01
335000.0 -1.003599000e+00 -1.963690000e-01
344500.0 -1.002643000e+00 -2.063400000e-01
354000.0 -1.003178000e+00 -2.152350000e-01
363500.0 -1.003150000e+00 -2.240860000e-01
373000.0 -1.004142000e+00 -2.328740000e-01
382500.0 -1.004022000e+00 -2.424440000e-01
392000.0 -1.004093000e+00 -2.512250000e-01
401500.0 -1.004318000e+00 -2.621470000e-01
411000.0 -1.004449000e+00 -2.710550000e-01
420500.0 -1.005304000e+00 -2.800490000e-01
430000.0 -1.005098000e+00 -2.899370000e-01
439500.0 -1.006408000e+00 -2.990840000e-01
449000.0 -1.005017000e+00 -3.083810000e-01
458500.0 -1.004866000e+00 -3.173140000e-01
468000.0 -1.005285000e+00 -3.263640000e-01
477500.0 -1.006328000e+00 -3.358570000e-01
487000.0 -1.007220000e+00 -3.449850000e-01
496500.0 -1.007131000e+00 -3.541950000e-01
506000.0 -1.006366000e+00 -3.630280000e-01
515500.0 -1.007618000e+00 -3.735760000e-01
525000.0 -1.006703000e+00 -3.825250000e-01
534500.0 -1.007834000e+00 -3.921730000e-01
544000.0 -1.008207000e+00 -4.011620000e-01
553500.0 -1.008743000e+00 -4.098910000e-01
563000.0 -1.009593000e+00 -4.189380000e-01
572500.0 -1.010522000e+00 -4.284290000e-01
582000.0 -1.010218000e+00 -4.377630000e-01
591500.0 -1.010888000e+00 -4.463680000e-01
601000.0 -1.010298000e+00 -4.559150000e-01
610500.0 -1.011371000e+00 -4.649650000e-01
620000.0 -1.011694000e+00 -4.735350000e-01
629500.0 -1.011630000e+00 -4.828320000e-01
639000.0 -1.013612000e+00 -4.923910000e-01
648500.0 -1.013165000e+00 -5.007830000e-01
658000.0 -1.014252000e+00 -5.103160000e-01
667500.0 -1.014761000e+00 -5.193840000e-01
677000.0 -1.014995000e+00 -5.290480000e-01
686500.0 -1.016745000e+00 -5.376980000e-01
696000.0 -1.015962000e+00 -5.454970000e-01
705500.0 -1.017817000e+00 -5.556260000e-01
715000.0 -1.018424000e+00 -5.646430000e-01
724500.0 -1.018682000e+00 -5.728160000e-01
734000.0 -1.019953000e+00 -5.826140000e-01
743500.0 -1.020244000e+00 -5.911570000e-01
753000.0 -1.021434000e+00 -6.004140000e-01
762500.0 -1.023377000e+00 -6.088640000e-01
772000.0 -1.024951000e+00 -6.173910000e-01
781500.0 -1.024653000e+00 -6.267540000e-01
791000.0 -1.025571000e+00 -6.354480000e-01
800500.0 -1.026704000e+00 -6.443510000e-01
810000.0 -1.029082000e+00 -6.533630000e-01
819500.0 -1.031342000e+00 -6.617500000e-01
829000.0 -1.032792000e+00 -6.705070000e-01
838500.0 -1.034053000e+00 -6.798480000e-01
848000.0 -1.035385000e+00 -6.872140000e-01
857500.0 -1.036991000e+00 -6.973580000e-01
867000.0 -1.037312000e+00 -7.056130000e-01
876500.0 -1.038993000e+00 -7.143990000e-01
886000.0 -1.040888000e+00 -7.235890000e-01
895500.0 -1.042611000e+00 -7.315860000e-01
905000.0 -1.045701000e+00 -7.409270000e-01
914500.0 -1.047841000e+00 -7.496820000e-01
924000.0 -1.049272000e+00 -7.582500000e-01
933500.0 -1.049984000e+00 -7.664430000e-01
943000.0 -1.052092000e+00 -7.742130000e-01
952500.0 -1.053350000e+00 -7.827450000e-01
962000.0 -1.057499000e+00 -7.910650000e-01
971500.0 -1.060867000e+00 -7.995990000e-01
981000.0 -1.062401000e+00 -8.074710000e-01
990500.0 -1.064931000e+00 -8.155870000e-01
1000000.0 -1.066653000e+00 -8.246880000e-01
1090000.0 -1.094783000e+00 -9.036520000e-01
1180000.0 -1.132478000e+00 -9.757700000e-01
1270000.0 -1.181915000e+00 -1.047080000e+00
1360000.0 -1.238720000e+00 -1.105649000e+00
1450000.0 -1.306503000e+00 -1.155439000e+00
1540000.0 -1.385458000e+00 -1.192991000e+00
1630000.0 -1.470719000e+00 -1.213566000e+00
1720000.0 -1.560880000e+00 -1.211680000e+00
1810000.0 -1.648343000e+00 -1.189663000e+00
1900000.0 -1.733796000e+00 -1.144937000e+00
1990000.0 -1.805756000e+00 -1.081235000e+00
2080000.0 -1.860348000e+00 -1.002814000e+00
2170000.0 -1.895939000e+00 -9.169790000e-01
2260000.0 -1.916255000e+00 -8.220850000e-01
2350000.0 -1.914328000e+00 -7.304830000e-01
2440000.0 -1.900302000e+00 -6.475150000e-01
2530000.0 -1.875451000e+00 -5.677270000e-01
2620000.0 -1.839700000e+00 -4.972630000e-01
2710000.0 -1.798786000e+00 -4.368290000e-01
2800000.0 -1.757744000e+00 -3.896930000e-01
2890000.0 -1.760120000e+00 -3.922490000e-01
2980000.0 -1.675164000e+00 -3.027930000e-01
3070000.0 -1.633669000e+00 -2.694660000e-01
3160000.0 -1.593681000e+00 -2.421140000e-01
3250000.0 -1.556364000e+00 -2.150180000e-01
3340000.0 -1.521690000e+00 -1.917280000e-01
3430000.0 -1.488826000e+00 -1.741640000e-01
3520000.0 -1.457867000e+00 -1.537450000e-01
3610000.0 -1.430585000e+00 -1.376950000e-01
3700000.0 -1.401236000e+00 -1.219590000e-01
3790000.0 -1.376548000e+00 -1.073650000e-01
3880000.0 -1.354443000e+00 -9.330800000e-02
3970000.0 -1.335477000e+00 -7.847100000e-02
4060000.0 -1.314212000e+00 -6.598000000e-02
4150000.0 -1.296740000e+00 -5.483900000e-02
4240000.0 -1.278821000e+00 -4.233300000e-02
4330000.0 -1.263874000e+00 -2.850700000e-02
4420000.0 -1.248934000e+00 -1.987200000e-02
4510000.0 -1.235171000e+00 -7.313000000e-03
4600000.0 -1.223885000e+00 4.381000000e-03
4690000.0 -1.212855000e+00 1.554300000e-02
4780000.0 -1.203484000e+00 2.732800000e-02
4870000.0 -1.193992000e+00 3.613900000e-02
4960000.0 -1.188024000e+00 4.810100000e-02
5050000.0 -1.172970000e+00 5.907000000e-02
5140000.0 -1.166807000e+00 6.978900000e-02
5230000.0 -1.161398000e+00 8.127200000e-02
5320000.0 -1.157101000e+00 9.027100000e-02
5410000.0 -1.153352000e+00 1.011060000e-01
5500000.0 -1.147901000e+00 1.115240000e-01
5590000.0 -1.142919000e+00 1.228310000e-01
5680000.0 -1.138929000e+00 1.321090000e-01
5770000.0 -1.136237000e+00 1.410410000e-01
5860000.0 -1.132471000e+00 1.516440000e-01
5950000.0 -1.129673000e+00 1.601150000e-01
6040000.0 -1.125036000e+00 1.683990000e-01
6130000.0 -1.122007000e+00 1.770600000e-01
6220000.0 -1.119861000e+00 1.847450000e-01
6310000.0 -1.117459000e+00 1.928360000e-01
6400000.0 -1.115047000e+00 2.004480000e-01
6490000.0 -1.112237000e+00 2.068170000e-01
6580000.0 -1.109491000e+00 2.133810000e-01
6670000.0 -1.109008000e+00 2.185260000e-01
6760000.0 -1.107408000e+00 2.244520000e-01
6850000.0 -1.105358000e+00 2.275420000e-01
6940000.0 -1.105062000e+00 2.324240000e-01
7030000.0 -1.103074000e+00 2.362480000e-01
7120000.0 -1.103013000e+00 2.394530000e-01
7210000.0 -1.102787000e+00 2.402220000e-01
7300000.0 -1.102576000e+00 2.424010000e-01
7390000.0 -1.101927000e+00 2.428060000e-01
7480000.0 -1.101900000e+00 2.420040000e-01
7570000.0 1.954870000e-01 1.073937000e+00
7660000.0 1.950700000e-01 1.073363000e+00
7750000.0 1.945580000e-01 1.073497000e+00
7840000.0 1.932950000e-01 1.073817000e+00
7930000.0 1.921470000e-01 1.074716000e+00
8020000.0 1.922280000e-01 1.074301000e+00
8110000.0 1.916500000e-01 1.074944000e+00
8200000.0 1.905750000e-01 1.076255000e+00
8290000.0 1.895900000e-01 1.075922000e+00
8380000.0 1.892680000e-01 1.077399000e+00
8470000.0 1.879130000e-01 1.077675000e+00
8560000.0 1.872050000e-01 1.077685000e+00
8650000.0 1.870580000e-01 1.078437000e+00
8740000.0 1.860590000e-01 1.078880000e+00
8830000.0 1.854130000e-01 1.079860000e+00
8920000.0 1.849130000e-01 1.079371000e+00
9010000.0 1.832910000e-01 1.080216000e+00
9100000.0 1.830300000e-01 1.080965000e+00
9190000.0 1.826400000e-01 1.080841000e+00
9280000.0 1.819580000e-01 1.081797000e+00
9370000.0 1.819440000e-01 1.082059000e+00
9460000.0 1.801500000e-01 1.084594000e+00
9550000.0 1.792770000e-01 1.084667000e+00
9640000.0 1.792540000e-01 1.083596000e+00
9730000.0 1.788770000e-01 1.086342000e+00
9820000.0 1.778350000e-01 1.086585000e+00
9910000.0 1.767510000e-01 1.087326000e+00
10000000.0 1.764660000e-01 1.086805000e+00
10900000.0 1.690170000e-01 1.094504000e+00
11800000.0 1.637570000e-01 1.102584000e+00
12700000.0 1.567160000e-01 1.110076000e+00
13600000.0 1.509110000e-01 1.119063000e+00
14500000.0 1.438160000e-01 1.126343000e+00
15400000.0 1.376900000e-01 1.135787000e+00
16300000.0 1.310640000e-01 1.145287000e+00
17200000.0 1.246040000e-01 1.154131000e+00
18100000.0 1.167000000e-01 1.163425000e+00
19000000.0 1.094790000e-01 1.173011000e+00
19900000.0 1.015530000e-01 1.182317000e+00
20800000.0 9.319700000e-02 1.192585000e+00
21700000.0 1.058030000e-01 1.196481000e+00
22600000.0 7.647100000e-02 1.212491000e+00
23500000.0 6.647100000e-02 1.222412000e+00
24400000.0 5.790700000e-02 1.232245000e+00
25300000.0 4.736700000e-02 1.241111000e+00
26200000.0 3.674000000e-02 1.251319000e+00
27100000.0 2.607100000e-02 1.261902000e+00
28000000.0 1.383600000e-02 1.271522000e+00
28900000.0 2.850000000e-03 1.281610000e+00
29800000.0 -8.652000000e-03 1.292295000e+00
30700000.0 -2.242800000e-02 1.301325000e+00
31600000.0 -3.487600000e-02 1.312254000e+00
32500000.0 -4.839200000e-02 1.322015000e+00
33400000.0 -6.158300000e-02 1.333819000e+00
34300000.0 -7.723000000e-02 1.340788000e+00
35200000.0 -9.067500000e-02 1.352295000e+00
36100000.0 -1.063800000e-01 1.361222000e+00
37000000.0 -1.208260000e-01 1.369748000e+00
37900000.0 -1.377020000e-01 1.378888000e+00
38800000.0 -1.538510000e-01 1.387284000e+00
39700000.0 -1.716330000e-01 1.396309000e+00
40600000.0 -1.885990000e-01 1.405522000e+00
41500000.0 -2.057830000e-01 1.411821000e+00
42400000.0 -2.246460000e-01 1.421357000e+00
43300000.0 -2.437330000e-01 1.427274000e+00
44200000.0 -2.630090000e-01 1.435665000e+00
45100000.0 -2.820790000e-01 1.442421000e+00
46000000.0 -3.021340000e-01 1.448441000e+00
46900000.0 -3.226450000e-01 1.453778000e+00
47800000.0 -3.443930000e-01 1.459254000e+00
48700000.0 -3.658420000e-01 1.463353000e+00
49600000.0 -3.867090000e-01 1.467873000e+00
50500000.0 -4.091320000e-01 1.471804000e+00
51400000.0 -4.311480000e-01 1.475137000e+00
52300000.0 -4.530560000e-01 1.477160000e+00
53200000.0 -4.776880000e-01 1.479659000e+00
54100000.0 -4.991760000e-01 1.482249000e+00
55000000.0 -5.244760000e-01 1.480987000e+00
55900000.0 -5.469970000e-01 1.481296000e+00
56800000.0 -5.713290000e-01 1.480845000e+00
57700000.0 -5.950560000e-01 1.479324000e+00
58600000.0 -6.182200000e-01 1.477100000e+00
59500000.0 -6.434930000e-01 1.474703000e+00
60400000.0 -6.676290000e-01 1.472137000e+00
61300000.0 -6.911050000e-01 1.468492000e+00
62200000.0 -7.165190000e-01 1.462026000e+00
63100000.0 -7.405180000e-01 1.456823000e+00
64000000.0 -7.634990000e-01 1.450953000e+00
64900000.0 -7.879220000e-01 1.443616000e+00
65800000.0 -8.123630000e-01 1.435064000e+00
66700000.0 -8.364780000e-01 1.427472000e+00
67600000.0 -8.607180000e-01 1.418014000e+00
68500000.0 -8.836840000e-01 1.407551000e+00
69400000.0 -9.070020000e-01 1.397333000e+00
70300000.0 -9.289600000e-01 1.385203000e+00
71200000.0 -9.517750000e-01 1.374701000e+00
72100000.0 -9.748860000e-01 1.361879000e+00
73000000.0 -9.962190000e-01 1.348689000e+00
73900000.0 -1.018330000e+00 1.334386000e+00
74800000.0 -1.040225000e+00 1.320302000e+00
75700000.0 -1.060953000e+00 1.305007000e+00
76600000.0 -1.080517000e+00 1.288586000e+00
77500000.0 -1.101555000e+00 1.271208000e+00
78400000.0 -1.121548000e+00 1.255556000e+00
79300000.0 -1.139623000e+00 1.237334000e+00
80200000.0 -1.158379000e+00 1.219812000e+00
81100000.0 -1.175147000e+00 1.201860000e+00
82000000.0 -1.193897000e+00 1.181026000e+00
82900000.0 -1.209154000e+00 1.161771000e+00
83800000.0 -1.225469000e+00 1.143139000e+00
84700000.0 -1.242123000e+00 1.122244000e+00
85600000.0 -1.254364000e+00 1.101662000e+00
86500000.0 -1.269768000e+00 1.079730000e+00
87400000.0 -1.281631000e+00 1.056620000e+00
88300000.0 -1.296622000e+00 1.035866000e+00
89200000.0 -1.307865000e+00 1.013135000e+00
90100000.0 -1.318295000e+00 9.898660000e-01
91000000.0 -1.328138000e+00 9.690220000e-01
91900000.0 -1.337147000e+00 9.454060000e-01
92800000.0 -1.345965000e+00 9.230230000e-01
93700000.0 -1.354539000e+00 8.986560000e-01
94600000.0 -1.363023000e+00 8.766150000e-01
95500000.0 -1.367826000e+00 8.539800000e-01
96400000.0 -1.373380000e+00 8.306040000e-01
97300000.0 -1.379578000e+00 8.071050000e-01
98200000.0 -1.384642000e+00 7.840270000e-01
99100000.0 -1.387534000e+00 7.611720000e-01
100000000.0 -1.392038000e+00 7.383510000e-01
109000000.0 -1.384478000e+00 5.217590000e-01
118000000.0 -1.331284000e+00 3.382770000e-01
127000000.0 -1.250231000e+00 1.996480000e-01
136000000.0 -1.134936000e+00 9.967600000e-02
145000000.0 -1.046197000e+00 2.918400000e-02
154000000.0 -1.000235000e+00 -9.620000000e-04
163000000.0 -1.003171000e+00 -3.107000000e-03
172000000.0 -1.004240000e+00 -5.796000000e-03
181000000.0 -1.006530000e+00 -7.337000000e-03
190000000.0 -1.007262000e+00 -9.323000000e-03
199000000.0 -1.008705000e+00 -1.133500000e-02
208000000.0 -1.009989000e+00 -1.033200000e-02
217000000.0 -1.009799000e+00 -1.175500000e-02
226000000.0 -1.010113000e+00 -1.186600000e-02
235000000.0 -1.009989000e+00 -1.233900000e-02
244000000.0 -1.009992000e+00 -1.024400000e-02
253000000.0 -1.008079000e+00 -9.606000000e-03
262000000.0 -1.008467000e+00 -8.367000000e-03
271000000.0 -1.006194000e+00 -7.132000000e-03
280000000.0 -1.003816000e+00 -6.099000000e-03
289000000.0 -1.002533000e+00 -2.636000000e-03
298000000.0 -1.000044000e+00 -8.240000000e-04
307000000.0 -1.001099000e+00 -1.241000000e-03
316000000.0 -1.007083000e+00 -2.095000000e-03
325000000.0 -1.008148000e+00 -3.690000000e-04
334000000.0 -1.010783000e+00 -3.754000000e-03
343000000.0 -1.010849000e+00 -2.602000000e-03
352000000.0 -1.015617000e+00 -2.056200000e-02
361000000.0 -1.023480000e+00 -3.910600000e-02
370000000.0 -1.014598000e+00 -4.574000000e-03
379000000.0 -1.014892000e+00 -3.060000000e-03
388000000.0 -1.014337000e+00 -2.661000000e-03
397000000.0 -1.012699000e+00 -4.145000000e-03
406000000.0 -1.012017000e+00 -3.071000000e-03
415000000.0 -1.000910000e+00 3.097300000e-02
424000000.0 -1.008495000e+00 -1.943000000e-03
433000000.0 -1.005656000e+00 -1.574000000e-03
442000000.0 -1.004161000e+00 -2.522000000e-03
451000000.0 -9.998000000e-01 1.747000000e-03
460000000.0 -1.003731000e+00 -1.686000000e-03
469000000.0 -1.006916000e+00 1.876000000e-03
478000000.0 -1.009488000e+00 1.106000000e-03
487000000.0 -1.013008000e+00 -1.470000000e-04
496000000.0 -1.014436000e+00 3.047000000e-03
505000000.0 -1.016868000e+00 1.707000000e-03
514000000.0 -1.015696000e+00 2.053000000e-03
523000000.0 -1.016471000e+00 8.340000000e-04
532000000.0 -1.016045000e+00 4.286000000e-03
541000000.0 -1.015186000e+00 3.191000000e-03
550000000.0 -1.013271000e+00 3.292000000e-03
559000000.0 -1.014539000e+00 5.503000000e-03
568000000.0 -1.010258000e+00 3.672000000e-03
577000000.0 -1.009784000e+00 1.456000000e-03
586000000.0 -1.005705000e+00 1.570000000e-03
595000000.0 -1.002904000e+00 1.302000000e-03
604000000.0 -1.000876000e+00 3.208000000e-03
613000000.0 -1.002905000e+00 6.529000000e-03
622000000.0 -1.006615000e+00 9.836000000e-03
631000000.0 -1.009335000e+00 7.362000000e-03
640000000.0 -1.008437000e+00 1.000300000e-02
649000000.0 -1.005288000e+00 1.424800000e-02
658000000.0 -1.007154000e+00 1.355800000e-02
667000000.0 -1.009392000e+00 1.212100000e-02
676000000.0 -1.008845000e+00 1.194300000e-02
685000000.0 -1.012075000e+00 1.361900000e-02
694000000.0 -1.010266000e+00 1.327300000e-02
703000000.0 -1.010374000e+00 1.297700000e-02
712000000.0 -1.010988000e+00 1.251200000e-02
721000000.0 -1.004843000e+00 7.067000000e-03
730000000.0 -1.005097000e+00 4.297000000e-03
739000000.0 -1.001665000e+00 5.636000000e-03
748000000.0 -9.995760000e-01 2.459000000e-03
757000000.0 -9.991000000e-01 6.280000000e-04
766000000.0 -1.000808000e+00 7.970000000e-03
775000000.0 -1.001320000e+00 6.882000000e-03
784000000.0 -9.987000000e-01 8.497000000e-03
793000000.0 -9.995560000e-01 6.806000000e-03
802000000.0 -1.000047000e+00 8.079000000e-03
811000000.0 -9.977980000e-01 5.243000000e-03
820000000.0 -9.981760000e-01 7.973000000e-03
829000000.0 -1.000796000e+00 6.501000000e-03
838000000.0 -9.965020000e-01 1.052300000e-02
847000000.0 -9.962760000e-01 3.483000000e-03
856000000.0 -9.940920000e-01 3.597000000e-03
865000000.0 -9.970910000e-01 3.222000000e-03
874000000.0 -9.945370000e-01 3.474000000e-03
883000000.0 -9.999240000e-01 2.079000000e-03
892000000.0 -9.985010000e-01 1.780000000e-03
901000000.0 -1.001729000e+00 4.710000000e-04
910000000.0 -9.986170000e-01 -3.215000000e-03
919000000.0 -9.975730000e-01 -3.623000000e-03
928000000.0 -1.001310000e+00 -5.630000000e-03
937000000.0 -1.000947000e+00 -3.768000000e-03
946000000.0 -9.990230000e-01 -3.485000000e-03
955000000.0 -9.988400000e-01 -5.579000000e-03
964000000.0 -1.002669000e+00 -6.370000000e-03
973000000.0 -9.992140000e-01 -8.079000000e-03
982000000.0 -1.003214000e+00 -7.117000000e-03
991000000.0 -9.998680000e-01 -9.859000000e-03
1000000000.0 -1.000271000e+00 -7.835000000e-03
1004500000.0 -1.003582000e+00 -6.228000000e-03
1009000000.0 -9.999660000e-01 -5.018000000e-03
1013500000.0 -1.002988000e+00 -5.116000000e-03
1018000000.0 -1.001973000e+00 -3.025000000e-03
1022500000.0 -9.987610000e-01 -5.041000000e-03
1027000000.0 -1.001999000e+00 -3.480000000e-03
1031500000.0 -1.002154000e+00 -3.788000000e-03
1036000000.0 -1.001009000e+00 -4.278000000e-03
1040500000.0 -1.001328000e+00 -6.913000000e-03
1045000000.0 -1.001749000e+00 -7.061000000e-03
1049500000.0 -9.995070000e-01 -3.658000000e-03
1054000000.0 -1.003591000e+00 -7.164000000e-03
1058500000.0 -1.004447000e+00 -6.439000000e-03
1063000000.0 -1.002652000e+00 -8.036000000e-03
1067500000.0 -1.005071000e+00 -7.152000000e-03
1072000000.0 -1.003367000e+00 -7.790000000e-03
1076500000.0 -1.006465000e+00 -7.868000000e-03
1081000000.0 -1.003084000e+00 -1.246000000e-02
1085500000.0 -1.002490000e+00 -9.469000000e-03
1090000000.0 -1.007441000e+00 -7.027000000e-03
1094500000.0 -1.009386000e+00 -1.050400000e-02
1099000000.0 -1.005217000e+00 -7.481000000e-03
1103500000.0 -1.007640000e+00 -1.113000000e-02
1108000000.0 -1.009280000e+00 -1.297600000e-02
1112500000.0 -1.006686000e+00 -1.342200000e-02
1117000000.0 -1.007048000e+00 -7.451000000e-03
1121500000.0 -1.007170000e+00 -6.850000000e-03
1126000000.0 -9.836060000e-01 3.865100000e-02
1130500000.0 -1.004528000e+00 -1.026200000e-02
1135000000.0 -1.004139000e+00 -8.812000000e-03
1139500000.0 -9.806480000e-01 4.089100000e-02
1144000000.0 -9.985620000e-01 4.916000000e-03
1148500000.0 -1.002811000e+00 -2.963000000e-03
1153000000.0 -1.004370000e+00 -3.358000000e-03
1157500000.0 -9.703810000e-01 5.724600000e-02
1162000000.0 -1.001718000e+00 -6.755000000e-03
1166500000.0 -1.003172000e+00 -8.386000000e-03
1171000000.0 -9.995170000e-01 -3.990000000e-03
1175500000.0 -1.003132000e+00 -4.507000000e-03
1180000000.0 -9.977660000e-01 1.948000000e-03
1184500000.0 -9.996960000e-01 2.034000000e-03
1189000000.0 -9.967940000e-01 -1.164900000e-02
1193500000.0 -9.941820000e-01 -2.320000000e-03
1198000000.0 -9.952670000e-01 -8.025000000e-03
1202500000.0 -1.001813000e+00 -1.270400000e-02
1207000000.0 -9.980410000e-01 -2.740000000e-03
1211500000.0 -1.001718000e+00 -8.790000000e-03
1216000000.0 -1.005307000e+00 -1.270000000e-04
1220500000.0 -1.000146000e+00 -2.447000000e-03
1225000000.0 -9.989110000e-01 -1.873000000e-03
1229500000.0 -9.991620000e-01 -9.920000000e-04
1234000000.0 -1.006894000e+00 -1.830000000e-03
1238500000.0 -1.003790000e+00 -4.983000000e-03
1243000000.0 -9.999920000e-01 -3.836000000e-03
1247500000.0 -1.001197000e+00 -4.209000000e-03
1252000000.0 -1.005739000e+00 -1.013500000e-02
1256500000.0 -9.999780000e-01 -6.075000000e-03
1261000000.0 -1.009858000e+00 -1.558600000e-02
1265500000.0 -1.009470000e+00 -5.318000000e-03
1270000000.0 -1.008297000e+00 -2.430000000e-04
1274500000.0 -1.011747000e+00 -8.190000000e-03
1279000000.0 -1.001681000e+00 9.106000000e-03
1283500000.0 -1.001712000e+00 -1.042900000e-02
1288000000.0 -1.003225000e+00 -2.674700000e-02
1292500000.0 -1.006755000e+00 -9.280000000e-04
1297000000.0 -1.006216000e+00 8.956000000e-03
1301500000.0 -1.001904000e+00 -7.233000000e-03
1306000000.0 -1.003366000e+00 -4.694000000e-03
1310500000.0 -1.004205000e+00 -2.892600000e-02
1315000000.0 -1.004035000e+00 -3.456000000e-03
1319500000.0 -1.001277000e+00 1.102400000e-02
1324000000.0 -9.961030000e-01 -8.426000000e-03
1328500000.0 -9.983200000e-01 4.127000000e-03
1333000000.0 -9.970600000e-01 -1.177600000e-02
1337500000.0 -9.985870000e-01 2.582000000e-03
1342000000.0 -9.964620000e-01 2.715000000e-03
1346500000.0 -9.944270000e-01 3.235000000e-03
1351000000.0 -9.950840000e-01 1.661000000e-03
1355500000.0 -9.931880000e-01 -7.458000000e-03
1360000000.0 -9.994210000e-01 2.000000000e-06
1364500000.0 -9.994110000e-01 5.300000000e-03
1369000000.0 -1.002079000e+00 -5.220000000e-03
1373500000.0 -1.001311000e+00 -1.179700000e-02
1378000000.0 -9.966840000e-01 -3.118000000e-03
1382500000.0 -1.008922000e+00 -1.643000000e-03
1387000000.0 -1.005111000e+00 4.916000000e-03
1391500000.0 -1.002935000e+00 -3.023000000e-03
1396000000.0 -1.008296000e+00 -2.210000000e-03
1400500000.0 -1.006612000e+00 7.055000000e-03
1405000000.0 -1.012167000e+00 5.745000000e-03
1409500000.0 -1.008523000e+00 9.560000000e-04
1414000000.0 -1.010602000e+00 -1.500000000e-05
1418500000.0 -1.013496000e+00 -5.630000000e-04
1423000000.0 -1.015480000e+00 -1.072900000e-02
1427500000.0 -1.006694000e+00 -2.057900000e-02
1432000000.0 -1.012513000e+00 -8.651000000e-03
1436500000.0 -1.009589000e+00 -2.353000000e-03
1441000000.0 -1.009975000e+00 -7.895000000e-03
1445500000.0 -1.010631000e+00 -4.769000000e-03
1450000000.0 -1.012810000e+00 -5.513000000e-03
