! piloto_deriva / corto_deriva / r17
# HZ S RI R 50
50000.0 -9.985780000e-01 -3.714200000e-02
59500.0 -9.956710000e-01 -1.764000000e-02
69000.0 -9.968380000e-01 -6.084000000e-03
78500.0 -9.997070000e-01 -1.745000000e-03
88000.0 -9.992280000e-01 5.170000000e-04
97500.0 -9.993360000e-01 -3.980000000e-04
107000.0 -1.000123000e+00 -2.112000000e-03
116500.0 -1.000278000e+00 -5.986000000e-03
126000.0 -9.994920000e-01 -1.084600000e-02
135500.0 -9.999580000e-01 -1.520700000e-02
145000.0 -9.992710000e-01 -2.250500000e-02
154500.0 -1.000031000e+00 -2.990900000e-02
164000.0 -1.000623000e+00 -3.693200000e-02
173500.0 -9.996160000e-01 -4.355900000e-02
183000.0 -1.000854000e+00 -5.214500000e-02
192500.0 -9.997200000e-01 -5.958000000e-02
202000.0 -1.000653000e+00 -6.853100000e-02
211500.0 -9.999040000e-01 -7.710600000e-02
221000.0 -9.999570000e-01 -8.610400000e-02
230500.0 -9.909920000e-01 -7.720600000e-02
240000.0 -1.000101000e+00 -1.041960000e-01
249500.0 -1.001427000e+00 -1.126710000e-01
259000.0 -1.001807000e+00 -1.223400000e-01
268500.0 -1.002013000e+00 -1.309700000e-01
278000.0 -1.001281000e+00 -1.405110000e-01
287500.0 -1.002198000e+00 -1.499080000e-01
297000.0 -1.002181000e+00 -1.595520000e-01
306500.0 -1.002038000e+00 -1.689110000e-01
316000.0 -1.002859000e+00 -1.771950000e-01
325500.0 -1.002580000e+00 -1.871030000e-01
335000.0 -1.002942000e+00 -1.963410000e-01
344500.0 -1.003253000e+00 -2.060310000e-01
354000.0 -1.003626000e+00 -2.146030000e-01
363500.0 -1.003646000e+00 -2.238680000e-01
373000.0 -1.004374000e+00 -2.331590000e-01
382500.0 -1.004687000e+00 -2.422890000e-01
392000.0 -1.004142000e+00 -2.517850000e-01
401500.0 -1.004081000e+00 -2.617960000e-01
411000.0 -1.004518000e+00 -2.709280000e-01
420500.0 -1.005473000e+00 -2.799790000e-01
430000.0 -1.005054000e+00 -2.888920000e-01
439500.0 -1.005250000e+00 -2.985060000e-01
449000.0 -1.005566000e+00 -3.075940000e-01
458500.0 -1.006090000e+00 -3.170380000e-01
468000.0 -1.005736000e+00 -3.270410000e-01
477500.0 -1.005854000e+00 -3.355970000e-01
487000.0 -1.005853000e+00 -3.452460000e-01
496500.0 -1.007082000e+00 -3.545240000e-01
506000.0 -1.007046000e+00 -3.638690000e-01
515500.0 -1.006831000e+00 -3.732580000e-01
525000.0 -1.007564000e+00 -3.823520000e-01
534500.0 -1.008298000e+00 -3.916890000e-01
544000.0 -1.008103000e+00 -4.002870000e-01
553500.0 -1.007828000e+00 -4.099870000e-01
563000.0 -1.009114000e+00 -4.186360000e-01
572500.0 -1.008918000e+00 -4.285940000e-01
582000.0 -1.009949000e+00 -4.379630000e-01
591500.0 -1.009048000e+00 -4.459670000e-01
601000.0 -1.010491000e+00 -4.554040000e-01
610500.0 -1.011013000e+00 -4.650560000e-01
620000.0 -1.011451000e+00 -4.747090000e-01
629500.0 -1.011876000e+00 -4.837080000e-01
639000.0 -1.013311000e+00 -4.926980000e-01
648500.0 -1.014067000e+00 -5.015280000e-01
658000.0 -1.014600000e+00 -5.096780000e-01
667500.0 -1.015569000e+00 -5.189240000e-01
677000.0 -1.015297000e+00 -5.290610000e-01
686500.0 -1.015951000e+00 -5.371680000e-01
696000.0 -1.016159000e+00 -5.468300000e-01
705500.0 -1.017917000e+00 -5.548740000e-01
715000.0 -1.017342000e+00 -5.647700000e-01
724500.0 -1.018768000e+00 -5.731340000e-01
734000.0 -1.020120000e+00 -5.830310000e-01
743500.0 -1.020710000e+00 -5.901610000e-01
753000.0 -1.022006000e+00 -5.998730000e-01
762500.0 -1.024019000e+00 -6.089340000e-01
772000.0 -1.024169000e+00 -6.178810000e-01
781500.0 -1.025710000e+00 -6.275210000e-01
791000.0 -1.026494000e+00 -6.355680000e-01
800500.0 -1.027697000e+00 -6.440910000e-01
810000.0 -1.029308000e+00 -6.530260000e-01
819500.0 -1.029334000e+00 -6.621040000e-01
829000.0 -1.031673000e+00 -6.712560000e-01
838500.0 -1.031778000e+00 -6.787870000e-01
848000.0 -1.034786000e+00 -6.875090000e-01
857500.0 -1.035370000e+00 -6.977770000e-01
867000.0 -1.037549000e+00 -7.049730000e-01
876500.0 -1.040032000e+00 -7.143200000e-01
886000.0 -1.041930000e+00 -7.226510000e-01
895500.0 -1.042378000e+00 -7.308780000e-01
905000.0 -1.043887000e+00 -7.405940000e-01
914500.0 -1.046551000e+00 -7.488680000e-01
924000.0 -1.049394000e+00 -7.572150000e-01
933500.0 -1.049829000e+00 -7.643750000e-01
943000.0 -1.053636000e+00 -7.750780000e-01
952500.0 -1.054958000e+00 -7.835440000e-01
962000.0 -1.057867000e+00 -7.925210000e-01
971500.0 -1.059355000e+00 -8.001230000e-01
981000.0 -1.063403000e+00 -8.087380000e-01
990500.0 -1.065837000e+00 -8.169690000e-01
1000000.0 -1.067325000e+00 -8.255660000e-01
1090000.0 -1.098525000e+00 -9.025430000e-01
1180000.0 -1.135175000e+00 -9.759480000e-01
1270000.0 -1.181230000e+00 -1.043601000e+00
1360000.0 -1.238982000e+00 -1.106192000e+00
1450000.0 -1.308254000e+00 -1.155576000e+00
1540000.0 -1.384120000e+00 -1.193168000e+00
1630000.0 -1.469408000e+00 -1.211941000e+00
1720000.0 -1.556437000e+00 -1.210935000e+00
1810000.0 -1.647655000e+00 -1.188756000e+00
1900000.0 -1.733839000e+00 -1.146969000e+00
1990000.0 -1.805209000e+00 -1.082783000e+00
2080000.0 -1.859788000e+00 -1.001857000e+00
2170000.0 -1.898695000e+00 -9.189490000e-01
2260000.0 -1.917115000e+00 -8.253390000e-01
2350000.0 -1.916866000e+00 -7.321730000e-01
2440000.0 -1.902711000e+00 -6.448760000e-01
2530000.0 -1.872261000e+00 -5.700150000e-01
2620000.0 -1.840660000e+00 -4.984580000e-01
2710000.0 -1.800261000e+00 -4.416630000e-01
2800000.0 -1.757237000e+00 -3.853610000e-01
2890000.0 -1.714877000e+00 -3.423070000e-01
2980000.0 -1.673108000e+00 -3.035360000e-01
3070000.0 -1.634386000e+00 -2.702710000e-01
3160000.0 -1.593084000e+00 -2.409680000e-01
3250000.0 -1.557627000e+00 -2.154540000e-01
3340000.0 -1.522008000e+00 -1.926490000e-01
3430000.0 -1.486255000e+00 -1.739170000e-01
3520000.0 -1.458727000e+00 -1.550550000e-01
3610000.0 -1.430667000e+00 -1.370100000e-01
3700000.0 -1.402747000e+00 -1.221500000e-01
3790000.0 -1.378359000e+00 -1.070900000e-01
3880000.0 -1.355681000e+00 -9.198200000e-02
3970000.0 -1.333167000e+00 -7.977700000e-02
4060000.0 -1.312739000e+00 -6.626600000e-02
4150000.0 -1.294970000e+00 -5.380200000e-02
4240000.0 -1.278734000e+00 -4.138300000e-02
4330000.0 -1.262161000e+00 -2.603100000e-02
4420000.0 -1.248949000e+00 -1.901400000e-02
4510000.0 -1.235941000e+00 -6.844000000e-03
4600000.0 -1.225384000e+00 3.394000000e-03
4690000.0 -1.212481000e+00 1.618600000e-02
4780000.0 -1.203626000e+00 2.586600000e-02
4870000.0 -1.194672000e+00 3.707400000e-02
4960000.0 -1.188066000e+00 4.876300000e-02
5050000.0 -1.173983000e+00 5.812200000e-02
5140000.0 -1.167592000e+00 6.917700000e-02
5230000.0 -1.161450000e+00 7.982900000e-02
5320000.0 -1.156771000e+00 9.054700000e-02
5410000.0 -1.152395000e+00 1.003010000e-01
5500000.0 -1.148030000e+00 1.114250000e-01
5590000.0 -1.143522000e+00 1.213320000e-01
5680000.0 -1.139844000e+00 1.315590000e-01
5770000.0 -1.135650000e+00 1.405960000e-01
5860000.0 -1.131371000e+00 1.503610000e-01
5950000.0 -1.128103000e+00 1.599470000e-01
6040000.0 -1.125613000e+00 1.673960000e-01
6130000.0 -1.121530000e+00 1.769790000e-01
6220000.0 -1.119610000e+00 1.843210000e-01
6310000.0 -1.116565000e+00 1.930000000e-01
6400000.0 -1.115147000e+00 1.992140000e-01
6490000.0 -1.113418000e+00 2.058420000e-01
6580000.0 -1.111572000e+00 2.128540000e-01
6670000.0 -1.108373000e+00 2.183260000e-01
6760000.0 -1.107280000e+00 2.235570000e-01
6850000.0 -1.105613000e+00 2.296600000e-01
6940000.0 -1.104666000e+00 2.324640000e-01
7030000.0 -1.103808000e+00 2.358430000e-01
7120000.0 -1.103118000e+00 2.382270000e-01
7210000.0 -1.102805000e+00 2.407740000e-01
7300000.0 -1.102072000e+00 2.419710000e-01
7390000.0 -1.102627000e+00 2.421240000e-01
7480000.0 -1.102123000e+00 2.422720000e-01
7570000.0 1.957760000e-01 1.072991000e+00
7660000.0 1.949930000e-01 1.073896000e+00
7750000.0 1.947540000e-01 1.073570000e+00
7840000.0 1.930870000e-01 1.074055000e+00
7930000.0 1.928600000e-01 1.074515000e+00
8020000.0 1.915640000e-01 1.074531000e+00
8110000.0 1.903360000e-01 1.076178000e+00
8200000.0 1.908800000e-01 1.075742000e+00
8290000.0 1.899660000e-01 1.076701000e+00
8380000.0 1.893260000e-01 1.077045000e+00
8470000.0 1.872600000e-01 1.078802000e+00
8560000.0 1.871780000e-01 1.079721000e+00
8650000.0 1.867480000e-01 1.077922000e+00
8740000.0 1.850170000e-01 1.078697000e+00
8830000.0 1.848450000e-01 1.079727000e+00
8920000.0 1.842320000e-01 1.079637000e+00
9010000.0 1.831550000e-01 1.079591000e+00
9100000.0 1.820960000e-01 1.080295000e+00
9190000.0 1.821040000e-01 1.081274000e+00
9280000.0 1.812860000e-01 1.082253000e+00
9370000.0 1.810080000e-01 1.082482000e+00
9460000.0 1.803070000e-01 1.083546000e+00
9550000.0 1.799780000e-01 1.083947000e+00
9640000.0 1.795280000e-01 1.084383000e+00
9730000.0 1.778190000e-01 1.085066000e+00
9820000.0 1.785630000e-01 1.086482000e+00
9910000.0 1.776610000e-01 1.086831000e+00
10000000.0 1.766950000e-01 1.087323000e+00
10900000.0 1.697240000e-01 1.094398000e+00
11800000.0 1.622250000e-01 1.102893000e+00
12700000.0 1.580300000e-01 1.111085000e+00
13600000.0 1.497560000e-01 1.117930000e+00
14500000.0 1.442410000e-01 1.126812000e+00
15400000.0 1.374330000e-01 1.135950000e+00
16300000.0 1.306890000e-01 1.145498000e+00
17200000.0 1.246990000e-01 1.153473000e+00
18100000.0 1.165580000e-01 1.163394000e+00
19000000.0 1.091100000e-01 1.173586000e+00
19900000.0 1.011500000e-01 1.183246000e+00
20800000.0 9.307800000e-02 1.191920000e+00
21700000.0 8.471500000e-02 1.201366000e+00
22600000.0 7.568500000e-02 1.211639000e+00
23500000.0 6.565200000e-02 1.221009000e+00
24400000.0 5.677100000e-02 1.230590000e+00
25300000.0 4.684100000e-02 1.242170000e+00
26200000.0 3.536400000e-02 1.252778000e+00
27100000.0 2.539100000e-02 1.261308000e+00
28000000.0 1.382300000e-02 1.272298000e+00
28900000.0 3.490000000e-03 1.281743000e+00
29800000.0 -9.607000000e-03 1.291484000e+00
30700000.0 -2.223000000e-02 1.302282000e+00
31600000.0 -3.459700000e-02 1.312007000e+00
32500000.0 -4.902900000e-02 1.322367000e+00
33400000.0 -6.190900000e-02 1.330889000e+00
34300000.0 -7.472600000e-02 1.341498000e+00
35200000.0 -9.109800000e-02 1.351137000e+00
36100000.0 -1.057590000e-01 1.360247000e+00
37000000.0 -1.209540000e-01 1.370366000e+00
37900000.0 -1.379880000e-01 1.379727000e+00
38800000.0 -1.541760000e-01 1.388819000e+00
39700000.0 -1.704820000e-01 1.396924000e+00
40600000.0 -1.884610000e-01 1.405283000e+00
41500000.0 -2.068570000e-01 1.412706000e+00
42400000.0 -2.248840000e-01 1.419427000e+00
43300000.0 -2.444010000e-01 1.428381000e+00
44200000.0 -2.632050000e-01 1.435170000e+00
45100000.0 -2.823240000e-01 1.441262000e+00
46000000.0 -3.017850000e-01 1.447505000e+00
46900000.0 -3.232010000e-01 1.454127000e+00
47800000.0 -3.450200000e-01 1.459837000e+00
48700000.0 -3.658730000e-01 1.463737000e+00
49600000.0 -3.864040000e-01 1.466543000e+00
50500000.0 -4.081540000e-01 1.471510000e+00
51400000.0 -4.319730000e-01 1.475328000e+00
52300000.0 -4.541000000e-01 1.477588000e+00
53200000.0 -4.764790000e-01 1.478870000e+00
54100000.0 -4.997100000e-01 1.480426000e+00
55000000.0 -5.231810000e-01 1.482163000e+00
55900000.0 -5.459590000e-01 1.480802000e+00
56800000.0 -5.713250000e-01 1.480854000e+00
57700000.0 -5.939420000e-01 1.479539000e+00
58600000.0 -6.193030000e-01 1.477375000e+00
59500000.0 -6.426510000e-01 1.474648000e+00
60400000.0 -6.668670000e-01 1.471906000e+00
61300000.0 -6.912860000e-01 1.468182000e+00
62200000.0 -7.150120000e-01 1.462752000e+00
63100000.0 -7.396020000e-01 1.457400000e+00
64000000.0 -7.650890000e-01 1.449960000e+00
64900000.0 -7.896810000e-01 1.444334000e+00
65800000.0 -8.125870000e-01 1.435483000e+00
66700000.0 -8.361240000e-01 1.428221000e+00
67600000.0 -8.604420000e-01 1.416644000e+00
68500000.0 -8.845520000e-01 1.407854000e+00
69400000.0 -9.072890000e-01 1.397853000e+00
70300000.0 -9.303300000e-01 1.387648000e+00
71200000.0 -9.515660000e-01 1.374532000e+00
72100000.0 -9.759460000e-01 1.361534000e+00
73000000.0 -9.966010000e-01 1.349968000e+00
73900000.0 -1.018363000e+00 1.335036000e+00
74800000.0 -1.041181000e+00 1.319630000e+00
75700000.0 -1.061037000e+00 1.304875000e+00
76600000.0 -1.080081000e+00 1.289452000e+00
77500000.0 -1.101346000e+00 1.271998000e+00
78400000.0 -1.120981000e+00 1.253656000e+00
79300000.0 -1.140198000e+00 1.237905000e+00
80200000.0 -1.156829000e+00 1.220831000e+00
81100000.0 -1.175870000e+00 1.200711000e+00
82000000.0 -1.192104000e+00 1.181975000e+00
82900000.0 -1.209472000e+00 1.161411000e+00
83800000.0 -1.226629000e+00 1.141245000e+00
84700000.0 -1.240170000e+00 1.120630000e+00
85600000.0 -1.253864000e+00 1.100370000e+00
86500000.0 -1.268380000e+00 1.079949000e+00
87400000.0 -1.282394000e+00 1.057481000e+00
88300000.0 -1.293679000e+00 1.036470000e+00
89200000.0 -1.307254000e+00 1.014846000e+00
90100000.0 -1.317279000e+00 9.909710000e-01
91000000.0 -1.328752000e+00 9.682760000e-01
91900000.0 -1.337143000e+00 9.449160000e-01
92800000.0 -1.346763000e+00 9.234150000e-01
93700000.0 -1.354379000e+00 9.000930000e-01
94600000.0 -1.363392000e+00 8.777060000e-01
95500000.0 -1.367407000e+00 8.527950000e-01
96400000.0 -1.374748000e+00 8.292860000e-01
97300000.0 -1.380239000e+00 8.072630000e-01
98200000.0 -1.384309000e+00 7.831030000e-01
99100000.0 -1.387473000e+00 7.627110000e-01
100000000.0 -1.390582000e+00 7.373050000e-01
109000000.0 -1.369901000e+00 5.426350000e-01
118000000.0 -1.330845000e+00 3.413020000e-01
127000000.0 -1.248843000e+00 1.992390000e-01
136000000.0 -1.139890000e+00 7.899600000e-02
145000000.0 -1.046618000e+00 3.036400000e-02
154000000.0 -9.970690000e-01 1.680800000e-02
163000000.0 -1.003412000e+00 -3.845000000e-03
172000000.0 -1.003694000e+00 -6.588000000e-03
181000000.0 -1.006161000e+00 -8.499000000e-03
190000000.0 -1.005496000e+00 8.456000000e-03
199000000.0 -1.008768000e+00 -1.117100000e-02
208000000.0 -1.011980000e+00 -2.889600000e-02
217000000.0 -1.010575000e+00 -1.201300000e-02
226000000.0 -1.011188000e+00 -1.192800000e-02
235000000.0 -1.010343000e+00 -1.050200000e-02
244000000.0 -1.009532000e+00 -1.062000000e-02
253000000.0 -1.008249000e+00 -1.067200000e-02
262000000.0 -1.008072000e+00 -7.501000000e-03
271000000.0 -1.006362000e+00 -5.676000000e-03
280000000.0 -1.004594000e+00 -6.241000000e-03
289000000.0 -1.002439000e+00 -3.019000000e-03
298000000.0 -1.000144000e+00 -8.930000000e-04
307000000.0 -1.002358000e+00 -1.130000000e-03
316000000.0 -1.006812000e+00 -1.737000000e-03
325000000.0 -1.008625000e+00 -1.824000000e-03
334000000.0 -1.009857000e+00 -2.211000000e-03
343000000.0 -1.083188000e+00 -1.033080000e-01
352000000.0 -1.013009000e+00 -4.040000000e-03
361000000.0 -1.014144000e+00 -3.704000000e-03
370000000.0 -1.014606000e+00 -3.539000000e-03
379000000.0 -1.014404000e+00 -3.722000000e-03
388000000.0 -9.852520000e-01 7.790300000e-02
397000000.0 -1.013778000e+00 -2.883000000e-03
406000000.0 -1.002908000e+00 3.024000000e-02
415000000.0 -1.010346000e+00 -6.030000000e-04
424000000.0 -1.008291000e+00 -3.492000000e-03
433000000.0 -1.006469000e+00 -3.822000000e-03
442000000.0 -1.001612000e+00 3.270000000e-04
451000000.0 -1.001333000e+00 1.304000000e-03
460000000.0 -1.004573000e+00 2.000000000e-06
469000000.0 -1.007261000e+00 -2.390000000e-04
478000000.0 -1.010402000e+00 8.830000000e-04
487000000.0 -1.012374000e+00 1.643000000e-03
496000000.0 -1.014691000e+00 2.704000000e-03
505000000.0 -1.016391000e+00 3.865000000e-03
514000000.0 -1.017456000e+00 4.315000000e-03
523000000.0 -1.016348000e+00 4.290000000e-03
532000000.0 -1.018061000e+00 3.174000000e-03
541000000.0 -1.014826000e+00 2.434000000e-03
550000000.0 -1.016028000e+00 2.014000000e-03
559000000.0 -1.011574000e+00 2.295000000e-03
568000000.0 -1.012253000e+00 7.300000000e-05
577000000.0 -1.006727000e+00 1.366000000e-03
586000000.0 -1.005381000e+00 3.574000000e-03
595000000.0 -1.002717000e+00 1.590000000e-04
604000000.0 -1.001223000e+00 1.510000000e-03
613000000.0 -1.002194000e+00 2.898000000e-03
622000000.0 -1.007136000e+00 5.144000000e-03
631000000.0 -1.008270000e+00 7.937000000e-03
640000000.0 -1.008096000e+00 1.146300000e-02
649000000.0 -1.011294000e+00 1.130200000e-02
658000000.0 -1.010181000e+00 1.047400000e-02
667000000.0 -1.013685000e+00 1.398900000e-02
676000000.0 -1.008549000e+00 9.963000000e-03
685000000.0 -1.009035000e+00 1.405800000e-02
694000000.0 -1.008970000e+00 1.367400000e-02
703000000.0 -1.005321000e+00 1.307400000e-02
712000000.0 -1.007992000e+00 1.404700000e-02
721000000.0 -1.009618000e+00 4.618000000e-03
730000000.0 -1.004094000e+00 6.117000000e-03
739000000.0 -1.002872000e+00 5.852000000e-03
748000000.0 -9.973610000e-01 8.600000000e-04
757000000.0 -9.964440000e-01 5.691000000e-03
766000000.0 -9.985590000e-01 4.954000000e-03
775000000.0 -9.980010000e-01 5.564000000e-03
784000000.0 -9.979500000e-01 7.369000000e-03
793000000.0 -9.993300000e-01 5.519000000e-03
802000000.0 -9.989380000e-01 6.662000000e-03
811000000.0 -9.990750000e-01 1.221800000e-02
820000000.0 -9.984770000e-01 5.864000000e-03
829000000.0 -9.973750000e-01 1.130600000e-02
838000000.0 -9.965180000e-01 9.085000000e-03
847000000.0 -9.970610000e-01 5.878000000e-03
856000000.0 -1.000222000e+00 -7.220000000e-04
865000000.0 -9.959130000e-01 4.318000000e-03
874000000.0 -9.973000000e-01 2.313000000e-03
883000000.0 -9.968580000e-01 2.108000000e-03
892000000.0 -1.000481000e+00 1.734000000e-03
901000000.0 -9.979300000e-01 -1.263000000e-03
910000000.0 -9.959380000e-01 1.502000000e-03
919000000.0 -9.994430000e-01 -3.158000000e-03
928000000.0 -9.998120000e-01 -3.356000000e-03
937000000.0 -1.001489000e+00 -5.063000000e-03
946000000.0 -9.994970000e-01 -5.601000000e-03
955000000.0 -1.001054000e+00 -4.872000000e-03
964000000.0 -9.997530000e-01 -9.394000000e-03
973000000.0 -9.991870000e-01 -6.425000000e-03
982000000.0 -1.001209000e+00 -4.880000000e-03
991000000.0 -1.001210000e+00 -4.737000000e-03
1000000000.0 -1.002187000e+00 -5.811000000e-03
1004500000.0 -1.002140000e+00 -7.325000000e-03
1009000000.0 -1.000009000e+00 -3.099000000e-03
1013500000.0 -1.002824000e+00 -9.864000000e-03
1018000000.0 -1.002455000e+00 -6.620000000e-03
1022500000.0 -1.001627000e+00 -1.159300000e-02
1027000000.0 -1.002636000e+00 -4.381000000e-03
1031500000.0 -9.998900000e-01 -2.140000000e-04
1036000000.0 -1.004435000e+00 -5.546000000e-03
1040500000.0 -1.002492000e+00 -2.700000000e-04
1045000000.0 -9.998330000e-01 -2.620000000e-03
1049500000.0 -9.995680000e-01 -3.704000000e-03
1054000000.0 -9.985680000e-01 -4.191000000e-03
1058500000.0 -9.982790000e-01 -5.107000000e-03
1063000000.0 -9.990420000e-01 -7.900000000e-05
1067500000.0 -1.007251000e+00 -5.797000000e-03
1072000000.0 -1.004910000e+00 -1.078300000e-02
1076500000.0 -1.004398000e+00 -8.972000000e-03
1081000000.0 -1.005969000e+00 -9.207000000e-03
1085500000.0 -1.004854000e+00 -9.494000000e-03
1090000000.0 -1.009631000e+00 -9.435000000e-03
1094500000.0 -1.007000000e+00 -1.054700000e-02
1099000000.0 -1.008376000e+00 -9.564000000e-03
1103500000.0 -1.006231000e+00 -1.215800000e-02
1108000000.0 -1.010517000e+00 -1.069700000e-02
1112500000.0 -1.009249000e+00 -7.090000000e-03
1117000000.0 -1.007262000e+00 -7.109000000e-03
1121500000.0 -1.013627000e+00 -9.119000000e-03
1126000000.0 -8.696300000e-01 -4.948700000e-02
1130500000.0 -1.007804000e+00 -9.220000000e-03
1135000000.0 -1.013167000e+00 -4.129100000e-02
1139500000.0 -1.007913000e+00 -9.836000000e-03
1144000000.0 -1.004367000e+00 -3.396000000e-03
1148500000.0 -1.005460000e+00 -5.504000000e-03
1153000000.0 -1.026090000e+00 -5.389100000e-02
1157500000.0 -1.000744000e+00 -5.353000000e-03
1162000000.0 -9.922640000e-01 2.579400000e-02
1166500000.0 -1.002231000e+00 -6.085000000e-03
1171000000.0 -1.002662000e+00 -6.046000000e-03
1175500000.0 -1.004036000e+00 -4.245000000e-03
1180000000.0 -9.967420000e-01 -8.446000000e-03
1184500000.0 -9.998610000e-01 -2.702000000e-03
1189000000.0 -1.003963000e+00 -2.343000000e-03
1193500000.0 -9.989980000e-01 -4.163000000e-03
1198000000.0 -9.958290000e-01 -4.975000000e-03
1202500000.0 -9.974000000e-01 -5.527000000e-03
1207000000.0 -9.982910000e-01 -3.067000000e-03
1211500000.0 -9.981350000e-01 -1.846000000e-03
1216000000.0 -1.001583000e+00 -6.999000000e-03
1220500000.0 -9.963210000e-01 -2.754000000e-03
1225000000.0 -1.007224000e+00 -1.316000000e-03
1229500000.0 -9.987890000e-01 -2.435000000e-03
1234000000.0 -1.002432000e+00 -8.254000000e-03
1238500000.0 -1.002070000e+00 -7.260000000e-03
1243000000.0 -1.007095000e+00 -2.537000000e-03
1247500000.0 -1.004575000e+00 -2.787000000e-03
1252000000.0 -1.001960000e+00 -2.908000000e-03
1256500000.0 -1.007680000e+00 -6.107000000e-03
1261000000.0 -1.007967000e+00 -1.121600000e-02
1265500000.0 -1.005197000e+00 -8.501000000e-03
1270000000.0 -1.005050000e+00 2.728000000e-03
1274500000.0 -1.013268000e+00 -9.911000000e-03
1279000000.0 -1.008222000e+00 -6.221000000e-03
1283500000.0 -1.004162000e+00 -2.312000000e-03
1288000000.0 -9.968790000e-01 -2.867000000e-03
1292500000.0 -1.005793000e+00 -2.958000000e-03
1297000000.0 -1.001750000e+00 2.168000000e-03
1301500000.0 -1.001217000e+00 -4.030000000e-03
1306000000.0 -1.003227000e+00 -1.949100000e-02
1310500000.0 -1.000543000e+00 -1.034600000e-02
1315000000.0 -1.002010000e+00 -2.410000000e-03
1319500000.0 -9.987040000e-01 -5.341000000e-03
1324000000.0 -1.000526000e+00 -1.154400000e-02
1328500000.0 -1.001867000e+00 1.602000000e-03
1333000000.0 -9.952790000e-01 -6.155000000e-03
1337500000.0 -9.913920000e-01 -4.203000000e-03
1342000000.0 -9.911130000e-01 -6.954000000e-03
1346500000.0 -9.965790000e-01 8.973000000e-03
1351000000.0 -9.902100000e-01 -6.581000000e-03
1355500000.0 -9.977700000e-01 -5.981000000e-03
1360000000.0 -9.942260000e-01 -2.150000000e-04
1364500000.0 -9.940580000e-01 -3.655000000e-03
1369000000.0 -9.976070000e-01 -2.898000000e-03
1373500000.0 -1.001394000e+00 -1.369000000e-03
1378000000.0 -9.992190000e-01 -4.902000000e-03
1382500000.0 -1.000174000e+00 1.114000000e-03
1387000000.0 -1.000264000e+00 -6.673000000e-03
1391500000.0 -1.003422000e+00 -5.376000000e-03
1396000000.0 -1.003453000e+00 -8.406000000e-03
1400500000.0 -1.005420000e+00 -6.655000000e-03
1405000000.0 -1.010232000e+00 7.000000000e-06
1409500000.0 -1.011476000e+00 -9.336000000e-03
1414000000.0 -1.003947000e+00 6.845000000e-03
1418500000.0 -1.010529000e+00 -1.117000000e-02
1423000000.0 -1.013668000e+00 -2.898000000e-03
1427500000.0 -1.020092000e+00 7.648000000e-03
1432000000.0 -1.011314000e+00 -1.419700000e-02
1436500000.0 -1.011720000e+00 -2.645000000e-03
1441000000.0 -1.006511000e+00 -6.065000000e-03
1445500000.0 -1.012028000e+00 -7.234000000e-03
1450000000.0 -1.011558000e+00 -9.752000000e-03
