! piloto_deriva / corto_deriva / r47
# HZ S RI R 50
50000.0 -9.982090000e-01 -3.725700000e-02
59500.0 -9.968710000e-01 -1.787400000e-02
69000.0 -9.979150000e-01 -9.043000000e-03
78500.0 -9.985500000e-01 -1.047000000e-03
88000.0 -9.990030000e-01 -2.810000000e-04
97500.0 -1.000720000e+00 1.010000000e-04
107000.0 -9.995670000e-01 -2.868000000e-03
116500.0 -1.000765000e+00 -6.618000000e-03
126000.0 -9.999890000e-01 -1.086800000e-02
135500.0 -9.994640000e-01 -1.603300000e-02
145000.0 -9.991950000e-01 -2.313500000e-02
154500.0 -1.000533000e+00 -2.991700000e-02
164000.0 -1.000619000e+00 -3.631200000e-02
173500.0 -1.000231000e+00 -4.427200000e-02
183000.0 -1.000359000e+00 -5.256000000e-02
192500.0 -9.999250000e-01 -6.013600000e-02
202000.0 -1.000018000e+00 -6.847500000e-02
211500.0 -1.000994000e+00 -7.745200000e-02
221000.0 -1.000631000e+00 -8.614100000e-02
230500.0 -1.000177000e+00 -9.446200000e-02
240000.0 -1.000639000e+00 -1.042210000e-01
249500.0 -1.001256000e+00 -1.127810000e-01
259000.0 -1.001510000e+00 -1.220130000e-01
268500.0 -1.001694000e+00 -1.317640000e-01
278000.0 -1.001906000e+00 -1.407860000e-01
287500.0 -1.001260000e+00 -1.501980000e-01
297000.0 -1.001484000e+00 -1.594640000e-01
306500.0 -1.002334000e+00 -1.684650000e-01
316000.0 -1.002376000e+00 -1.775280000e-01
325500.0 -1.002760000e+00 -1.882250000e-01
335000.0 -1.003309000e+00 -1.960880000e-01
344500.0 -1.003428000e+00 -2.057670000e-01
354000.0 -1.002638000e+00 -2.147870000e-01
363500.0 -1.003768000e+00 -2.244610000e-01
373000.0 -1.004833000e+00 -2.344300000e-01
382500.0 -1.004420000e+00 -2.436250000e-01
392000.0 -1.004513000e+00 -2.532310000e-01
401500.0 -1.004798000e+00 -2.619140000e-01
411000.0 -1.004829000e+00 -2.710630000e-01
420500.0 -1.004424000e+00 -2.810120000e-01
430000.0 -1.005866000e+00 -2.903840000e-01
439500.0 -1.005672000e+00 -2.997040000e-01
449000.0 -1.005803000e+00 -3.086090000e-01
458500.0 -1.006318000e+00 -3.189830000e-01
468000.0 -1.006691000e+00 -3.277660000e-01
477500.0 -1.005082000e+00 -3.364600000e-01
487000.0 -1.006758000e+00 -3.464170000e-01
496500.0 -1.006930000e+00 -3.557150000e-01
506000.0 -1.007422000e+00 -3.643690000e-01
515500.0 -1.007706000e+00 -3.741130000e-01
525000.0 -1.007094000e+00 -3.831060000e-01
534500.0 -1.007282000e+00 -3.925120000e-01
544000.0 -1.008186000e+00 -4.022210000e-01
553500.0 -1.008775000e+00 -4.103870000e-01
563000.0 -1.008926000e+00 -4.196220000e-01
572500.0 -1.009866000e+00 -4.290180000e-01
582000.0 -1.010181000e+00 -4.377370000e-01
591500.0 -1.010210000e+00 -4.477310000e-01
601000.0 -1.010971000e+00 -4.568280000e-01
610500.0 -1.011441000e+00 -4.656490000e-01
620000.0 -1.011801000e+00 -4.755270000e-01
629500.0 -1.012675000e+00 -4.836010000e-01
639000.0 -1.013517000e+00 -4.918700000e-01
648500.0 -1.013284000e+00 -5.021780000e-01
658000.0 -1.013984000e+00 -5.117080000e-01
667500.0 -1.015604000e+00 -5.203310000e-01
677000.0 -1.016255000e+00 -5.285300000e-01
686500.0 -1.016626000e+00 -5.383580000e-01
696000.0 -1.015789000e+00 -5.468720000e-01
705500.0 -1.018448000e+00 -5.566920000e-01
715000.0 -1.018298000e+00 -5.650740000e-01
724500.0 -1.019631000e+00 -5.739460000e-01
734000.0 -1.020863000e+00 -5.829840000e-01
743500.0 -1.021734000e+00 -5.926250000e-01
753000.0 -1.022631000e+00 -6.013320000e-01
762500.0 -1.023319000e+00 -6.103540000e-01
772000.0 -1.024934000e+00 -6.191910000e-01
781500.0 -1.026070000e+00 -6.277960000e-01
791000.0 -1.027418000e+00 -6.370750000e-01
800500.0 -1.028953000e+00 -6.458650000e-01
810000.0 -1.029530000e+00 -6.538310000e-01
819500.0 -1.031612000e+00 -6.632660000e-01
829000.0 -1.031750000e+00 -6.729620000e-01
838500.0 -1.032447000e+00 -6.802730000e-01
848000.0 -1.033619000e+00 -6.894210000e-01
857500.0 -1.037377000e+00 -6.990270000e-01
867000.0 -1.037884000e+00 -7.062970000e-01
876500.0 -1.040999000e+00 -7.158030000e-01
886000.0 -1.042453000e+00 -7.239120000e-01
895500.0 -1.043247000e+00 -7.318920000e-01
905000.0 -1.046575000e+00 -7.411990000e-01
914500.0 -1.047565000e+00 -7.499670000e-01
924000.0 -1.050085000e+00 -7.581500000e-01
933500.0 -1.050640000e+00 -7.666530000e-01
943000.0 -1.052735000e+00 -7.760830000e-01
952500.0 -1.055003000e+00 -7.848750000e-01
962000.0 -1.058033000e+00 -7.938400000e-01
971500.0 -1.061136000e+00 -8.013390000e-01
981000.0 -1.063595000e+00 -8.095530000e-01
990500.0 -1.067125000e+00 -8.188110000e-01
1000000.0 -1.068527000e+00 -8.265560000e-01
1090000.0 -1.098398000e+00 -9.044560000e-01
1180000.0 -1.137376000e+00 -9.794750000e-01
1270000.0 -1.183046000e+00 -1.048593000e+00
1360000.0 -1.242198000e+00 -1.108930000e+00
1450000.0 -1.310341000e+00 -1.157610000e+00
1540000.0 -1.387155000e+00 -1.192864000e+00
1630000.0 -1.471962000e+00 -1.210939000e+00
1720000.0 -1.566852000e+00 -1.209271000e+00
1810000.0 -1.655248000e+00 -1.187539000e+00
1900000.0 -1.738395000e+00 -1.141981000e+00
1990000.0 -1.810195000e+00 -1.075814000e+00
2080000.0 -1.866085000e+00 -1.000080000e+00
2170000.0 -1.903233000e+00 -9.090260000e-01
2260000.0 -1.919182000e+00 -8.179710000e-01
2350000.0 -1.919698000e+00 -7.272460000e-01
2440000.0 -1.900068000e+00 -6.408190000e-01
2530000.0 -1.870329000e+00 -5.649600000e-01
2620000.0 -1.838990000e+00 -4.963750000e-01
2710000.0 -1.800711000e+00 -4.356290000e-01
2800000.0 -1.756567000e+00 -3.854840000e-01
2890000.0 -1.714729000e+00 -3.397530000e-01
2980000.0 -1.671394000e+00 -3.011780000e-01
3070000.0 -1.630407000e+00 -2.689360000e-01
3160000.0 -1.591498000e+00 -2.388090000e-01
3250000.0 -1.555904000e+00 -2.151640000e-01
3340000.0 -1.518779000e+00 -1.917590000e-01
3430000.0 -1.486905000e+00 -1.734480000e-01
3520000.0 -1.457731000e+00 -1.546910000e-01
3610000.0 -1.428562000e+00 -1.388160000e-01
3700000.0 -1.401315000e+00 -1.231190000e-01
3790000.0 -1.376702000e+00 -1.069310000e-01
3880000.0 -1.355316000e+00 -9.405800000e-02
3970000.0 -1.332578000e+00 -7.865400000e-02
4060000.0 -1.312455000e+00 -6.703600000e-02
4150000.0 -1.294602000e+00 -5.491700000e-02
4240000.0 -1.278745000e+00 -4.362300000e-02
4330000.0 -1.262632000e+00 -3.183700000e-02
4420000.0 -1.248085000e+00 -1.938100000e-02
4510000.0 -1.235159000e+00 -6.490000000e-03
4600000.0 -1.224316000e+00 3.824000000e-03
4690000.0 -1.214216000e+00 1.416900000e-02
4780000.0 -1.203367000e+00 2.710900000e-02
4870000.0 -1.194612000e+00 3.732400000e-02
4960000.0 -1.186204000e+00 4.771900000e-02
5050000.0 -1.172308000e+00 5.865800000e-02
5140000.0 -1.167537000e+00 6.824000000e-02
5230000.0 -1.160837000e+00 7.970400000e-02
5320000.0 -1.156306000e+00 8.998100000e-02
5410000.0 -1.151265000e+00 1.011580000e-01
5500000.0 -1.147567000e+00 1.111730000e-01
5590000.0 -1.143505000e+00 1.208860000e-01
5680000.0 -1.139060000e+00 1.314190000e-01
5770000.0 -1.133850000e+00 1.415610000e-01
5860000.0 -1.132981000e+00 1.513570000e-01
5950000.0 -1.128127000e+00 1.590250000e-01
6040000.0 -1.126338000e+00 1.675740000e-01
6130000.0 -1.121257000e+00 1.765460000e-01
6220000.0 -1.119478000e+00 1.853820000e-01
6310000.0 -1.117122000e+00 1.936340000e-01
6400000.0 -1.114514000e+00 1.998110000e-01
6490000.0 -1.112618000e+00 2.064760000e-01
6580000.0 -1.109490000e+00 2.120900000e-01
6670000.0 -1.108343000e+00 2.181140000e-01
6760000.0 -1.106446000e+00 2.230520000e-01
6850000.0 -1.106065000e+00 2.276800000e-01
6940000.0 -1.104341000e+00 2.323960000e-01
7030000.0 -1.103815000e+00 2.360220000e-01
7120000.0 -1.103677000e+00 2.389680000e-01
7210000.0 -1.101965000e+00 2.414530000e-01
7300000.0 -1.101976000e+00 2.419980000e-01
7390000.0 -1.101332000e+00 2.428280000e-01
7480000.0 -1.103649000e+00 2.426140000e-01
7570000.0 1.956270000e-01 1.073490000e+00
7660000.0 1.942960000e-01 1.074979000e+00
7750000.0 1.940540000e-01 1.073940000e+00
7840000.0 1.935150000e-01 1.074751000e+00
7930000.0 1.913350000e-01 1.075527000e+00
8020000.0 1.899570000e-01 1.076474000e+00
8110000.0 1.915780000e-01 1.075496000e+00
8200000.0 1.907450000e-01 1.075657000e+00
8290000.0 1.890970000e-01 1.076704000e+00
8380000.0 1.884600000e-01 1.077854000e+00
8470000.0 1.881870000e-01 1.078220000e+00
8560000.0 1.866470000e-01 1.078735000e+00
8650000.0 1.870140000e-01 1.077113000e+00
8740000.0 1.859240000e-01 1.079267000e+00
8830000.0 1.839400000e-01 1.079465000e+00
8920000.0 1.843490000e-01 1.079638000e+00
9010000.0 1.828910000e-01 1.081633000e+00
9100000.0 1.826130000e-01 1.080838000e+00
9190000.0 1.824390000e-01 1.081036000e+00
9280000.0 1.820740000e-01 1.081979000e+00
9370000.0 1.815860000e-01 1.082037000e+00
9460000.0 1.789920000e-01 1.083242000e+00
9550000.0 1.791080000e-01 1.084700000e+00
9640000.0 1.784580000e-01 1.084782000e+00
9730000.0 1.780900000e-01 1.086140000e+00
9820000.0 1.772700000e-01 1.086262000e+00
9910000.0 1.776450000e-01 1.085703000e+00
10000000.0 1.771950000e-01 1.086839000e+00
10900000.0 1.698960000e-01 1.094146000e+00
11800000.0 1.641880000e-01 1.101070000e+00
12700000.0 1.567540000e-01 1.109662000e+00
13600000.0 1.524360000e-01 1.117838000e+00
14500000.0 1.449940000e-01 1.126383000e+00
15400000.0 1.366700000e-01 1.136163000e+00
16300000.0 1.317290000e-01 1.144427000e+00
17200000.0 1.229510000e-01 1.154820000e+00
18100000.0 1.161230000e-01 1.163673000e+00
19000000.0 1.092080000e-01 1.171394000e+00
19900000.0 1.004360000e-01 1.182511000e+00
20800000.0 9.309100000e-02 1.191592000e+00
21700000.0 8.406800000e-02 1.202158000e+00
22600000.0 7.550800000e-02 1.211067000e+00
23500000.0 6.635500000e-02 1.221522000e+00
24400000.0 5.625000000e-02 1.230883000e+00
25300000.0 4.762800000e-02 1.240658000e+00
26200000.0 3.652400000e-02 1.251516000e+00
27100000.0 2.506200000e-02 1.261134000e+00
28000000.0 1.424200000e-02 1.271145000e+00
28900000.0 1.594000000e-03 1.282501000e+00
29800000.0 -1.005500000e-02 1.292061000e+00
30700000.0 -2.243300000e-02 1.301629000e+00
31600000.0 -3.625200000e-02 1.311862000e+00
32500000.0 -4.743100000e-02 1.320749000e+00
33400000.0 -6.052300000e-02 1.331093000e+00
34300000.0 -7.594500000e-02 1.341567000e+00
35200000.0 -9.122500000e-02 1.352509000e+00
36100000.0 -1.065710000e-01 1.359823000e+00
37000000.0 -1.211430000e-01 1.368908000e+00
37900000.0 -1.376000000e-01 1.378329000e+00
38800000.0 -1.542190000e-01 1.388406000e+00
39700000.0 -1.710790000e-01 1.395860000e+00
40600000.0 -1.880170000e-01 1.404862000e+00
41500000.0 -2.071880000e-01 1.412635000e+00
42400000.0 -2.254410000e-01 1.420472000e+00
43300000.0 -2.443040000e-01 1.427747000e+00
44200000.0 -2.626700000e-01 1.435925000e+00
45100000.0 -2.824800000e-01 1.441232000e+00
46000000.0 -3.027630000e-01 1.447439000e+00
46900000.0 -3.233390000e-01 1.453245000e+00
47800000.0 -3.452430000e-01 1.459431000e+00
48700000.0 -3.640760000e-01 1.463731000e+00
49600000.0 -3.877030000e-01 1.468679000e+00
50500000.0 -4.087930000e-01 1.470448000e+00
51400000.0 -4.304300000e-01 1.475241000e+00
52300000.0 -4.538590000e-01 1.476616000e+00
53200000.0 -4.760950000e-01 1.478990000e+00
54100000.0 -5.002230000e-01 1.480580000e+00
55000000.0 -5.225350000e-01 1.481415000e+00
55900000.0 -5.481630000e-01 1.482208000e+00
56800000.0 -5.710350000e-01 1.480858000e+00
57700000.0 -5.951750000e-01 1.478982000e+00
58600000.0 -6.174300000e-01 1.476154000e+00
59500000.0 -6.435050000e-01 1.474331000e+00
60400000.0 -6.682530000e-01 1.470833000e+00
61300000.0 -6.919130000e-01 1.467513000e+00
62200000.0 -7.159860000e-01 1.462481000e+00
63100000.0 -7.394410000e-01 1.457362000e+00
64000000.0 -7.635010000e-01 1.450526000e+00
64900000.0 -7.896150000e-01 1.443037000e+00
65800000.0 -8.130800000e-01 1.436592000e+00
66700000.0 -8.360150000e-01 1.426948000e+00
67600000.0 -8.610960000e-01 1.418428000e+00
68500000.0 -8.831830000e-01 1.408715000e+00
69400000.0 -9.076050000e-01 1.397518000e+00
70300000.0 -9.305970000e-01 1.386715000e+00
71200000.0 -9.518710000e-01 1.373630000e+00
72100000.0 -9.753280000e-01 1.362861000e+00
73000000.0 -9.982060000e-01 1.349565000e+00
73900000.0 -1.018440000e+00 1.335088000e+00
74800000.0 -1.040575000e+00 1.319453000e+00
75700000.0 -1.060734000e+00 1.304640000e+00
76600000.0 -1.081101000e+00 1.289019000e+00
77500000.0 -1.099440000e+00 1.272604000e+00
78400000.0 -1.120648000e+00 1.253960000e+00
79300000.0 -1.138805000e+00 1.236427000e+00
80200000.0 -1.158579000e+00 1.218517000e+00
81100000.0 -1.175769000e+00 1.201213000e+00
82000000.0 -1.193167000e+00 1.181305000e+00
82900000.0 -1.209697000e+00 1.162267000e+00
83800000.0 -1.225372000e+00 1.141912000e+00
84700000.0 -1.240072000e+00 1.120818000e+00
85600000.0 -1.256044000e+00 1.100285000e+00
86500000.0 -1.269381000e+00 1.078714000e+00
87400000.0 -1.282113000e+00 1.058052000e+00
88300000.0 -1.295018000e+00 1.036778000e+00
89200000.0 -1.306262000e+00 1.013026000e+00
90100000.0 -1.318164000e+00 9.913940000e-01
91000000.0 -1.328498000e+00 9.677730000e-01
91900000.0 -1.337289000e+00 9.456200000e-01
92800000.0 -1.346142000e+00 9.231210000e-01
93700000.0 -1.355158000e+00 9.005490000e-01
94600000.0 -1.360427000e+00 8.775150000e-01
95500000.0 -1.367494000e+00 8.514110000e-01
96400000.0 -1.374686000e+00 8.297040000e-01
97300000.0 -1.378864000e+00 8.069620000e-01
98200000.0 -1.385255000e+00 7.843210000e-01
99100000.0 -1.386047000e+00 7.606880000e-01
100000000.0 -1.390319000e+00 7.384360000e-01
109000000.0 -1.385928000e+00 5.204220000e-01
118000000.0 -1.329269000e+00 3.388970000e-01
127000000.0 -1.249889000e+00 1.996850000e-01
136000000.0 -1.133903000e+00 1.005010000e-01
145000000.0 -1.047029000e+00 2.915400000e-02
154000000.0 -1.000574000e+00 -7.190000000e-04
163000000.0 -1.003317000e+00 -2.480000000e-03
172000000.0 -1.004313000e+00 -6.733000000e-03
181000000.0 -1.007108000e+00 -8.385000000e-03
190000000.0 -1.007854000e+00 -9.533000000e-03
199000000.0 -1.008462000e+00 -1.029400000e-02
208000000.0 -1.008995000e+00 -1.129500000e-02
217000000.0 -1.010980000e+00 -1.242500000e-02
226000000.0 -1.010878000e+00 -1.137700000e-02
235000000.0 -1.010657000e+00 -1.045400000e-02
244000000.0 -1.010527000e+00 -1.098200000e-02
253000000.0 -1.008864000e+00 -9.332000000e-03
262000000.0 -1.008459000e+00 -8.336000000e-03
271000000.0 -1.006149000e+00 -7.679000000e-03
280000000.0 -1.004071000e+00 -3.789000000e-03
289000000.0 -1.002651000e+00 -4.394000000e-03
298000000.0 -1.000870000e+00 -8.200000000e-04
307000000.0 -1.002756000e+00 2.070000000e-04
316000000.0 -1.003338000e+00 -4.500000000e-04
325000000.0 -1.007546000e+00 -2.637000000e-03
334000000.0 -1.010233000e+00 -1.781000000e-03
343000000.0 -1.010512000e+00 -2.932000000e-03
352000000.0 -1.013171000e+00 -4.381000000e-03
361000000.0 -1.014310000e+00 -2.248000000e-03
370000000.0 -1.014293000e+00 -3.235000000e-03
379000000.0 -1.014896000e+00 -4.396000000e-03
388000000.0 -1.014227000e+00 -5.190000000e-03
397000000.0 -1.021652000e+00 -3.857700000e-02
406000000.0 -1.011998000e+00 -4.161000000e-03
415000000.0 -1.018630000e+00 -3.734600000e-02
424000000.0 -1.009091000e+00 -4.228000000e-03
433000000.0 -1.005484000e+00 -1.611000000e-03
442000000.0 -1.002536000e+00 1.659700000e-02
451000000.0 -9.988750000e-01 1.450000000e-04
460000000.0 -1.007012000e+00 -1.650300000e-02
469000000.0 -1.005430000e+00 1.712400000e-02
478000000.0 -1.010650000e+00 1.743000000e-03
487000000.0 -1.012027000e+00 5.380000000e-04
496000000.0 -1.016156000e+00 -1.525900000e-02
505000000.0 -1.015821000e+00 3.007000000e-03
514000000.0 -1.015004000e+00 2.085400000e-02
523000000.0 -1.017669000e+00 3.380000000e-03
532000000.0 -1.020290000e+00 -1.506900000e-02
541000000.0 -1.017701000e+00 3.639000000e-03
550000000.0 -1.014789000e+00 4.556000000e-03
559000000.0 -1.013435000e+00 3.788000000e-03
568000000.0 -1.009588000e+00 3.738000000e-03
577000000.0 -1.009169000e+00 3.184000000e-03
586000000.0 -1.005693000e+00 3.121000000e-03
595000000.0 -1.003327000e+00 1.374000000e-03
604000000.0 -9.994220000e-01 2.394000000e-03
613000000.0 -1.006347000e+00 2.610000000e-03
622000000.0 -1.006554000e+00 6.753000000e-03
631000000.0 -1.005475000e+00 8.287000000e-03
640000000.0 -1.008579000e+00 8.396000000e-03
649000000.0 -1.012859000e+00 9.122000000e-03
658000000.0 -1.008424000e+00 1.051600000e-02
667000000.0 -1.008599000e+00 1.136600000e-02
676000000.0 -1.012431000e+00 1.358300000e-02
685000000.0 -1.009668000e+00 1.406900000e-02
694000000.0 -1.009157000e+00 8.418000000e-03
703000000.0 -1.011586000e+00 1.521500000e-02
712000000.0 -1.011610000e+00 7.429000000e-03
721000000.0 -1.005835000e+00 4.423000000e-03
730000000.0 -1.004024000e+00 5.284000000e-03
739000000.0 -1.003913000e+00 6.536000000e-03
748000000.0 -9.999250000e-01 -2.410000000e-04
757000000.0 -1.000327000e+00 2.203000000e-03
766000000.0 -9.999820000e-01 6.227000000e-03
775000000.0 -9.981870000e-01 8.443000000e-03
784000000.0 -1.000985000e+00 2.544000000e-03
793000000.0 -9.996230000e-01 1.094000000e-02
802000000.0 -9.976210000e-01 7.007000000e-03
811000000.0 -1.000006000e+00 9.647000000e-03
820000000.0 -9.963630000e-01 1.011000000e-02
829000000.0 -1.000994000e+00 5.318000000e-03
838000000.0 -9.980230000e-01 5.087000000e-03
847000000.0 -9.952950000e-01 5.717000000e-03
856000000.0 -9.965400000e-01 4.907000000e-03
865000000.0 -9.981470000e-01 3.525000000e-03
874000000.0 -9.959350000e-01 7.746000000e-03
883000000.0 -9.976800000e-01 -9.470000000e-04
892000000.0 -9.966280000e-01 -4.126000000e-03
901000000.0 -9.976030000e-01 -2.539000000e-03
910000000.0 -9.980760000e-01 2.910000000e-03
919000000.0 -1.000959000e+00 -1.056700000e-02
928000000.0 -9.989380000e-01 -2.846000000e-03
937000000.0 -1.002162000e+00 -4.735000000e-03
946000000.0 -1.001342000e+00 -4.777000000e-03
955000000.0 -9.999090000e-01 -7.722000000e-03
964000000.0 -1.002417000e+00 -6.728000000e-03
973000000.0 -1.001595000e+00 -2.209000000e-03
982000000.0 -1.000945000e+00 -1.083800000e-02
991000000.0 -1.001409000e+00 -3.341000000e-03
1000000000.0 -1.003709000e+00 -9.684000000e-03
1004500000.0 -1.003365000e+00 -8.770000000e-03
1009000000.0 -1.003975000e+00 -1.041200000e-02
1013500000.0 -1.001137000e+00 -8.596000000e-03
1018000000.0 -1.001743000e+00 -3.122000000e-03
1022500000.0 -9.991180000e-01 -8.670000000e-03
1027000000.0 -1.002776000e+00 -4.844000000e-03
1031500000.0 -1.001374000e+00 -7.366000000e-03
1036000000.0 -1.002040000e+00 -4.801000000e-03
1040500000.0 -1.000637000e+00 -5.165000000e-03
1045000000.0 -1.001435000e+00 -1.023400000e-02
1049500000.0 -1.001483000e+00 -7.857000000e-03
1054000000.0 -1.003145000e+00 -8.184000000e-03
1058500000.0 -9.999640000e-01 -6.005000000e-03
1063000000.0 -1.005628000e+00 -4.849000000e-03
1067500000.0 -9.998170000e-01 -8.115000000e-03
1072000000.0 -1.005722000e+00 -4.104000000e-03
1076500000.0 -1.005981000e+00 -7.297000000e-03
1081000000.0 -1.004179000e+00 -5.641000000e-03
1085500000.0 -1.005533000e+00 -1.183500000e-02
1090000000.0 -1.007024000e+00 -1.078200000e-02
1094500000.0 -1.007574000e+00 -4.743000000e-03
1099000000.0 -1.009784000e+00 -9.504000000e-03
1103500000.0 -1.006452000e+00 -9.809000000e-03
1108000000.0 -1.006807000e+00 -1.058600000e-02
1112500000.0 -1.004820000e+00 -1.073700000e-02
1117000000.0 -1.007410000e+00 -2.632000000e-03
1121500000.0 -1.008770000e+00 -1.019200000e-02
1126000000.0 -1.006479000e+00 -1.078400000e-02
1130500000.0 -1.009026000e+00 -6.498000000e-03
1135000000.0 -1.015187000e+00 -4.395200000e-02
1139500000.0 -1.009153000e+00 -3.066000000e-02
1144000000.0 -1.004929000e+00 5.129000000e-03
1148500000.0 -1.002542000e+00 -5.711000000e-03
1153000000.0 -1.005290000e+00 -1.380100000e-02
1157500000.0 -1.008765000e+00 -9.568000000e-03
1162000000.0 -1.002517000e+00 -9.828000000e-03
1166500000.0 -1.004070000e+00 -5.428000000e-03
1171000000.0 -9.996640000e-01 -7.278000000e-03
1175500000.0 -1.001950000e+00 -6.663000000e-03
1180000000.0 -1.001513000e+00 -7.848000000e-03
1184500000.0 -1.001340000e+00 -1.266100000e-02
1189000000.0 -9.983550000e-01 -6.602000000e-03
1193500000.0 -1.001022000e+00 -1.406000000e-03
1198000000.0 -9.984590000e-01 -4.648000000e-03
1202500000.0 -1.000833000e+00 3.867000000e-03
1207000000.0 -9.966120000e-01 -4.087000000e-03
1211500000.0 -9.976310000e-01 -3.060000000e-03
1216000000.0 -9.989430000e-01 -4.396000000e-03
1220500000.0 -1.001931000e+00 -9.185000000e-03
1225000000.0 -9.975190000e-01 -3.178000000e-03
1229500000.0 -1.008329000e+00 -5.080000000e-03
1234000000.0 -1.001808000e+00 -4.714000000e-03
1238500000.0 -1.000731000e+00 -6.639000000e-03
1243000000.0 -1.001645000e+00 -8.885000000e-03
1247500000.0 -1.007937000e+00 -8.799000000e-03
1252000000.0 -1.005064000e+00 -1.033500000e-02
1256500000.0 -1.005711000e+00 -6.925000000e-03
1261000000.0 -1.006397000e+00 -1.364200000e-02
1265500000.0 -1.002992000e+00 -9.720000000e-03
1270000000.0 -1.006425000e+00 -7.819000000e-03
1274500000.0 -1.010052000e+00 -6.744000000e-03
1279000000.0 -1.006405000e+00 -2.715000000e-03
1283500000.0 -1.004009000e+00 -6.397000000e-03
1288000000.0 -1.002256000e+00 -2.372000000e-03
1292500000.0 -1.002303000e+00 -7.981000000e-03
1297000000.0 -9.997840000e-01 4.016000000e-03
1301500000.0 -9.997530000e-01 -6.494000000e-03
1306000000.0 -9.973980000e-01 -5.313000000e-03
1310500000.0 -9.991410000e-01 -3.270000000e-03
1315000000.0 -1.001530000e+00 -1.203700000e-02
1319500000.0 -9.980370000e-01 -9.137000000e-03
1324000000.0 -9.971630000e-01 -7.205000000e-03
1328500000.0 -9.977880000e-01 1.275000000e-03
1333000000.0 -9.985610000e-01 -3.018000000e-03
1337500000.0 -9.930370000e-01 -1.760000000e-04
1342000000.0 -9.951400000e-01 -2.037000000e-03
1346500000.0 -1.000942000e+00 -1.372000000e-03
1351000000.0 -9.887270000e-01 -3.163000000e-03
1355500000.0 -9.916670000e-01 -3.653000000e-03
1360000000.0 -9.972690000e-01 -3.504000000e-03
1364500000.0 -9.949550000e-01 -8.062000000e-03
1369000000.0 -1.004339000e+00 -5.866000000e-03
1373500000.0 -1.008813000e+00 -2.909000000e-03
1378000000.0 -1.003906000e+00 5.846000000e-03
1382500000.0 -1.008787000e+00 -2.047000000e-03
1387000000.0 -9.961840000e-01 3.009000000e-03
1391500000.0 -1.006129000e+00 -3.063000000e-03
1396000000.0 -1.006950000e+00 7.280000000e-03
1400500000.0 -1.005395000e+00 -5.820000000e-04
1405000000.0 -1.013013000e+00 -2.123000000e-03
1409500000.0 -1.006290000e+00 -1.286800000e-02
1414000000.0 -1.009609000e+00 4.190000000e-04
1418500000.0 -1.006852000e+00 2.262000000e-03
1423000000.0 -1.011386000e+00 1.897000000e-03
1427500000.0 -1.004733000e+00 3.250000000e-03
1432000000.0 -1.011471000e+00 -6.061000000e-03
1436500000.0 -1.012435000e+00 -1.063400000e-02
1441000000.0 -1.008837000e+00 -3.654000000e-03
1445500000.0 -1.010906000e+00 -2.344000000e-03
1450000000.0 -1.013027000e+00 -7.485000000e-03
