! piloto_deriva / corto_deriva / r59
# HZ S RI R 50
50000.0 -9.986680000e-01 -3.624000000e-02
59500.0 -9.999810000e-01 -1.688700000e-02
69000.0 -9.986450000e-01 -5.862000000e-03
78500.0 -9.995300000e-01 -1.611000000e-03
88000.0 -9.983150000e-01 6.010000000e-04
97500.0 -9.996180000e-01 2.780000000e-04
107000.0 -9.997800000e-01 -2.969000000e-03
116500.0 -9.996510000e-01 -6.638000000e-03
126000.0 -9.987700000e-01 -1.088400000e-02
135500.0 -9.994130000e-01 -1.614400000e-02
145000.0 -9.999100000e-01 -2.310400000e-02
154500.0 -1.000029000e+00 -3.015400000e-02
164000.0 -9.999880000e-01 -3.653700000e-02
173500.0 -1.000364000e+00 -4.350100000e-02
183000.0 -9.998560000e-01 -5.234600000e-02
192500.0 -9.992840000e-01 -6.085800000e-02
202000.0 -9.999290000e-01 -6.840300000e-02
211500.0 -1.000718000e+00 -7.719900000e-02
221000.0 -1.001222000e+00 -8.635500000e-02
230500.0 -1.000568000e+00 -9.483000000e-02
240000.0 -1.000611000e+00 -1.036720000e-01
249500.0 -1.000750000e+00 -1.136950000e-01
259000.0 -1.001392000e+00 -1.226930000e-01
268500.0 -1.001354000e+00 -1.322510000e-01
278000.0 -1.002202000e+00 -1.415150000e-01
287500.0 -1.001334000e+00 -1.497880000e-01
297000.0 -1.001248000e+00 -1.594210000e-01
306500.0 -1.002481000e+00 -1.690970000e-01
316000.0 -1.002045000e+00 -1.784510000e-01
325500.0 -1.002578000e+00 -1.883030000e-01
335000.0 -1.003392000e+00 -1.966220000e-01
344500.0 -1.003109000e+00 -2.059200000e-01
354000.0 -1.003652000e+00 -2.159290000e-01
363500.0 -1.003882000e+00 -2.242650000e-01
373000.0 -1.003332000e+00 -2.337190000e-01
382500.0 -1.004827000e+00 -2.435010000e-01
392000.0 -1.004418000e+00 -2.528460000e-01
401500.0 -1.004218000e+00 -2.623750000e-01
411000.0 -1.004676000e+00 -2.713910000e-01
420500.0 -1.004300000e+00 -2.817100000e-01
430000.0 -1.005355000e+00 -2.900480000e-01
439500.0 -1.005214000e+00 -3.007760000e-01
449000.0 -1.005668000e+00 -3.088740000e-01
458500.0 -1.005771000e+00 -3.180800000e-01
468000.0 -1.006673000e+00 -3.280200000e-01
477500.0 -1.006950000e+00 -3.370060000e-01
487000.0 -1.006296000e+00 -3.474930000e-01
496500.0 -1.007155000e+00 -3.553540000e-01
506000.0 -1.007000000e+00 -3.649990000e-01
515500.0 -1.007025000e+00 -3.737590000e-01
525000.0 -1.007589000e+00 -3.833040000e-01
534500.0 -1.008506000e+00 -3.933560000e-01
544000.0 -1.008445000e+00 -4.021080000e-01
553500.0 -1.008732000e+00 -4.106220000e-01
563000.0 -1.009772000e+00 -4.206470000e-01
572500.0 -1.010275000e+00 -4.293970000e-01
582000.0 -1.009741000e+00 -4.378540000e-01
591500.0 -1.010422000e+00 -4.482500000e-01
601000.0 -1.011397000e+00 -4.572090000e-01
610500.0 -1.011324000e+00 -4.655430000e-01
620000.0 -1.011806000e+00 -4.745770000e-01
629500.0 -1.012404000e+00 -4.853710000e-01
639000.0 -1.013816000e+00 -4.939530000e-01
648500.0 -1.013847000e+00 -5.028880000e-01
658000.0 -1.015205000e+00 -5.115450000e-01
667500.0 -1.014998000e+00 -5.214910000e-01
677000.0 -1.016296000e+00 -5.298620000e-01
686500.0 -1.016955000e+00 -5.384210000e-01
696000.0 -1.017503000e+00 -5.475010000e-01
705500.0 -1.017536000e+00 -5.557880000e-01
715000.0 -1.018642000e+00 -5.666390000e-01
724500.0 -1.019754000e+00 -5.758280000e-01
734000.0 -1.021540000e+00 -5.838600000e-01
743500.0 -1.022043000e+00 -5.921090000e-01
753000.0 -1.022395000e+00 -6.025400000e-01
762500.0 -1.024746000e+00 -6.111000000e-01
772000.0 -1.025475000e+00 -6.205760000e-01
781500.0 -1.025778000e+00 -6.298530000e-01
791000.0 -1.027819000e+00 -6.373490000e-01
800500.0 -1.028406000e+00 -6.463510000e-01
810000.0 -1.029910000e+00 -6.556580000e-01
819500.0 -1.032093000e+00 -6.637540000e-01
829000.0 -1.032882000e+00 -6.730120000e-01
838500.0 -1.034877000e+00 -6.818900000e-01
848000.0 -1.034107000e+00 -6.908570000e-01
857500.0 -1.036203000e+00 -6.994830000e-01
867000.0 -1.038123000e+00 -7.067710000e-01
876500.0 -1.040310000e+00 -7.155610000e-01
886000.0 -1.042057000e+00 -7.249320000e-01
895500.0 -1.044947000e+00 -7.330910000e-01
905000.0 -1.045081000e+00 -7.419890000e-01
914500.0 -1.049204000e+00 -7.512740000e-01
924000.0 -1.047972000e+00 -7.587610000e-01
933500.0 -1.050845000e+00 -7.681620000e-01
943000.0 -1.054923000e+00 -7.768960000e-01
952500.0 -1.056291000e+00 -7.856290000e-01
962000.0 -1.058737000e+00 -7.926040000e-01
971500.0 -1.062771000e+00 -8.021740000e-01
981000.0 -1.064418000e+00 -8.100200000e-01
990500.0 -1.066983000e+00 -8.188360000e-01
1000000.0 -1.071221000e+00 -8.277100000e-01
1090000.0 -1.099733000e+00 -9.038810000e-01
1180000.0 -1.137341000e+00 -9.788750000e-01
1270000.0 -1.184874000e+00 -1.046212000e+00
1360000.0 -1.241915000e+00 -1.107748000e+00
1450000.0 -1.311391000e+00 -1.156949000e+00
1540000.0 -1.388965000e+00 -1.193945000e+00
1630000.0 -1.475890000e+00 -1.211524000e+00
1720000.0 -1.566848000e+00 -1.209753000e+00
1810000.0 -1.657371000e+00 -1.187933000e+00
1900000.0 -1.739852000e+00 -1.141236000e+00
1990000.0 -1.810484000e+00 -1.079717000e+00
2080000.0 -1.866309000e+00 -9.982640000e-01
2170000.0 -1.903291000e+00 -9.088780000e-01
2260000.0 -1.917307000e+00 -8.183690000e-01
2350000.0 -1.917704000e+00 -7.255180000e-01
2440000.0 -1.899812000e+00 -6.405460000e-01
2530000.0 -1.870852000e+00 -5.621990000e-01
2620000.0 -1.837086000e+00 -4.947870000e-01
2710000.0 -1.796435000e+00 -4.336810000e-01
2800000.0 -1.755457000e+00 -3.813920000e-01
2890000.0 -1.714392000e+00 -3.407000000e-01
2980000.0 -1.673197000e+00 -2.999290000e-01
3070000.0 -1.631446000e+00 -2.682810000e-01
3160000.0 -1.591857000e+00 -2.395450000e-01
3250000.0 -1.554395000e+00 -2.150520000e-01
3340000.0 -1.520244000e+00 -1.913380000e-01
3430000.0 -1.486017000e+00 -1.732060000e-01
3520000.0 -1.455790000e+00 -1.533860000e-01
3610000.0 -1.427995000e+00 -1.377310000e-01
3700000.0 -1.401481000e+00 -1.219030000e-01
3790000.0 -1.375924000e+00 -1.071810000e-01
3880000.0 -1.353046000e+00 -9.350700000e-02
3970000.0 -1.332429000e+00 -7.982100000e-02
4060000.0 -1.313213000e+00 -6.587700000e-02
4150000.0 -1.294408000e+00 -5.438700000e-02
4240000.0 -1.277024000e+00 -4.245300000e-02
4330000.0 -1.263775000e+00 -3.106300000e-02
4420000.0 -1.247017000e+00 -1.878800000e-02
4510000.0 -1.236141000e+00 -7.912000000e-03
4600000.0 -1.223719000e+00 4.057000000e-03
4690000.0 -1.213154000e+00 1.422300000e-02
4780000.0 -1.203205000e+00 2.696300000e-02
4870000.0 -1.193992000e+00 3.684200000e-02
4960000.0 -1.187666000e+00 4.784600000e-02
5050000.0 -1.172403000e+00 5.718200000e-02
5140000.0 -1.166058000e+00 6.939300000e-02
5230000.0 -1.162003000e+00 8.060300000e-02
5320000.0 -1.155828000e+00 9.023200000e-02
5410000.0 -1.151389000e+00 1.002800000e-01
5500000.0 -1.147201000e+00 1.104800000e-01
5590000.0 -1.143110000e+00 1.204900000e-01
5680000.0 -1.139999000e+00 1.312720000e-01
5770000.0 -1.135384000e+00 1.400470000e-01
5860000.0 -1.130508000e+00 1.499430000e-01
5950000.0 -1.129012000e+00 1.596990000e-01
6040000.0 -1.126061000e+00 1.675470000e-01
6130000.0 -1.122996000e+00 1.766010000e-01
6220000.0 -1.119532000e+00 1.843600000e-01
6310000.0 -1.117326000e+00 1.926810000e-01
6400000.0 -1.114076000e+00 1.997400000e-01
6490000.0 -1.118013000e+00 1.868930000e-01
6580000.0 -1.110313000e+00 2.108410000e-01
6670000.0 -1.114556000e+00 1.988620000e-01
6760000.0 -1.101238000e+00 2.426390000e-01
6850000.0 -1.111502000e+00 2.096660000e-01
6940000.0 -1.097713000e+00 2.518210000e-01
7030000.0 -1.109038000e+00 2.158830000e-01
7120000.0 -1.103379000e+00 2.380170000e-01
7210000.0 -1.107719000e+00 2.203400000e-01
7300000.0 -1.105587000e+00 2.384220000e-01
7390000.0 -1.102327000e+00 2.420650000e-01
7480000.0 -1.102490000e+00 2.409310000e-01
7570000.0 1.958220000e-01 1.073020000e+00
7660000.0 1.951780000e-01 1.073659000e+00
7750000.0 1.946100000e-01 1.074028000e+00
7840000.0 1.930650000e-01 1.075043000e+00
7930000.0 1.919320000e-01 1.075186000e+00
8020000.0 1.914290000e-01 1.075238000e+00
8110000.0 1.903650000e-01 1.075628000e+00
8200000.0 1.897910000e-01 1.075961000e+00
8290000.0 1.901420000e-01 1.076847000e+00
8380000.0 1.888790000e-01 1.076659000e+00
8470000.0 1.890010000e-01 1.077882000e+00
8560000.0 1.880270000e-01 1.078014000e+00
8650000.0 1.869350000e-01 1.078712000e+00
8740000.0 1.854680000e-01 1.078934000e+00
8830000.0 1.856960000e-01 1.079315000e+00
8920000.0 1.842950000e-01 1.079218000e+00
9010000.0 1.830490000e-01 1.080437000e+00
9100000.0 1.820970000e-01 1.080700000e+00
9190000.0 1.820910000e-01 1.082627000e+00
9280000.0 1.812090000e-01 1.081326000e+00
9370000.0 1.802000000e-01 1.083083000e+00
9460000.0 1.799980000e-01 1.083509000e+00
9550000.0 1.800570000e-01 1.084201000e+00
9640000.0 1.795220000e-01 1.084424000e+00
9730000.0 1.780420000e-01 1.085728000e+00
9820000.0 1.771260000e-01 1.086053000e+00
9910000.0 1.763080000e-01 1.087206000e+00
10000000.0 1.767700000e-01 1.086475000e+00
10900000.0 1.694290000e-01 1.094336000e+00
11800000.0 1.636810000e-01 1.102160000e+00
12700000.0 1.578290000e-01 1.109563000e+00
13600000.0 1.524060000e-01 1.118089000e+00
14500000.0 1.444220000e-01 1.127359000e+00
15400000.0 1.386980000e-01 1.135687000e+00
16300000.0 1.315650000e-01 1.144147000e+00
17200000.0 1.240310000e-01 1.154085000e+00
18100000.0 1.173180000e-01 1.163616000e+00
19000000.0 1.097620000e-01 1.172620000e+00
19900000.0 1.006140000e-01 1.183398000e+00
20800000.0 9.338300000e-02 1.192156000e+00
21700000.0 8.531200000e-02 1.200782000e+00
22600000.0 7.605800000e-02 1.212117000e+00
23500000.0 6.665000000e-02 1.221538000e+00
24400000.0 5.804700000e-02 1.232061000e+00
25300000.0 4.653200000e-02 1.240944000e+00
26200000.0 3.671000000e-02 1.251585000e+00
27100000.0 2.521500000e-02 1.261712000e+00
28000000.0 1.324800000e-02 1.272031000e+00
28900000.0 3.386000000e-03 1.280637000e+00
29800000.0 -1.010000000e-02 1.291139000e+00
30700000.0 -2.218500000e-02 1.303278000e+00
31600000.0 -3.465400000e-02 1.312750000e+00
32500000.0 -4.693100000e-02 1.321805000e+00
33400000.0 -6.162600000e-02 1.331732000e+00
34300000.0 -7.674600000e-02 1.340550000e+00
35200000.0 -9.119500000e-02 1.351313000e+00
36100000.0 -1.058650000e-01 1.359544000e+00
37000000.0 -1.208660000e-01 1.369195000e+00
37900000.0 -1.379240000e-01 1.378692000e+00
38800000.0 -1.537350000e-01 1.387487000e+00
39700000.0 -1.708840000e-01 1.395934000e+00
40600000.0 -1.891840000e-01 1.404959000e+00
41500000.0 -2.065060000e-01 1.413002000e+00
42400000.0 -2.253170000e-01 1.420408000e+00
43300000.0 -2.437130000e-01 1.428274000e+00
44200000.0 -2.615160000e-01 1.434526000e+00
45100000.0 -2.828470000e-01 1.441053000e+00
46000000.0 -3.026910000e-01 1.447313000e+00
46900000.0 -3.229170000e-01 1.454105000e+00
47800000.0 -3.446190000e-01 1.458647000e+00
48700000.0 -3.651810000e-01 1.464154000e+00
49600000.0 -3.869560000e-01 1.468584000e+00
50500000.0 -4.106590000e-01 1.472045000e+00
51400000.0 -4.313600000e-01 1.473730000e+00
52300000.0 -4.537320000e-01 1.477661000e+00
53200000.0 -4.771260000e-01 1.479789000e+00
54100000.0 -5.005090000e-01 1.480990000e+00
55000000.0 -5.235680000e-01 1.481406000e+00
55900000.0 -5.463750000e-01 1.481710000e+00
56800000.0 -5.716580000e-01 1.480325000e+00
57700000.0 -5.946250000e-01 1.478439000e+00
58600000.0 -6.186260000e-01 1.476584000e+00
59500000.0 -6.440580000e-01 1.474467000e+00
60400000.0 -6.669140000e-01 1.472585000e+00
61300000.0 -6.919900000e-01 1.467253000e+00
62200000.0 -7.149880000e-01 1.462402000e+00
63100000.0 -7.405610000e-01 1.457621000e+00
64000000.0 -7.646530000e-01 1.450648000e+00
64900000.0 -7.895230000e-01 1.442761000e+00
65800000.0 -8.128230000e-01 1.435286000e+00
66700000.0 -8.369660000e-01 1.427148000e+00
67600000.0 -8.601880000e-01 1.418211000e+00
68500000.0 -8.842800000e-01 1.407747000e+00
69400000.0 -9.080010000e-01 1.396922000e+00
70300000.0 -9.296600000e-01 1.387251000e+00
71200000.0 -9.527360000e-01 1.374354000e+00
72100000.0 -9.744140000e-01 1.361941000e+00
73000000.0 -9.966450000e-01 1.349352000e+00
73900000.0 -1.019044000e+00 1.333708000e+00
74800000.0 -1.041902000e+00 1.320650000e+00
75700000.0 -1.061155000e+00 1.304244000e+00
76600000.0 -1.081708000e+00 1.288241000e+00
77500000.0 -1.100413000e+00 1.272632000e+00
78400000.0 -1.122058000e+00 1.255255000e+00
79300000.0 -1.139591000e+00 1.238057000e+00
80200000.0 -1.158198000e+00 1.220099000e+00
81100000.0 -1.174942000e+00 1.200692000e+00
82000000.0 -1.192789000e+00 1.182445000e+00
82900000.0 -1.210050000e+00 1.162120000e+00
83800000.0 -1.225468000e+00 1.142301000e+00
84700000.0 -1.240468000e+00 1.121806000e+00
85600000.0 -1.255290000e+00 1.099430000e+00
86500000.0 -1.269146000e+00 1.078557000e+00
87400000.0 -1.283545000e+00 1.056525000e+00
88300000.0 -1.296119000e+00 1.034560000e+00
89200000.0 -1.305298000e+00 1.014197000e+00
90100000.0 -1.317527000e+00 9.910460000e-01
91000000.0 -1.328646000e+00 9.669330000e-01
91900000.0 -1.339433000e+00 9.464210000e-01
92800000.0 -1.346610000e+00 9.220320000e-01
93700000.0 -1.355346000e+00 8.997280000e-01
94600000.0 -1.361265000e+00 8.765540000e-01
95500000.0 -1.368569000e+00 8.533990000e-01
96400000.0 -1.376434000e+00 8.314390000e-01
97300000.0 -1.380385000e+00 8.059650000e-01
98200000.0 -1.384407000e+00 7.840640000e-01
99100000.0 -1.387893000e+00 7.607830000e-01
100000000.0 -1.390996000e+00 7.380200000e-01
109000000.0 -1.384312000e+00 5.219650000e-01
118000000.0 -1.331632000e+00 3.369940000e-01
127000000.0 -1.248178000e+00 1.993870000e-01
136000000.0 -1.134218000e+00 1.005880000e-01
145000000.0 -1.045590000e+00 2.813600000e-02
154000000.0 -1.000579000e+00 -1.464000000e-03
163000000.0 -1.002389000e+00 -3.126000000e-03
172000000.0 -1.004116000e+00 -5.766000000e-03
181000000.0 -1.006104000e+00 -7.343000000e-03
190000000.0 -1.007612000e+00 -8.903000000e-03
199000000.0 -1.008116000e+00 -1.142100000e-02
208000000.0 -1.009665000e+00 -1.210800000e-02
217000000.0 -1.010663000e+00 -1.127000000e-02
226000000.0 -1.009859000e+00 -1.214100000e-02
235000000.0 -1.010045000e+00 -1.034900000e-02
244000000.0 -1.009687000e+00 -1.130400000e-02
253000000.0 -1.008661000e+00 -9.694000000e-03
262000000.0 -1.007975000e+00 -8.870000000e-03
271000000.0 -1.006626000e+00 -6.648000000e-03
280000000.0 -1.004693000e+00 -5.110000000e-03
289000000.0 -1.002747000e+00 -2.592000000e-03
298000000.0 -9.997170000e-01 4.240000000e-04
307000000.0 -1.002171000e+00 -1.325000000e-03
316000000.0 -1.006135000e+00 -1.546000000e-03
325000000.0 -1.007060000e+00 -4.390000000e-04
334000000.0 -1.012462000e+00 -2.096500000e-02
343000000.0 -1.011994000e+00 -2.633000000e-03
352000000.0 -1.013099000e+00 -4.532000000e-03
361000000.0 -1.011885000e+00 1.432100000e-02
370000000.0 -1.016954000e+00 -2.068600000e-02
379000000.0 -1.011803000e+00 1.285000000e-02
388000000.0 -1.015556000e+00 -2.244800000e-02
397000000.0 -1.010680000e+00 1.531700000e-02
406000000.0 -1.029857000e+00 -7.087100000e-02
415000000.0 -1.007300000e+00 1.310600000e-02
424000000.0 -1.010186000e+00 -2.158000000e-03
433000000.0 -1.005483000e+00 -2.884000000e-03
442000000.0 -1.003416000e+00 -1.200000000e-04
451000000.0 -1.000101000e+00 1.515000000e-03
460000000.0 -1.004091000e+00 -9.010000000e-04
469000000.0 -1.006765000e+00 9.670000000e-04
478000000.0 -1.009704000e+00 2.812000000e-03
487000000.0 -1.013036000e+00 3.137000000e-03
496000000.0 -1.015699000e+00 1.039000000e-03
505000000.0 -1.016394000e+00 1.612000000e-03
514000000.0 -1.016505000e+00 1.234000000e-03
523000000.0 -1.017130000e+00 4.055000000e-03
532000000.0 -1.015928000e+00 3.682000000e-03
541000000.0 -1.014552000e+00 2.946000000e-03
550000000.0 -1.016317000e+00 2.119000000e-03
559000000.0 -1.012205000e+00 5.512000000e-03
568000000.0 -1.009820000e+00 3.093000000e-03
577000000.0 -1.009771000e+00 2.387000000e-03
586000000.0 -1.005044000e+00 3.411000000e-03
595000000.0 -1.000953000e+00 8.180000000e-04
604000000.0 -1.002305000e+00 9.450000000e-04
613000000.0 -1.001856000e+00 4.626000000e-03
622000000.0 -1.007036000e+00 6.005000000e-03
631000000.0 -1.007429000e+00 4.044000000e-03
640000000.0 -1.007428000e+00 1.233300000e-02
649000000.0 -1.011919000e+00 6.945000000e-03
658000000.0 -1.011280000e+00 9.034000000e-03
667000000.0 -1.011718000e+00 1.253300000e-02
676000000.0 -1.008848000e+00 9.635000000e-03
685000000.0 -1.010061000e+00 1.378000000e-02
694000000.0 -1.010364000e+00 1.321300000e-02
703000000.0 -1.006822000e+00 9.297000000e-03
712000000.0 -1.008573000e+00 1.599700000e-02
721000000.0 -1.009206000e+00 9.223000000e-03
730000000.0 -1.004621000e+00 8.602000000e-03
739000000.0 -1.002558000e+00 3.288000000e-03
748000000.0 -1.001339000e+00 8.430000000e-04
757000000.0 -1.001522000e+00 3.214000000e-03
766000000.0 -9.996390000e-01 3.711000000e-03
775000000.0 -9.977090000e-01 6.521000000e-03
784000000.0 -9.981120000e-01 8.853000000e-03
793000000.0 -9.992840000e-01 7.889000000e-03
802000000.0 -9.994980000e-01 1.020500000e-02
811000000.0 -9.991130000e-01 1.046800000e-02
820000000.0 -9.968420000e-01 5.517000000e-03
829000000.0 -9.964150000e-01 6.589000000e-03
838000000.0 -1.000700000e+00 7.863000000e-03
847000000.0 -9.991550000e-01 5.156000000e-03
856000000.0 -9.969480000e-01 8.079000000e-03
865000000.0 -9.983320000e-01 3.722000000e-03
874000000.0 -9.986990000e-01 1.997000000e-03
883000000.0 -9.977100000e-01 -2.060000000e-03
892000000.0 -9.944490000e-01 1.532000000e-03
901000000.0 -1.001018000e+00 -2.205000000e-03
910000000.0 -9.974630000e-01 -3.970000000e-04
919000000.0 -1.001338000e+00 -4.938000000e-03
928000000.0 -1.000404000e+00 -2.186000000e-03
937000000.0 -1.000048000e+00 -2.692000000e-03
946000000.0 -1.001211000e+00 -7.638000000e-03
955000000.0 -1.000306000e+00 -2.932000000e-03
964000000.0 -9.999810000e-01 -1.116400000e-02
973000000.0 -1.000365000e+00 -5.639000000e-03
982000000.0 -1.001790000e+00 -7.659000000e-03
991000000.0 -1.000667000e+00 -8.413000000e-03
1000000000.0 -1.002322000e+00 -1.018900000e-02
1004500000.0 -1.000892000e+00 -6.147000000e-03
1009000000.0 -1.001074000e+00 -6.243000000e-03
1013500000.0 -1.003278000e+00 -8.297000000e-03
1018000000.0 -1.000738000e+00 -9.104000000e-03
1022500000.0 -1.001442000e+00 -8.223000000e-03
1027000000.0 -9.974480000e-01 -5.867000000e-03
1031500000.0 -1.000822000e+00 -1.041000000e-02
1036000000.0 -1.003601000e+00 -8.415000000e-03
1040500000.0 -1.003559000e+00 -4.117000000e-03
1045000000.0 -9.968800000e-01 -5.981000000e-03
1049500000.0 -1.000177000e+00 -1.152200000e-02
1054000000.0 -1.002501000e+00 -4.078000000e-03
1058500000.0 -1.005729000e+00 -1.297600000e-02
1063000000.0 -1.000643000e+00 -5.692000000e-03
1067500000.0 -1.002891000e+00 -3.293000000e-03
1072000000.0 -1.000623000e+00 6.480000000e-04
1076500000.0 -1.003766000e+00 -9.573000000e-03
1081000000.0 -1.005574000e+00 -9.686000000e-03
1085500000.0 -1.001574000e+00 -8.340000000e-03
1090000000.0 -1.009089000e+00 -6.252000000e-03
1094500000.0 -1.002716000e+00 -1.148900000e-02
1099000000.0 -1.006299000e+00 -2.125000000e-03
1103500000.0 -1.005750000e+00 -8.237000000e-03
1108000000.0 -1.007003000e+00 -4.917000000e-03
1112500000.0 -1.005512000e+00 -3.799000000e-03
1117000000.0 -1.005690000e+00 -8.200000000e-04
1121500000.0 -1.009050000e+00 -1.032400000e-02
1126000000.0 -1.009356000e+00 -4.186000000e-03
1130500000.0 -1.010505000e+00 -1.082600000e-02
1135000000.0 -1.007408000e+00 -1.150900000e-02
1139500000.0 -9.932280000e-01 2.210600000e-02
1144000000.0 -1.010359000e+00 -1.195600000e-02
1148500000.0 -1.001682000e+00 -5.738000000e-03
1153000000.0 -1.005275000e+00 -1.260000000e-04
1157500000.0 -1.026720000e+00 -6.238800000e-02
1162000000.0 -1.003551000e+00 -2.823000000e-03
1166500000.0 -1.004285000e+00 -1.000200000e-02
1171000000.0 -1.001558000e+00 -4.406000000e-03
1175500000.0 -9.997650000e-01 -7.726000000e-03
1180000000.0 -1.004561000e+00 -7.428000000e-03
1184500000.0 -1.000419000e+00 -4.148000000e-03
1189000000.0 -1.002081000e+00 -5.483000000e-03
1193500000.0 -1.000428000e+00 -5.810000000e-04
1198000000.0 -9.951570000e-01 -8.095000000e-03
1202500000.0 -1.001730000e+00 -1.308700000e-02
1207000000.0 -9.949340000e-01 4.272000000e-03
1211500000.0 -1.000060000e+00 -7.960000000e-04
1216000000.0 -9.953470000e-01 -5.940000000e-04
1220500000.0 -9.999630000e-01 -4.027000000e-03
1225000000.0 -1.005171000e+00 -9.650000000e-04
1229500000.0 -1.001169000e+00 -7.460000000e-04
1234000000.0 -1.004111000e+00 -8.389000000e-03
1238500000.0 -1.005416000e+00 -1.048400000e-02
1243000000.0 -1.003022000e+00 -1.131800000e-02
1247500000.0 -1.002317000e+00 -6.601000000e-03
1252000000.0 -1.004600000e+00 -7.391000000e-03
1256500000.0 -1.007285000e+00 -1.194300000e-02
1261000000.0 -1.001270000e+00 -1.013400000e-02
1265500000.0 -1.001014000e+00 -1.283900000e-02
1270000000.0 -1.007862000e+00 -4.283000000e-03
1274500000.0 -1.000572000e+00 -1.463000000e-03
1279000000.0 -1.004841000e+00 -9.800000000e-05
1283500000.0 -1.007377000e+00 -6.455000000e-03
1288000000.0 -1.002538000e+00 -5.951000000e-03
1292500000.0 -1.006613000e+00 -9.492000000e-03
1297000000.0 -1.003565000e+00 -5.727000000e-03
1301500000.0 -1.007672000e+00 -8.871000000e-03
1306000000.0 -1.002216000e+00 -8.348000000e-03
1310500000.0 -1.006187000e+00 -3.485000000e-03
1315000000.0 -1.000034000e+00 -6.010000000e-03
1319500000.0 -9.974150000e-01 -1.251800000e-02
1324000000.0 -9.991620000e-01 -3.132000000e-03
1328500000.0 -9.939330000e-01 -5.281000000e-03
1333000000.0 -9.985830000e-01 -1.454500000e-02
1337500000.0 -9.955410000e-01 1.502000000e-03
1342000000.0 -9.958400000e-01 -1.120200000e-02
1346500000.0 -9.919280000e-01 -5.550000000e-04
1351000000.0 -9.868160000e-01 -7.670000000e-04
1355500000.0 -9.937500000e-01 -9.180000000e-04
1360000000.0 -1.000996000e+00 -6.328000000e-03
1364500000.0 -9.951310000e-01 -9.359000000e-03
1369000000.0 -9.972700000e-01 -4.256000000e-03
1373500000.0 -9.985240000e-01 -1.130000000e-04
1378000000.0 -9.971450000e-01 8.924000000e-03
1382500000.0 -9.968430000e-01 -1.983000000e-03
1387000000.0 -1.007705000e+00 -5.369000000e-03
1391500000.0 -1.003660000e+00 3.354000000e-03
1396000000.0 -1.008126000e+00 -5.761000000e-03
1400500000.0 -1.001019000e+00 -8.654000000e-03
1405000000.0 -1.008281000e+00 -8.708000000e-03
1409500000.0 -1.003852000e+00 -1.049000000e-03
1414000000.0 -1.009441000e+00 -4.655000000e-03
1418500000.0 -1.002488000e+00 -1.402800000e-02
1423000000.0 -1.009816000e+00 -4.512000000e-03
1427500000.0 -1.019430000e+00 -3.970000000e-03
1432000000.0 -1.011575000e+00 -2.743000000e-03
1436500000.0 -1.013106000e+00 -5.512000000e-03
1441000000.0 -1.009595000e+00 9.750000000e-04
1445500000.0 -1.009084000e+00 -5.631000000e-03
1450000000.0 -1.010957000e+00 -5.065000000e-03
