! piloto_deriva / corto_deriva / r08
# HZ S RI R 50
50000.0 -9.980850000e-01 -3.647200000e-02
59500.0 -9.997660000e-01 -1.772400000e-02
69000.0 -9.979520000e-01 -4.571000000e-03
78500.0 -9.991750000e-01 -5.240000000e-04
88000.0 -9.992410000e-01 5.520000000e-04
97500.0 -1.000563000e+00 -1.400000000e-05
107000.0 -9.998950000e-01 -2.475000000e-03
116500.0 -9.998790000e-01 -6.090000000e-03
126000.0 -1.000650000e+00 -1.147700000e-02
135500.0 -1.000473000e+00 -1.644700000e-02
145000.0 -1.000425000e+00 -2.227500000e-02
154500.0 -9.995410000e-01 -2.925600000e-02
164000.0 -1.000061000e+00 -3.605300000e-02
173500.0 -9.993000000e-01 -4.352600000e-02
183000.0 -9.996460000e-01 -5.234100000e-02
192500.0 -9.995870000e-01 -6.057400000e-02
202000.0 -1.000236000e+00 -6.780700000e-02
211500.0 -1.000457000e+00 -7.782700000e-02
221000.0 -1.001038000e+00 -8.610500000e-02
230500.0 -1.000633000e+00 -9.428900000e-02
240000.0 -1.001077000e+00 -1.037330000e-01
249500.0 -1.000781000e+00 -1.123040000e-01
259000.0 -1.001018000e+00 -1.217950000e-01
268500.0 -1.001294000e+00 -1.310620000e-01
278000.0 -1.000664000e+00 -1.405350000e-01
287500.0 -1.001837000e+00 -1.502310000e-01
297000.0 -1.001503000e+00 -1.583770000e-01
306500.0 -1.002333000e+00 -1.680750000e-01
316000.0 -1.002306000e+00 -1.783600000e-01
325500.0 -1.002659000e+00 -1.877720000e-01
335000.0 -1.002764000e+00 -1.952340000e-01
344500.0 -1.003327000e+00 -2.058030000e-01
354000.0 -1.003374000e+00 -2.156020000e-01
363500.0 -1.003891000e+00 -2.242420000e-01
373000.0 -1.003560000e+00 -2.334450000e-01
382500.0 -1.004017000e+00 -2.425170000e-01
392000.0 -1.004316000e+00 -2.516180000e-01
401500.0 -1.004678000e+00 -2.607980000e-01
411000.0 -1.004564000e+00 -2.699940000e-01
420500.0 -1.004705000e+00 -2.803300000e-01
430000.0 -1.005404000e+00 -2.889360000e-01
439500.0 -1.005091000e+00 -2.987940000e-01
449000.0 -1.004945000e+00 -3.074270000e-01
458500.0 -1.005275000e+00 -3.177550000e-01
468000.0 -1.005381000e+00 -3.264610000e-01
477500.0 -1.005786000e+00 -3.364310000e-01
487000.0 -1.006377000e+00 -3.456070000e-01
496500.0 -1.006905000e+00 -3.552590000e-01
506000.0 -1.007378000e+00 -3.642590000e-01
515500.0 -1.008206000e+00 -3.735350000e-01
525000.0 -1.007033000e+00 -3.822050000e-01
534500.0 -1.007557000e+00 -3.923390000e-01
544000.0 -1.008638000e+00 -4.005700000e-01
553500.0 -1.009005000e+00 -4.096740000e-01
563000.0 -1.008678000e+00 -4.192540000e-01
572500.0 -1.010017000e+00 -4.286740000e-01
582000.0 -1.009847000e+00 -4.370340000e-01
591500.0 -1.010089000e+00 -4.477160000e-01
601000.0 -1.010540000e+00 -4.554590000e-01
610500.0 -1.010455000e+00 -4.652310000e-01
620000.0 -1.010513000e+00 -4.737040000e-01
629500.0 -1.012904000e+00 -4.821340000e-01
639000.0 -1.012612000e+00 -4.912200000e-01
648500.0 -1.013891000e+00 -5.012850000e-01
658000.0 -1.013246000e+00 -5.111500000e-01
667500.0 -1.014312000e+00 -5.192120000e-01
677000.0 -1.014980000e+00 -5.288480000e-01
686500.0 -1.015304000e+00 -5.376730000e-01
696000.0 -1.016641000e+00 -5.465260000e-01
705500.0 -1.018318000e+00 -5.536430000e-01
715000.0 -1.018141000e+00 -5.642380000e-01
724500.0 -1.020058000e+00 -5.734880000e-01
734000.0 -1.021060000e+00 -5.828120000e-01
743500.0 -1.021330000e+00 -5.902220000e-01
753000.0 -1.022105000e+00 -5.998730000e-01
762500.0 -1.022350000e+00 -6.082510000e-01
772000.0 -1.024866000e+00 -6.187550000e-01
781500.0 -1.024823000e+00 -6.268330000e-01
791000.0 -1.026304000e+00 -6.354840000e-01
800500.0 -1.028447000e+00 -6.442600000e-01
810000.0 -1.029083000e+00 -6.527420000e-01
819500.0 -1.030278000e+00 -6.608610000e-01
829000.0 -1.031340000e+00 -6.695140000e-01
838500.0 -1.031892000e+00 -6.777500000e-01
848000.0 -1.034490000e+00 -6.882050000e-01
857500.0 -1.037207000e+00 -6.962860000e-01
867000.0 -1.037736000e+00 -7.064020000e-01
876500.0 -1.039661000e+00 -7.142450000e-01
886000.0 -1.040151000e+00 -7.216760000e-01
895500.0 -1.043044000e+00 -7.316120000e-01
905000.0 -1.043742000e+00 -7.403660000e-01
914500.0 -1.045776000e+00 -7.483430000e-01
924000.0 -1.049971000e+00 -7.577770000e-01
933500.0 -1.050656000e+00 -7.640270000e-01
943000.0 -1.055009000e+00 -7.744170000e-01
952500.0 -1.054671000e+00 -7.825450000e-01
962000.0 -1.057364000e+00 -7.909180000e-01
971500.0 -1.059530000e+00 -8.001620000e-01
981000.0 -1.061898000e+00 -8.078610000e-01
990500.0 -1.078677000e+00 -7.966070000e-01
1000000.0 -1.065580000e+00 -8.251280000e-01
1090000.0 -1.096633000e+00 -9.016640000e-01
1180000.0 -1.133614000e+00 -9.752010000e-01
1270000.0 -1.182228000e+00 -1.043268000e+00
1360000.0 -1.237396000e+00 -1.103515000e+00
1450000.0 -1.307410000e+00 -1.154624000e+00
1540000.0 -1.382921000e+00 -1.191427000e+00
1630000.0 -1.470584000e+00 -1.211141000e+00
1720000.0 -1.558278000e+00 -1.209218000e+00
1810000.0 -1.649516000e+00 -1.189403000e+00
1900000.0 -1.733344000e+00 -1.146424000e+00
1990000.0 -1.807789000e+00 -1.082580000e+00
2080000.0 -1.861369000e+00 -1.004893000e+00
2170000.0 -1.898724000e+00 -9.171150000e-01
2260000.0 -1.914311000e+00 -8.227350000e-01
2350000.0 -1.914183000e+00 -7.327800000e-01
2440000.0 -1.902347000e+00 -6.476300000e-01
2530000.0 -1.874046000e+00 -5.680240000e-01
2620000.0 -1.840051000e+00 -4.988370000e-01
2710000.0 -1.801557000e+00 -4.398040000e-01
2800000.0 -1.758741000e+00 -3.874590000e-01
2890000.0 -1.715875000e+00 -3.432270000e-01
2980000.0 -1.673218000e+00 -3.039830000e-01
3070000.0 -1.631938000e+00 -2.717300000e-01
3160000.0 -1.595738000e+00 -2.405610000e-01
3250000.0 -1.557549000e+00 -2.165540000e-01
3340000.0 -1.521424000e+00 -1.939990000e-01
3430000.0 -1.489275000e+00 -1.739980000e-01
3520000.0 -1.457497000e+00 -1.534000000e-01
3610000.0 -1.428200000e+00 -1.381130000e-01
3700000.0 -1.402842000e+00 -1.239030000e-01
3790000.0 -1.379052000e+00 -1.079440000e-01
3880000.0 -1.355711000e+00 -9.264600000e-02
3970000.0 -1.333974000e+00 -7.970600000e-02
4060000.0 -1.313933000e+00 -6.578600000e-02
4150000.0 -1.295759000e+00 -5.373700000e-02
4240000.0 -1.278476000e+00 -4.230100000e-02
4330000.0 -1.264669000e+00 -3.083400000e-02
4420000.0 -1.249561000e+00 -1.784600000e-02
4510000.0 -1.236347000e+00 -7.269000000e-03
4600000.0 -1.224426000e+00 5.518000000e-03
4690000.0 -1.214672000e+00 1.559400000e-02
4780000.0 -1.203547000e+00 2.799500000e-02
4870000.0 -1.195122000e+00 3.666800000e-02
4960000.0 -1.186887000e+00 4.922200000e-02
5050000.0 -1.173040000e+00 5.981500000e-02
5140000.0 -1.167792000e+00 6.929600000e-02
5230000.0 -1.162528000e+00 7.949200000e-02
5320000.0 -1.156582000e+00 9.212000000e-02
5410000.0 -1.151625000e+00 1.020090000e-01
5500000.0 -1.147735000e+00 1.125340000e-01
5590000.0 -1.142828000e+00 1.213350000e-01
5680000.0 -1.139193000e+00 1.317080000e-01
5770000.0 -1.135775000e+00 1.413820000e-01
5860000.0 -1.132495000e+00 1.488970000e-01
5950000.0 -1.128594000e+00 1.597760000e-01
6040000.0 -1.125527000e+00 1.682440000e-01
6130000.0 -1.122128000e+00 1.765570000e-01
6220000.0 -1.119604000e+00 1.847000000e-01
6310000.0 -1.117811000e+00 1.926950000e-01
6400000.0 -1.115190000e+00 2.002850000e-01
6490000.0 -1.111926000e+00 2.062500000e-01
6580000.0 -1.110328000e+00 2.118670000e-01
6670000.0 -1.108022000e+00 2.183510000e-01
6760000.0 -1.107258000e+00 2.227210000e-01
6850000.0 -1.106043000e+00 2.293810000e-01
6940000.0 -1.103451000e+00 2.325770000e-01
7030000.0 -1.103318000e+00 2.352720000e-01
7120000.0 -1.102875000e+00 2.390000000e-01
7210000.0 -1.102570000e+00 2.400900000e-01
7300000.0 -1.101939000e+00 2.420610000e-01
7390000.0 -1.102368000e+00 2.422490000e-01
7480000.0 -1.102086000e+00 2.430340000e-01
7570000.0 1.955460000e-01 1.074096000e+00
7660000.0 1.958250000e-01 1.074228000e+00
7750000.0 1.942690000e-01 1.074437000e+00
7840000.0 1.943750000e-01 1.074388000e+00
7930000.0 1.929180000e-01 1.074808000e+00
8020000.0 1.914780000e-01 1.075153000e+00
8110000.0 1.907810000e-01 1.076147000e+00
8200000.0 1.898540000e-01 1.075930000e+00
8290000.0 1.891250000e-01 1.077484000e+00
8380000.0 1.881240000e-01 1.076624000e+00
8470000.0 1.879220000e-01 1.077443000e+00
8560000.0 1.875310000e-01 1.077522000e+00
8650000.0 1.870640000e-01 1.078116000e+00
8740000.0 1.864480000e-01 1.078553000e+00
8830000.0 1.847280000e-01 1.079312000e+00
8920000.0 1.846720000e-01 1.079997000e+00
9010000.0 1.833890000e-01 1.080835000e+00
9100000.0 1.833100000e-01 1.081762000e+00
9190000.0 1.822140000e-01 1.081244000e+00
9280000.0 1.814560000e-01 1.081011000e+00
9370000.0 1.804930000e-01 1.082647000e+00
9460000.0 1.801790000e-01 1.083463000e+00
9550000.0 1.803510000e-01 1.083890000e+00
9640000.0 1.796010000e-01 1.084998000e+00
9730000.0 1.783740000e-01 1.085213000e+00
9820000.0 1.781830000e-01 1.085994000e+00
9910000.0 1.779630000e-01 1.087932000e+00
10000000.0 1.760070000e-01 1.087354000e+00
10900000.0 1.691530000e-01 1.094936000e+00
11800000.0 1.629440000e-01 1.101564000e+00
12700000.0 1.580800000e-01 1.109543000e+00
13600000.0 1.501370000e-01 1.118707000e+00
14500000.0 1.438170000e-01 1.127822000e+00
15400000.0 1.379860000e-01 1.135762000e+00
16300000.0 1.316540000e-01 1.145564000e+00
17200000.0 1.252290000e-01 1.153745000e+00
18100000.0 1.165560000e-01 1.163610000e+00
19000000.0 1.090010000e-01 1.173622000e+00
19900000.0 1.020280000e-01 1.182124000e+00
20800000.0 9.348500000e-02 1.191695000e+00
21700000.0 8.438100000e-02 1.201403000e+00
22600000.0 7.486100000e-02 1.213072000e+00
23500000.0 6.673100000e-02 1.220944000e+00
24400000.0 5.662300000e-02 1.231929000e+00
25300000.0 4.705700000e-02 1.241754000e+00
26200000.0 3.651000000e-02 1.253214000e+00
27100000.0 2.529400000e-02 1.261701000e+00
28000000.0 1.462500000e-02 1.271832000e+00
28900000.0 2.901000000e-03 1.280850000e+00
29800000.0 -9.563000000e-03 1.292107000e+00
30700000.0 -2.284500000e-02 1.303371000e+00
31600000.0 -3.485500000e-02 1.311040000e+00
32500000.0 -4.710300000e-02 1.321098000e+00
33400000.0 -6.192400000e-02 1.331895000e+00
34300000.0 -7.579200000e-02 1.340960000e+00
35200000.0 -9.109800000e-02 1.351442000e+00
36100000.0 -1.059340000e-01 1.359742000e+00
37000000.0 -1.215520000e-01 1.369978000e+00
37900000.0 -1.375450000e-01 1.379130000e+00
38800000.0 -1.539090000e-01 1.387812000e+00
39700000.0 -1.708790000e-01 1.397519000e+00
40600000.0 -1.889230000e-01 1.404476000e+00
41500000.0 -2.065050000e-01 1.414659000e+00
42400000.0 -2.248150000e-01 1.419762000e+00
43300000.0 -2.441950000e-01 1.427847000e+00
44200000.0 -2.627750000e-01 1.436252000e+00
45100000.0 -2.822530000e-01 1.441168000e+00
46000000.0 -3.020320000e-01 1.448431000e+00
46900000.0 -3.234880000e-01 1.453495000e+00
47800000.0 -3.438390000e-01 1.458444000e+00
48700000.0 -3.654600000e-01 1.463159000e+00
49600000.0 -3.858870000e-01 1.467955000e+00
50500000.0 -4.096940000e-01 1.472677000e+00
51400000.0 -4.320780000e-01 1.475595000e+00
52300000.0 -4.536790000e-01 1.477446000e+00
53200000.0 -4.768190000e-01 1.480108000e+00
54100000.0 -4.999390000e-01 1.480119000e+00
55000000.0 -5.231080000e-01 1.482126000e+00
55900000.0 -5.471310000e-01 1.481727000e+00
56800000.0 -5.703810000e-01 1.481023000e+00
57700000.0 -5.957010000e-01 1.479434000e+00
58600000.0 -6.193740000e-01 1.477868000e+00
59500000.0 -6.428480000e-01 1.474591000e+00
60400000.0 -6.671240000e-01 1.471805000e+00
61300000.0 -6.909180000e-01 1.468203000e+00
62200000.0 -7.156810000e-01 1.463598000e+00
63100000.0 -7.418140000e-01 1.457370000e+00
64000000.0 -7.643890000e-01 1.450496000e+00
64900000.0 -7.888490000e-01 1.443178000e+00
65800000.0 -8.125930000e-01 1.435582000e+00
66700000.0 -8.367100000e-01 1.426763000e+00
67600000.0 -8.603220000e-01 1.417088000e+00
68500000.0 -8.836940000e-01 1.407884000e+00
69400000.0 -9.067400000e-01 1.397632000e+00
70300000.0 -9.294980000e-01 1.386750000e+00
71200000.0 -9.533140000e-01 1.374028000e+00
72100000.0 -9.744650000e-01 1.360208000e+00
73000000.0 -9.974060000e-01 1.349736000e+00
73900000.0 -1.017605000e+00 1.335234000e+00
74800000.0 -1.038925000e+00 1.319605000e+00
75700000.0 -1.060527000e+00 1.303903000e+00
76600000.0 -1.080501000e+00 1.287178000e+00
77500000.0 -1.100745000e+00 1.273430000e+00
78400000.0 -1.121288000e+00 1.256289000e+00
79300000.0 -1.138830000e+00 1.238319000e+00
80200000.0 -1.156088000e+00 1.220086000e+00
81100000.0 -1.176352000e+00 1.202254000e+00
82000000.0 -1.193815000e+00 1.181443000e+00
82900000.0 -1.207876000e+00 1.162605000e+00
83800000.0 -1.226938000e+00 1.142950000e+00
84700000.0 -1.239811000e+00 1.120859000e+00
85600000.0 -1.255368000e+00 1.101006000e+00
86500000.0 -1.269707000e+00 1.079954000e+00
87400000.0 -1.281953000e+00 1.058755000e+00
88300000.0 -1.294926000e+00 1.035496000e+00
89200000.0 -1.306084000e+00 1.014170000e+00
90100000.0 -1.318932000e+00 9.907140000e-01
91000000.0 -1.328432000e+00 9.691060000e-01
91900000.0 -1.338099000e+00 9.462570000e-01
92800000.0 -1.347065000e+00 9.224850000e-01
93700000.0 -1.354725000e+00 9.001070000e-01
94600000.0 -1.361630000e+00 8.753520000e-01
95500000.0 -1.369661000e+00 8.543950000e-01
96400000.0 -1.374925000e+00 8.302750000e-01
97300000.0 -1.379972000e+00 8.072220000e-01
98200000.0 -1.385417000e+00 7.843070000e-01
99100000.0 -1.387943000e+00 7.609620000e-01
100000000.0 -1.391001000e+00 7.379250000e-01
109000000.0 -1.384955000e+00 5.204480000e-01
118000000.0 -1.330962000e+00 3.395210000e-01
127000000.0 -1.249762000e+00 1.993520000e-01
136000000.0 -1.134434000e+00 1.006340000e-01
145000000.0 -1.046456000e+00 3.083900000e-02
154000000.0 -1.001028000e+00 -1.520000000e-03
163000000.0 -1.001781000e+00 -3.632000000e-03
172000000.0 -1.005033000e+00 -6.169000000e-03
181000000.0 -1.006269000e+00 -8.105000000e-03
190000000.0 -1.006714000e+00 -1.032500000e-02
199000000.0 -1.007873000e+00 -1.052100000e-02
208000000.0 -1.009068000e+00 -1.153100000e-02
217000000.0 -1.011166000e+00 -1.158200000e-02
226000000.0 -1.010337000e+00 -1.079600000e-02
235000000.0 -1.009982000e+00 -1.085300000e-02
244000000.0 -1.009108000e+00 -1.078400000e-02
253000000.0 -1.008425000e+00 -9.722000000e-03
262000000.0 -1.007853000e+00 -1.006200000e-02
271000000.0 -1.006445000e+00 -6.650000000e-03
280000000.0 -1.004240000e+00 -5.008000000e-03
289000000.0 -1.002422000e+00 -2.904000000e-03
298000000.0 -1.000612000e+00 -3.060000000e-04
307000000.0 -1.003517000e+00 -1.770000000e-04
316000000.0 -1.004291000e+00 2.330000000e-04
325000000.0 -1.007406000e+00 -3.098000000e-03
334000000.0 -1.010352000e+00 -3.226000000e-03
343000000.0 -1.011145000e+00 -2.159000000e-03
352000000.0 -1.013610000e+00 -3.534000000e-03
361000000.0 -1.012301000e+00 1.295600000e-02
370000000.0 -1.014483000e+00 -4.391000000e-03
379000000.0 -1.017149000e+00 -2.311600000e-02
388000000.0 -1.015119000e+00 -5.112000000e-03
397000000.0 -1.013131000e+00 -3.120000000e-03
406000000.0 -1.014438000e+00 -2.027800000e-02
415000000.0 -1.010338000e+00 -3.677000000e-03
424000000.0 -1.007841000e+00 3.280000000e-04
433000000.0 -1.006190000e+00 -9.680000000e-04
442000000.0 -1.002579000e+00 4.760000000e-04
451000000.0 -1.001073000e+00 -1.900000000e-05
460000000.0 -1.005202000e+00 3.760000000e-04
469000000.0 -1.008080000e+00 6.060000000e-04
478000000.0 -1.009820000e+00 2.824000000e-03
487000000.0 -1.012362000e+00 3.088000000e-03
496000000.0 -1.014868000e+00 2.538000000e-03
505000000.0 -1.016152000e+00 2.771000000e-03
514000000.0 -1.015190000e+00 3.310000000e-04
523000000.0 -1.016984000e+00 3.894000000e-03
532000000.0 -1.017422000e+00 3.077000000e-03
541000000.0 -1.016089000e+00 2.268000000e-03
550000000.0 -1.016395000e+00 3.727000000e-03
559000000.0 -1.012902000e+00 3.242000000e-03
568000000.0 -1.010768000e+00 2.054000000e-03
577000000.0 -1.007319000e+00 2.721000000e-03
586000000.0 -1.005355000e+00 8.320000000e-04
595000000.0 -9.999110000e-01 1.411000000e-03
604000000.0 -1.000088000e+00 9.530000000e-04
613000000.0 -1.003529000e+00 7.772000000e-03
622000000.0 -1.003536000e+00 3.708000000e-03
631000000.0 -1.004791000e+00 1.013900000e-02
640000000.0 -1.009326000e+00 1.136400000e-02
649000000.0 -1.007880000e+00 1.065200000e-02
658000000.0 -1.012149000e+00 9.786000000e-03
667000000.0 -1.012773000e+00 1.622700000e-02
676000000.0 -1.009032000e+00 1.208500000e-02
685000000.0 -1.007846000e+00 1.331600000e-02
694000000.0 -1.010291000e+00 1.650700000e-02
703000000.0 -1.006912000e+00 1.428200000e-02
712000000.0 -1.003958000e+00 2.089700000e-02
721000000.0 -1.008585000e+00 8.094000000e-03
730000000.0 -1.003058000e+00 8.193000000e-03
739000000.0 -1.002623000e+00 7.333000000e-03
748000000.0 -9.995130000e-01 2.843000000e-03
757000000.0 -9.990870000e-01 2.341000000e-03
766000000.0 -9.999560000e-01 3.246000000e-03
775000000.0 -9.974010000e-01 3.394000000e-03
784000000.0 -1.000960000e+00 8.295000000e-03
793000000.0 -1.001462000e+00 5.685000000e-03
802000000.0 -9.959730000e-01 5.722000000e-03
811000000.0 -9.969600000e-01 1.152300000e-02
820000000.0 -9.976700000e-01 9.674000000e-03
829000000.0 -9.989800000e-01 8.150000000e-03
838000000.0 -9.984600000e-01 3.459000000e-03
847000000.0 -9.961560000e-01 2.813000000e-03
856000000.0 -9.982560000e-01 5.493000000e-03
865000000.0 -9.980580000e-01 3.024000000e-03
874000000.0 -9.993100000e-01 2.258000000e-03
883000000.0 -1.002064000e+00 8.080000000e-04
892000000.0 -9.975840000e-01 -4.300000000e-03
901000000.0 -1.002341000e+00 -1.391000000e-03
910000000.0 -9.991730000e-01 -4.841000000e-03
919000000.0 -9.981510000e-01 -5.422000000e-03
928000000.0 -9.975860000e-01 -3.529000000e-03
937000000.0 -1.001528000e+00 -4.878000000e-03
946000000.0 -1.001698000e+00 -1.067300000e-02
955000000.0 -1.001093000e+00 -7.600000000e-04
964000000.0 -1.002923000e+00 -6.016000000e-03
973000000.0 -9.998710000e-01 -7.473000000e-03
982000000.0 -1.003455000e+00 -5.705000000e-03
991000000.0 -1.003710000e+00 -6.514000000e-03
1000000000.0 -1.001748000e+00 -7.329000000e-03
1004500000.0 -1.003665000e+00 -1.031300000e-02
1009000000.0 -1.003501000e+00 -1.089700000e-02
1013500000.0 -1.001758000e+00 -4.240000000e-03
1018000000.0 -1.002502000e+00 -4.725000000e-03
1022500000.0 -1.000326000e+00 -7.899000000e-03
1027000000.0 -1.001729000e+00 -5.082000000e-03
1031500000.0 -1.003619000e+00 -5.463000000e-03
1036000000.0 -1.002566000e+00 -8.536000000e-03
1040500000.0 -9.993650000e-01 -4.910000000e-04
1045000000.0 -1.001695000e+00 -6.050000000e-03
1049500000.0 -1.002291000e+00 -1.481000000e-03
1054000000.0 -1.003601000e+00 -9.100000000e-04
1058500000.0 -1.002015000e+00 -1.489000000e-03
1063000000.0 -1.000811000e+00 -5.656000000e-03
1067500000.0 -1.001784000e+00 -6.332000000e-03
1072000000.0 -1.004752000e+00 -7.914000000e-03
1076500000.0 -1.005421000e+00 -5.111000000e-03
1081000000.0 -1.005243000e+00 -1.311000000e-02
1085500000.0 -1.003609000e+00 -1.016600000e-02
1090000000.0 -1.002913000e+00 -1.226400000e-02
1094500000.0 -1.007953000e+00 -1.288400000e-02
1099000000.0 -1.008035000e+00 -1.114800000e-02
1103500000.0 -1.007368000e+00 -1.127900000e-02
1108000000.0 -1.004957000e+00 -1.335900000e-02
1112500000.0 -1.013145000e+00 -6.546000000e-03
1117000000.0 -1.004624000e+00 -2.579000000e-03
1121500000.0 -1.008168000e+00 -1.196100000e-02
1126000000.0 -1.010764000e+00 -9.877000000e-03
1130500000.0 -1.010380000e+00 -1.317800000e-02
1135000000.0 -1.003561000e+00 -1.057900000e-02
1139500000.0 -1.004535000e+00 -1.081900000e-02
1144000000.0 -1.007722000e+00 -9.744000000e-03
1148500000.0 -1.008534000e+00 -1.098900000e-02
1153000000.0 -1.000011000e+00 -3.842000000e-03
1157500000.0 -1.008768000e+00 -5.855000000e-03
1162000000.0 -1.003108000e+00 -1.191500000e-02
1166500000.0 -1.007221000e+00 2.374000000e-03
1171000000.0 -1.000707000e+00 -4.064000000e-03
1175500000.0 -1.000422000e+00 -2.571000000e-03
1180000000.0 -1.001028000e+00 -1.824000000e-03
1184500000.0 -9.981310000e-01 -6.082000000e-03
1189000000.0 -1.002063000e+00 6.600000000e-05
1193500000.0 -1.000050000e+00 -2.719000000e-03
1198000000.0 -9.961080000e-01 -5.152000000e-03
1202500000.0 -1.000708000e+00 4.790000000e-04
1207000000.0 -9.988290000e-01 4.042000000e-03
1211500000.0 -9.991410000e-01 -4.059000000e-03
1216000000.0 -9.952270000e-01 -5.606000000e-03
1220500000.0 -9.964270000e-01 5.500000000e-05
1225000000.0 -9.956780000e-01 3.129000000e-03
1229500000.0 -1.001336000e+00 -2.489000000e-03
1234000000.0 -1.002804000e+00 -9.673000000e-03
1238500000.0 -1.004022000e+00 -6.437000000e-03
1243000000.0 -1.003271000e+00 1.871000000e-03
1247500000.0 -1.005664000e+00 -1.223400000e-02
1252000000.0 -1.004358000e+00 -9.678000000e-03
1256500000.0 -1.001768000e+00 2.424000000e-03
1261000000.0 -1.008807000e+00 -1.960600000e-02
1265500000.0 -1.005629000e+00 -8.228000000e-03
1270000000.0 -1.006827000e+00 -1.087100000e-02
1274500000.0 -1.008911000e+00 -1.837800000e-02
1279000000.0 -1.003721000e+00 -1.042200000e-02
1283500000.0 -1.007748000e+00 -1.263200000e-02
1288000000.0 -1.001876000e+00 -7.115000000e-03
1292500000.0 -1.000506000e+00 -3.504000000e-03
1297000000.0 -1.000084000e+00 -3.194000000e-03
1301500000.0 -1.004428000e+00 -5.725000000e-03
1306000000.0 -1.005244000e+00 -9.647000000e-03
1310500000.0 -9.974340000e-01 -1.041200000e-02
1315000000.0 -1.002600000e+00 -1.041400000e-02
1319500000.0 -1.000473000e+00 -8.569000000e-03
1324000000.0 -1.000074000e+00 -7.662000000e-03
1328500000.0 -1.001528000e+00 1.536000000e-03
1333000000.0 -9.936990000e-01 5.350000000e-04
1337500000.0 -9.941650000e-01 -7.156000000e-03
1342000000.0 -9.927640000e-01 8.000000000e-04
1346500000.0 -1.000456000e+00 -1.796000000e-03
1351000000.0 -9.936110000e-01 -7.135000000e-03
1355500000.0 -9.946290000e-01 -2.200000000e-04
1360000000.0 -9.928410000e-01 -2.015000000e-03
1364500000.0 -9.938510000e-01 8.201000000e-03
1369000000.0 -9.925090000e-01 -3.272000000e-03
1373500000.0 -1.004882000e+00 -7.533000000e-03
1378000000.0 -1.005248000e+00 -5.144000000e-03
1382500000.0 -1.006902000e+00 1.303000000e-03
1387000000.0 -1.000483000e+00 7.174000000e-03
1391500000.0 -9.998870000e-01 8.110000000e-04
1396000000.0 -1.008606000e+00 -7.567000000e-03
1400500000.0 -1.007291000e+00 -5.310000000e-04
1405000000.0 -1.003450000e+00 -3.470000000e-03
1409500000.0 -1.006991000e+00 1.867000000e-03
1414000000.0 -1.010437000e+00 -1.629000000e-03
1418500000.0 -1.011321000e+00 -1.568000000e-03
1423000000.0 -1.007961000e+00 -1.485900000e-02
1427500000.0 -1.005036000e+00 1.215000000e-03
1432000000.0 -1.009193000e+00 -9.885000000e-03
1436500000.0 -1.010955000e+00 -4.510000000e-04
1441000000.0 -1.010293000e+00 -2.090000000e-03
1445500000.0 -1.011370000e+00 -6.416000000e-03
1450000000.0 -1.012201000e+00 -6.787000000e-03
