! piloto_deriva / corto_deriva / r09
# HZ S RI R 50
50000.0 -9.960080000e-01 -3.682400000e-02
59500.0 -9.951820000e-01 -1.788900000e-02
69000.0 -9.976750000e-01 -9.150000000e-03
78500.0 -9.989340000e-01 -1.293000000e-03
88000.0 -9.994220000e-01 3.230000000e-04
97500.0 -9.990380000e-01 -9.200000000e-05
107000.0 -9.994430000e-01 -2.025000000e-03
116500.0 -1.000575000e+00 -6.093000000e-03
126000.0 -1.000760000e+00 -1.144000000e-02
135500.0 -1.000012000e+00 -1.615100000e-02
145000.0 -1.000051000e+00 -2.216500000e-02
154500.0 -9.997770000e-01 -2.873000000e-02
164000.0 -9.993450000e-01 -3.567000000e-02
173500.0 -9.994410000e-01 -4.372600000e-02
183000.0 -1.000833000e+00 -5.256100000e-02
192500.0 -1.000134000e+00 -6.005700000e-02
202000.0 -1.000292000e+00 -6.857000000e-02
211500.0 -1.000486000e+00 -7.731500000e-02
221000.0 -1.000431000e+00 -8.604600000e-02
230500.0 -1.000580000e+00 -9.465200000e-02
240000.0 -1.001047000e+00 -1.038770000e-01
249500.0 -1.000429000e+00 -1.123780000e-01
259000.0 -1.000640000e+00 -1.220490000e-01
268500.0 -1.001387000e+00 -1.310630000e-01
278000.0 -1.001401000e+00 -1.407780000e-01
287500.0 -1.001662000e+00 -1.496390000e-01
297000.0 -1.001996000e+00 -1.595710000e-01
306500.0 -1.002163000e+00 -1.688770000e-01
316000.0 -1.002622000e+00 -1.786920000e-01
325500.0 -1.002660000e+00 -1.869270000e-01
335000.0 -1.002999000e+00 -1.961080000e-01
344500.0 -1.002475000e+00 -2.057670000e-01
354000.0 -1.003121000e+00 -2.143570000e-01
363500.0 -1.003904000e+00 -2.244500000e-01
373000.0 -1.003065000e+00 -2.324690000e-01
382500.0 -1.005044000e+00 -2.432670000e-01
392000.0 -1.003863000e+00 -2.518130000e-01
401500.0 -1.004227000e+00 -2.617770000e-01
411000.0 -1.004638000e+00 -2.713880000e-01
420500.0 -1.005216000e+00 -2.805360000e-01
430000.0 -1.005488000e+00 -2.894650000e-01
439500.0 -1.004695000e+00 -2.985400000e-01
449000.0 -1.005613000e+00 -3.085420000e-01
458500.0 -1.006083000e+00 -3.172450000e-01
468000.0 -1.006240000e+00 -3.269470000e-01
477500.0 -1.006853000e+00 -3.362170000e-01
487000.0 -1.007008000e+00 -3.453000000e-01
496500.0 -1.007816000e+00 -3.545840000e-01
506000.0 -1.007374000e+00 -3.639170000e-01
515500.0 -1.007145000e+00 -3.729570000e-01
525000.0 -1.007173000e+00 -3.813880000e-01
534500.0 -1.007676000e+00 -3.911140000e-01
544000.0 -1.007620000e+00 -4.019420000e-01
553500.0 -1.008637000e+00 -4.100800000e-01
563000.0 -1.009333000e+00 -4.190510000e-01
572500.0 -1.009096000e+00 -4.278240000e-01
582000.0 -1.009084000e+00 -4.372710000e-01
591500.0 -1.010345000e+00 -4.468150000e-01
601000.0 -1.010885000e+00 -4.558500000e-01
610500.0 -1.011285000e+00 -4.645580000e-01
620000.0 -1.011836000e+00 -4.739190000e-01
629500.0 -1.012951000e+00 -4.829430000e-01
639000.0 -1.013152000e+00 -4.928770000e-01
648500.0 -1.013812000e+00 -5.015280000e-01
658000.0 -1.014964000e+00 -5.107130000e-01
667500.0 -1.014760000e+00 -5.186440000e-01
677000.0 -1.014747000e+00 -5.288220000e-01
686500.0 -1.015434000e+00 -5.374640000e-01
696000.0 -1.016823000e+00 -5.461080000e-01
705500.0 -1.018575000e+00 -5.556780000e-01
715000.0 -1.019218000e+00 -5.635810000e-01
724500.0 -1.020116000e+00 -5.729000000e-01
734000.0 -1.020167000e+00 -5.822890000e-01
743500.0 -1.021397000e+00 -5.900740000e-01
753000.0 -1.022236000e+00 -6.001000000e-01
762500.0 -1.022882000e+00 -6.085940000e-01
772000.0 -1.023820000e+00 -6.178830000e-01
781500.0 -1.025250000e+00 -6.260240000e-01
791000.0 -1.026463000e+00 -6.345590000e-01
800500.0 -1.027575000e+00 -6.440440000e-01
810000.0 -1.028614000e+00 -6.541520000e-01
819500.0 -1.029908000e+00 -6.610840000e-01
829000.0 -1.032682000e+00 -6.697120000e-01
838500.0 -1.032574000e+00 -6.782340000e-01
848000.0 -1.035223000e+00 -6.870950000e-01
857500.0 -1.035774000e+00 -6.973480000e-01
867000.0 -1.036800000e+00 -7.060410000e-01
876500.0 -1.038265000e+00 -7.135010000e-01
886000.0 -1.040000000e+00 -7.224000000e-01
895500.0 -1.043254000e+00 -7.308460000e-01
905000.0 -1.045121000e+00 -7.397110000e-01
914500.0 -1.047444000e+00 -7.473280000e-01
924000.0 -1.049515000e+00 -7.580190000e-01
933500.0 -1.051452000e+00 -7.666690000e-01
943000.0 -1.053648000e+00 -7.745960000e-01
952500.0 -1.055691000e+00 -7.827130000e-01
962000.0 -1.057954000e+00 -7.915470000e-01
971500.0 -1.060826000e+00 -7.989930000e-01
981000.0 -1.062347000e+00 -8.095110000e-01
990500.0 -1.064593000e+00 -8.173350000e-01
1000000.0 -1.068263000e+00 -8.255370000e-01
1090000.0 -1.096332000e+00 -9.012320000e-01
1180000.0 -1.133452000e+00 -9.758160000e-01
1270000.0 -1.180855000e+00 -1.043820000e+00
1360000.0 -1.242120000e+00 -1.105811000e+00
1450000.0 -1.308878000e+00 -1.155193000e+00
1540000.0 -1.385428000e+00 -1.189917000e+00
1630000.0 -1.469788000e+00 -1.211161000e+00
1720000.0 -1.560742000e+00 -1.208572000e+00
1810000.0 -1.652424000e+00 -1.191096000e+00
1900000.0 -1.734936000e+00 -1.142100000e+00
1990000.0 -1.802700000e+00 -1.083214000e+00
2080000.0 -1.860267000e+00 -1.004979000e+00
2170000.0 -1.896003000e+00 -9.121170000e-01
2260000.0 -1.912712000e+00 -8.239050000e-01
2350000.0 -1.915347000e+00 -7.327290000e-01
2440000.0 -1.901581000e+00 -6.460410000e-01
2530000.0 -1.875881000e+00 -5.673930000e-01
2620000.0 -1.842343000e+00 -4.988560000e-01
2710000.0 -1.802189000e+00 -4.392520000e-01
2800000.0 -1.760182000e+00 -3.869500000e-01
2890000.0 -1.716963000e+00 -3.415910000e-01
2980000.0 -1.676000000e+00 -3.042500000e-01
3070000.0 -1.633781000e+00 -2.703950000e-01
3160000.0 -1.595066000e+00 -2.412990000e-01
3250000.0 -1.556522000e+00 -2.150550000e-01
3340000.0 -1.523571000e+00 -1.928020000e-01
3430000.0 -1.489597000e+00 -1.722990000e-01
3520000.0 -1.458046000e+00 -1.552680000e-01
3610000.0 -1.430335000e+00 -1.381400000e-01
3700000.0 -1.401776000e+00 -1.214610000e-01
3790000.0 -1.378546000e+00 -1.069500000e-01
3880000.0 -1.355155000e+00 -9.365600000e-02
3970000.0 -1.333236000e+00 -7.993500000e-02
4060000.0 -1.313802000e+00 -6.695100000e-02
4150000.0 -1.295394000e+00 -5.407900000e-02
4240000.0 -1.278398000e+00 -4.157800000e-02
4330000.0 -1.263118000e+00 -3.001300000e-02
4420000.0 -1.249976000e+00 -1.887100000e-02
4510000.0 -1.235874000e+00 -6.372000000e-03
4600000.0 -1.223419000e+00 4.474000000e-03
4690000.0 -1.214476000e+00 1.450000000e-02
4780000.0 -1.203609000e+00 2.773200000e-02
4870000.0 -1.194944000e+00 3.701300000e-02
4960000.0 -1.187062000e+00 4.811300000e-02
5050000.0 -1.173529000e+00 5.869900000e-02
5140000.0 -1.166847000e+00 6.980900000e-02
5230000.0 -1.161920000e+00 8.024700000e-02
5320000.0 -1.156060000e+00 9.080700000e-02
5410000.0 -1.152470000e+00 1.018360000e-01
5500000.0 -1.147433000e+00 1.115520000e-01
5590000.0 -1.143919000e+00 1.229110000e-01
5680000.0 -1.141166000e+00 1.302000000e-01
5770000.0 -1.135214000e+00 1.425470000e-01
5860000.0 -1.132276000e+00 1.502790000e-01
5950000.0 -1.128923000e+00 1.591020000e-01
6040000.0 -1.126680000e+00 1.682640000e-01
6130000.0 -1.121791000e+00 1.767180000e-01
6220000.0 -1.119642000e+00 1.844060000e-01
6310000.0 -1.118107000e+00 1.921130000e-01
6400000.0 -1.114851000e+00 1.993210000e-01
6490000.0 -1.111915000e+00 2.066410000e-01
6580000.0 -1.111005000e+00 2.120640000e-01
6670000.0 -1.109262000e+00 2.180950000e-01
6760000.0 -1.107899000e+00 2.234830000e-01
6850000.0 -1.106701000e+00 2.286680000e-01
6940000.0 -1.104887000e+00 2.322320000e-01
7030000.0 -1.104391000e+00 2.358310000e-01
7120000.0 -1.102989000e+00 2.386020000e-01
7210000.0 -1.102631000e+00 2.415390000e-01
7300000.0 -1.102054000e+00 2.432760000e-01
7390000.0 -1.101840000e+00 2.431810000e-01
7480000.0 -1.101956000e+00 2.434160000e-01
7570000.0 1.951060000e-01 1.073324000e+00
7660000.0 1.954260000e-01 1.073898000e+00
7750000.0 1.947880000e-01 1.073463000e+00
7840000.0 1.936330000e-01 1.074923000e+00
7930000.0 1.927750000e-01 1.075122000e+00
8020000.0 1.926110000e-01 1.075976000e+00
8110000.0 1.916310000e-01 1.076464000e+00
8200000.0 1.901460000e-01 1.077415000e+00
8290000.0 1.895560000e-01 1.075963000e+00
8380000.0 1.889510000e-01 1.077122000e+00
8470000.0 1.885250000e-01 1.078125000e+00
8560000.0 1.879990000e-01 1.077528000e+00
8650000.0 1.865770000e-01 1.079191000e+00
8740000.0 1.860990000e-01 1.079376000e+00
8830000.0 1.857440000e-01 1.079508000e+00
8920000.0 1.848740000e-01 1.080494000e+00
9010000.0 1.828840000e-01 1.080679000e+00
9100000.0 1.831750000e-01 1.081762000e+00
9190000.0 1.824700000e-01 1.080761000e+00
9280000.0 1.815940000e-01 1.083344000e+00
9370000.0 1.801430000e-01 1.083294000e+00
9460000.0 1.800530000e-01 1.084281000e+00
9550000.0 1.789640000e-01 1.083588000e+00
9640000.0 1.792540000e-01 1.084520000e+00
9730000.0 1.791180000e-01 1.085284000e+00
9820000.0 1.770360000e-01 1.086518000e+00
9910000.0 1.771130000e-01 1.086542000e+00
10000000.0 1.767040000e-01 1.086893000e+00
10900000.0 1.700210000e-01 1.094205000e+00
11800000.0 1.629510000e-01 1.101937000e+00
12700000.0 1.570960000e-01 1.110936000e+00
13600000.0 1.503830000e-01 1.119365000e+00
14500000.0 1.446850000e-01 1.127041000e+00
15400000.0 1.384550000e-01 1.137000000e+00
16300000.0 1.104660000e-01 1.149462000e+00
17200000.0 1.433630000e-01 1.149714000e+00
18100000.0 9.737100000e-02 1.166984000e+00
19000000.0 1.102050000e-01 1.173311000e+00
19900000.0 8.210000000e-02 1.186395000e+00
20800000.0 1.130090000e-01 1.188183000e+00
21700000.0 6.407800000e-02 1.205498000e+00
22600000.0 9.697500000e-02 1.207951000e+00
23500000.0 4.622100000e-02 1.224744000e+00
24400000.0 7.810500000e-02 1.228424000e+00
25300000.0 4.591800000e-02 1.241609000e+00
26200000.0 3.711700000e-02 1.251850000e+00
27100000.0 2.589200000e-02 1.262332000e+00
28000000.0 1.336200000e-02 1.272216000e+00
28900000.0 3.508000000e-03 1.282413000e+00
29800000.0 -9.504000000e-03 1.291936000e+00
30700000.0 -2.191800000e-02 1.302609000e+00
31600000.0 -3.379700000e-02 1.312262000e+00
32500000.0 -4.728900000e-02 1.322506000e+00
33400000.0 -6.267400000e-02 1.331272000e+00
34300000.0 -7.646500000e-02 1.342026000e+00
35200000.0 -9.103600000e-02 1.350614000e+00
36100000.0 -1.052690000e-01 1.361786000e+00
37000000.0 -1.210370000e-01 1.370315000e+00
37900000.0 -1.375070000e-01 1.379790000e+00
38800000.0 -1.540140000e-01 1.388192000e+00
39700000.0 -1.713720000e-01 1.396917000e+00
40600000.0 -1.896260000e-01 1.405500000e+00
41500000.0 -2.061990000e-01 1.412954000e+00
42400000.0 -2.242080000e-01 1.421048000e+00
43300000.0 -2.445310000e-01 1.426974000e+00
44200000.0 -2.629360000e-01 1.433732000e+00
45100000.0 -2.821330000e-01 1.441946000e+00
46000000.0 -3.031760000e-01 1.446856000e+00
46900000.0 -3.230350000e-01 1.452691000e+00
47800000.0 -3.449610000e-01 1.459797000e+00
48700000.0 -3.644670000e-01 1.462904000e+00
49600000.0 -3.872950000e-01 1.466754000e+00
50500000.0 -4.086890000e-01 1.471515000e+00
51400000.0 -4.316240000e-01 1.474526000e+00
52300000.0 -4.549430000e-01 1.478185000e+00
53200000.0 -4.786010000e-01 1.480313000e+00
54100000.0 -5.001820000e-01 1.480698000e+00
55000000.0 -5.237210000e-01 1.481897000e+00
55900000.0 -5.485640000e-01 1.481875000e+00
56800000.0 -5.703940000e-01 1.481258000e+00
57700000.0 -5.942140000e-01 1.478975000e+00
58600000.0 -6.187330000e-01 1.477359000e+00
59500000.0 -6.441580000e-01 1.475044000e+00
60400000.0 -6.671910000e-01 1.471254000e+00
61300000.0 -6.913540000e-01 1.467982000e+00
62200000.0 -7.159820000e-01 1.463674000e+00
63100000.0 -7.398240000e-01 1.456598000e+00
64000000.0 -7.636890000e-01 1.449744000e+00
64900000.0 -7.892490000e-01 1.443268000e+00
65800000.0 -8.129510000e-01 1.435482000e+00
66700000.0 -8.369770000e-01 1.427601000e+00
67600000.0 -8.608620000e-01 1.419121000e+00
68500000.0 -8.827710000e-01 1.409332000e+00
69400000.0 -9.072330000e-01 1.398471000e+00
70300000.0 -9.300000000e-01 1.386033000e+00
71200000.0 -9.534360000e-01 1.375968000e+00
72100000.0 -9.740210000e-01 1.363278000e+00
73000000.0 -9.968840000e-01 1.348659000e+00
73900000.0 -1.018824000e+00 1.334727000e+00
74800000.0 -1.040719000e+00 1.319911000e+00
75700000.0 -1.060423000e+00 1.302922000e+00
76600000.0 -1.080970000e+00 1.288009000e+00
77500000.0 -1.102045000e+00 1.272478000e+00
78400000.0 -1.120408000e+00 1.253273000e+00
79300000.0 -1.139599000e+00 1.237497000e+00
80200000.0 -1.158235000e+00 1.218760000e+00
81100000.0 -1.175695000e+00 1.200386000e+00
82000000.0 -1.192590000e+00 1.181783000e+00
82900000.0 -1.207844000e+00 1.160651000e+00
83800000.0 -1.225971000e+00 1.141132000e+00
84700000.0 -1.240589000e+00 1.122377000e+00
85600000.0 -1.254911000e+00 1.100549000e+00
86500000.0 -1.269702000e+00 1.078860000e+00
87400000.0 -1.281450000e+00 1.056541000e+00
88300000.0 -1.295225000e+00 1.035993000e+00
89200000.0 -1.307250000e+00 1.014611000e+00
90100000.0 -1.318388000e+00 9.912030000e-01
91000000.0 -1.328783000e+00 9.687670000e-01
91900000.0 -1.336907000e+00 9.452570000e-01
92800000.0 -1.346526000e+00 9.215370000e-01
93700000.0 -1.355145000e+00 8.995050000e-01
94600000.0 -1.362665000e+00 8.756620000e-01
95500000.0 -1.369537000e+00 8.534730000e-01
96400000.0 -1.375537000e+00 8.318280000e-01
97300000.0 -1.381199000e+00 8.064630000e-01
98200000.0 -1.384567000e+00 7.827460000e-01
99100000.0 -1.387801000e+00 7.604620000e-01
100000000.0 -1.391299000e+00 7.375120000e-01
109000000.0 -1.385112000e+00 5.199980000e-01
118000000.0 -1.332726000e+00 3.375550000e-01
127000000.0 -1.249138000e+00 1.989400000e-01
136000000.0 -1.134771000e+00 9.995900000e-02
145000000.0 -1.046160000e+00 2.993600000e-02
154000000.0 -1.000108000e+00 -1.745000000e-03
163000000.0 -1.003732000e+00 -4.221000000e-03
172000000.0 -1.005114000e+00 -6.198000000e-03
181000000.0 -1.005167000e+00 -8.531000000e-03
190000000.0 -1.007077000e+00 -9.191000000e-03
199000000.0 -1.008996000e+00 -1.060200000e-02
208000000.0 -1.010294000e+00 -1.158500000e-02
217000000.0 -1.010528000e+00 -1.171700000e-02
226000000.0 -1.010697000e+00 -1.087100000e-02
235000000.0 -1.010016000e+00 -1.144200000e-02
244000000.0 -1.010577000e+00 -1.075000000e-02
253000000.0 -1.009040000e+00 -1.043700000e-02
262000000.0 -1.007829000e+00 -8.453000000e-03
271000000.0 -1.006233000e+00 -6.970000000e-03
280000000.0 -1.003653000e+00 -6.460000000e-03
289000000.0 -1.002827000e+00 -2.857000000e-03
298000000.0 -1.000862000e+00 -4.840000000e-04
307000000.0 -1.002565000e+00 9.500000000e-05
316000000.0 -1.005618000e+00 -2.195000000e-03
325000000.0 -1.008862000e+00 -1.773000000e-03
334000000.0 -1.011009000e+00 -2.547000000e-03
343000000.0 -1.010225000e+00 -2.143000000e-03
352000000.0 -1.014017000e+00 -1.909000000e-03
361000000.0 -1.107911000e+00 -2.296000000e-03
370000000.0 -1.021064000e+00 -2.085800000e-02
379000000.0 -1.005693000e+00 3.013100000e-02
388000000.0 -1.016252000e+00 -2.028800000e-02
397000000.0 -1.013793000e+00 -4.535000000e-03
406000000.0 -1.011504000e+00 -2.296000000e-03
415000000.0 -1.010955000e+00 -5.062000000e-03
424000000.0 -1.009042000e+00 -2.352000000e-03
433000000.0 -1.007371000e+00 -7.180000000e-04
442000000.0 -1.004125000e+00 -1.800000000e-04
451000000.0 -9.981380000e-01 4.045000000e-03
460000000.0 -1.004651000e+00 -1.248000000e-03
469000000.0 -1.006968000e+00 3.520000000e-03
478000000.0 -1.009559000e+00 1.673000000e-03
487000000.0 -1.012657000e+00 1.400000000e-03
496000000.0 -1.014763000e+00 7.420000000e-04
505000000.0 -1.015424000e+00 3.918000000e-03
514000000.0 -1.015471000e+00 3.553000000e-03
523000000.0 -1.017933000e+00 3.141000000e-03
532000000.0 -1.016482000e+00 1.487000000e-03
541000000.0 -1.014327000e+00 4.624000000e-03
550000000.0 -1.013568000e+00 3.972000000e-03
559000000.0 -1.010539000e+00 2.750000000e-03
568000000.0 -1.011182000e+00 1.752000000e-03
577000000.0 -1.007621000e+00 3.047000000e-03
586000000.0 -1.005721000e+00 3.563000000e-03
595000000.0 -1.002385000e+00 2.108000000e-03
604000000.0 -1.001642000e+00 1.199000000e-03
613000000.0 -1.004596000e+00 4.005000000e-03
622000000.0 -1.005167000e+00 5.719000000e-03
631000000.0 -1.004353000e+00 9.370000000e-03
640000000.0 -1.007220000e+00 8.737000000e-03
649000000.0 -1.007462000e+00 1.640100000e-02
658000000.0 -1.009527000e+00 1.311700000e-02
667000000.0 -1.010862000e+00 1.275000000e-02
676000000.0 -1.011303000e+00 1.320400000e-02
685000000.0 -1.007910000e+00 1.579900000e-02
694000000.0 -1.007707000e+00 1.050200000e-02
703000000.0 -1.009753000e+00 1.331400000e-02
712000000.0 -1.005452000e+00 4.142400000e-02
721000000.0 -1.005140000e+00 7.156000000e-03
730000000.0 -1.002634000e+00 5.756000000e-03
739000000.0 -1.004419000e+00 3.507000000e-03
748000000.0 -1.000877000e+00 4.054000000e-03
757000000.0 -9.975300000e-01 1.841000000e-03
766000000.0 -9.998660000e-01 5.112000000e-03
775000000.0 -1.000198000e+00 5.397000000e-03
784000000.0 -9.971760000e-01 7.808000000e-03
793000000.0 -9.984020000e-01 7.732000000e-03
802000000.0 -9.979890000e-01 3.696000000e-03
811000000.0 -9.979160000e-01 9.708000000e-03
820000000.0 -9.980200000e-01 8.817000000e-03
829000000.0 -9.991510000e-01 8.748000000e-03
838000000.0 -1.000362000e+00 2.842000000e-03
847000000.0 -9.995370000e-01 7.565000000e-03
856000000.0 -9.966900000e-01 4.674000000e-03
865000000.0 -9.978660000e-01 2.079000000e-03
874000000.0 -1.001243000e+00 3.399000000e-03
883000000.0 -9.968600000e-01 5.690000000e-03
892000000.0 -9.966450000e-01 3.977000000e-03
901000000.0 -9.975440000e-01 -3.885000000e-03
910000000.0 -1.001787000e+00 -1.859000000e-03
919000000.0 -1.001025000e+00 -5.038000000e-03
928000000.0 -1.000699000e+00 -5.304000000e-03
937000000.0 -9.995640000e-01 -4.810000000e-03
946000000.0 -1.000586000e+00 -1.434000000e-02
955000000.0 -1.000744000e+00 -5.425000000e-03
964000000.0 -1.000649000e+00 -3.364000000e-03
973000000.0 -1.002209000e+00 -9.589000000e-03
982000000.0 -1.001348000e+00 -9.781000000e-03
991000000.0 -1.003894000e+00 -6.340000000e-03
1000000000.0 -1.000785000e+00 -5.174000000e-03
1004500000.0 -1.001347000e+00 -8.900000000e-03
1009000000.0 -1.002964000e+00 -1.030300000e-02
1013500000.0 -1.000850000e+00 -5.854000000e-03
1018000000.0 -9.993750000e-01 -5.945000000e-03
1022500000.0 -1.002495000e+00 -3.553000000e-03
1027000000.0 -9.994200000e-01 -2.417000000e-03
1031500000.0 -1.002589000e+00 -5.396000000e-03
1036000000.0 -9.992850000e-01 -2.358000000e-03
1040500000.0 -9.970920000e-01 -6.556000000e-03
1045000000.0 -1.000648000e+00 -5.330000000e-03
1049500000.0 -1.000072000e+00 -6.621000000e-03
1054000000.0 -1.002236000e+00 -7.614000000e-03
1058500000.0 -9.994380000e-01 -4.563000000e-03
1063000000.0 -1.004551000e+00 -8.542000000e-03
1067500000.0 -1.001471000e+00 -4.034000000e-03
1072000000.0 -1.001403000e+00 -5.601000000e-03
1076500000.0 -1.000999000e+00 -4.264000000e-03
1081000000.0 -1.005190000e+00 -8.907000000e-03
1085500000.0 -1.008805000e+00 -6.749000000e-03
1090000000.0 -1.007537000e+00 -1.277200000e-02
1094500000.0 -1.004874000e+00 -8.317000000e-03
1099000000.0 -1.009075000e+00 -7.408000000e-03
1103500000.0 -1.005254000e+00 -1.560400000e-02
1108000000.0 -1.007250000e+00 -1.286700000e-02
1112500000.0 -1.010414000e+00 -1.230700000e-02
1117000000.0 -1.007327000e+00 -5.816000000e-03
1121500000.0 -1.005659000e+00 -1.083800000e-02
1126000000.0 -9.915560000e-01 4.031400000e-02
1130500000.0 -1.006563000e+00 -1.252500000e-02
1135000000.0 -1.008006000e+00 -1.309700000e-02
1139500000.0 -1.006888000e+00 -1.083600000e-02
1144000000.0 -1.010410000e+00 -1.037500000e-02
1148500000.0 -1.002752000e+00 -8.907000000e-03
1153000000.0 -1.009168000e+00 -4.947000000e-03
1157500000.0 -9.885580000e-01 2.401600000e-02
1162000000.0 -1.003554000e+00 -5.757000000e-03
1166500000.0 -1.008162000e+00 -1.505200000e-02
1171000000.0 -9.994180000e-01 -7.888000000e-03
1175500000.0 -1.004256000e+00 -5.582000000e-03
1180000000.0 -9.986850000e-01 -1.555000000e-03
1184500000.0 -9.992820000e-01 -4.949000000e-03
1189000000.0 -9.995770000e-01 -2.098000000e-03
1193500000.0 -1.001881000e+00 -3.976000000e-03
1198000000.0 -9.940080000e-01 -5.073000000e-03
1202500000.0 -9.947260000e-01 -1.365000000e-03
1207000000.0 -9.984340000e-01 -4.991000000e-03
1211500000.0 -9.959350000e-01 8.070000000e-04
1216000000.0 -9.990230000e-01 4.158000000e-03
1220500000.0 -1.001853000e+00 -1.027100000e-02
1225000000.0 -9.988060000e-01 -5.965000000e-03
1229500000.0 -1.000755000e+00 -6.323000000e-03
1234000000.0 -1.004114000e+00 -7.365000000e-03
1238500000.0 -9.999200000e-01 -3.186000000e-03
1243000000.0 -1.004733000e+00 -8.378000000e-03
1247500000.0 -1.009814000e+00 -1.800000000e-02
1252000000.0 -1.002792000e+00 -6.295000000e-03
1256500000.0 -1.005122000e+00 -2.266000000e-03
1261000000.0 -1.001189000e+00 -8.958000000e-03
1265500000.0 -1.008215000e+00 -2.064000000e-03
1270000000.0 -1.008332000e+00 -3.173000000e-03
1274500000.0 -1.005272000e+00 1.049600000e-02
1279000000.0 -1.004631000e+00 -9.727000000e-03
1283500000.0 -1.008132000e+00 -1.629100000e-02
1288000000.0 -1.006822000e+00 -1.084700000e-02
1292500000.0 -1.004489000e+00 2.074700000e-02
1297000000.0 -1.000007000e+00 -5.300000000e-03
1301500000.0 -1.007063000e+00 -2.110800000e-02
1306000000.0 -1.012251000e+00 -4.147100000e-02
1310500000.0 -9.994450000e-01 -1.001200000e-02
1315000000.0 -9.994090000e-01 -1.016500000e-02
1319500000.0 -1.000980000e+00 -2.285000000e-03
1324000000.0 -9.975420000e-01 -6.883000000e-03
1328500000.0 -9.937870000e-01 -2.437000000e-03
1333000000.0 -9.950410000e-01 -1.664600000e-02
1337500000.0 -9.937010000e-01 -4.607000000e-03
1342000000.0 -9.949500000e-01 -1.634000000e-03
1346500000.0 -9.933720000e-01 4.883000000e-03
1351000000.0 -9.977130000e-01 -7.080000000e-04
1355500000.0 -9.972920000e-01 -1.036000000e-03
1360000000.0 -9.965480000e-01 -3.313000000e-03
1364500000.0 -9.950370000e-01 -1.882000000e-03
1369000000.0 -1.004431000e+00 -8.536000000e-03
1373500000.0 -9.958700000e-01 -3.016000000e-03
1378000000.0 -9.971040000e-01 2.668000000e-03
1382500000.0 -9.991110000e-01 4.410000000e-04
1387000000.0 -1.002820000e+00 -3.093000000e-03
1391500000.0 -1.005664000e+00 -4.409000000e-03
1396000000.0 -1.003497000e+00 -9.135000000e-03
1400500000.0 -1.000878000e+00 -1.347000000e-03
1405000000.0 -1.001823000e+00 -1.120100000e-02
1409500000.0 -1.005934000e+00 -6.488000000e-03
1414000000.0 -1.010809000e+00 -5.662000000e-03
1418500000.0 -1.014858000e+00 -1.162300000e-02
1423000000.0 -1.005028000e+00 -2.330000000e-04
1427500000.0 -1.015527000e+00 -1.551900000e-02
1432000000.0 -1.012798000e+00 -1.334400000e-02
1436500000.0 -1.011247000e+00 -3.917000000e-03
1441000000.0 -1.007646000e+00 -2.172000000e-03
1445500000.0 -1.011483000e+00 -1.830000000e-03
1450000000.0 -1.010144000e+00 -2.878000000e-03
