! piloto_deriva / corto_deriva / r13
# HZ S RI R 50
50000.0 -9.972590000e-01 -3.678800000e-02
59500.0 -9.995670000e-01 -1.793400000e-02
69000.0 -9.980580000e-01 -9.361000000e-03
78500.0 -9.987100000e-01 -2.411000000e-03
88000.0 -9.998680000e-01 6.000000000e-04
97500.0 -9.993700000e-01 -8.300000000e-05
107000.0 -9.992670000e-01 -1.921000000e-03
116500.0 -9.993990000e-01 -5.854000000e-03
126000.0 -9.999550000e-01 -9.939000000e-03
135500.0 -9.995770000e-01 -1.590400000e-02
145000.0 -1.000251000e+00 -2.235400000e-02
154500.0 -1.000510000e+00 -2.939900000e-02
164000.0 -1.000594000e+00 -3.625900000e-02
173500.0 -9.996190000e-01 -4.361500000e-02
183000.0 -9.998040000e-01 -5.156000000e-02
192500.0 -9.992670000e-01 -5.995200000e-02
202000.0 -1.000137000e+00 -6.842000000e-02
211500.0 -1.000914000e+00 -7.745900000e-02
221000.0 -9.998640000e-01 -8.599800000e-02
230500.0 -1.000925000e+00 -9.397400000e-02
240000.0 -1.000836000e+00 -1.038030000e-01
249500.0 -1.000561000e+00 -1.133340000e-01
259000.0 -1.001743000e+00 -1.219610000e-01
268500.0 -1.001700000e+00 -1.310840000e-01
278000.0 -1.001771000e+00 -1.411900000e-01
287500.0 -1.001789000e+00 -1.498480000e-01
297000.0 -1.002273000e+00 -1.592470000e-01
306500.0 -1.002027000e+00 -1.689140000e-01
316000.0 -1.002078000e+00 -1.776920000e-01
325500.0 -1.002266000e+00 -1.871220000e-01
335000.0 -1.003010000e+00 -1.964590000e-01
344500.0 -1.003941000e+00 -2.048440000e-01
354000.0 -1.003668000e+00 -2.153900000e-01
363500.0 -1.003804000e+00 -2.245380000e-01
373000.0 -1.005124000e+00 -2.339020000e-01
382500.0 -1.005201000e+00 -2.430510000e-01
392000.0 -1.004045000e+00 -2.518010000e-01
401500.0 -1.004370000e+00 -2.620750000e-01
411000.0 -1.005511000e+00 -2.702220000e-01
420500.0 -1.005239000e+00 -2.804920000e-01
430000.0 -1.005250000e+00 -2.900560000e-01
439500.0 -1.005881000e+00 -2.987870000e-01
449000.0 -1.005323000e+00 -3.084200000e-01
458500.0 -1.005134000e+00 -3.175910000e-01
468000.0 -1.006292000e+00 -3.257970000e-01
477500.0 -1.006843000e+00 -3.365410000e-01
487000.0 -1.005611000e+00 -3.446270000e-01
496500.0 -1.006577000e+00 -3.545240000e-01
506000.0 -1.007510000e+00 -3.641210000e-01
515500.0 -1.006944000e+00 -3.722870000e-01
525000.0 -1.007591000e+00 -3.822620000e-01
534500.0 -1.007786000e+00 -3.923440000e-01
544000.0 -1.008100000e+00 -4.003750000e-01
553500.0 -1.008965000e+00 -4.099480000e-01
563000.0 -1.008249000e+00 -4.200200000e-01
572500.0 -1.009411000e+00 -4.283770000e-01
582000.0 -1.009529000e+00 -4.380730000e-01
591500.0 -1.010269000e+00 -4.472070000e-01
601000.0 -1.010393000e+00 -4.558510000e-01
610500.0 -1.012119000e+00 -4.655500000e-01
620000.0 -1.012066000e+00 -4.726140000e-01
629500.0 -1.011709000e+00 -4.835770000e-01
639000.0 -1.012248000e+00 -4.926610000e-01
648500.0 -1.013959000e+00 -5.002070000e-01
658000.0 -1.013788000e+00 -5.098140000e-01
667500.0 -1.014721000e+00 -5.191590000e-01
677000.0 -1.015140000e+00 -5.279710000e-01
686500.0 -1.015438000e+00 -5.374290000e-01
696000.0 -1.017364000e+00 -5.456620000e-01
705500.0 -1.017792000e+00 -5.560730000e-01
715000.0 -1.017923000e+00 -5.633430000e-01
724500.0 -1.018358000e+00 -5.735210000e-01
734000.0 -1.020795000e+00 -5.825990000e-01
743500.0 -1.020059000e+00 -5.908460000e-01
753000.0 -1.022610000e+00 -5.999520000e-01
762500.0 -1.023520000e+00 -6.081130000e-01
772000.0 -1.023562000e+00 -6.178770000e-01
781500.0 -1.025586000e+00 -6.257480000e-01
791000.0 -1.026101000e+00 -6.366920000e-01
800500.0 -1.028105000e+00 -6.439590000e-01
810000.0 -1.027820000e+00 -6.526220000e-01
819500.0 -1.029956000e+00 -6.621420000e-01
829000.0 -1.031128000e+00 -6.703310000e-01
838500.0 -1.033274000e+00 -6.781200000e-01
848000.0 -1.035246000e+00 -6.881170000e-01
857500.0 -1.036420000e+00 -6.966680000e-01
867000.0 -1.038014000e+00 -7.051920000e-01
876500.0 -1.038150000e+00 -7.137270000e-01
886000.0 -1.040007000e+00 -7.245220000e-01
895500.0 -1.043717000e+00 -7.309890000e-01
905000.0 -1.044572000e+00 -7.405940000e-01
914500.0 -1.047258000e+00 -7.472960000e-01
924000.0 -1.048153000e+00 -7.580220000e-01
933500.0 -1.050491000e+00 -7.659610000e-01
943000.0 -1.052757000e+00 -7.747520000e-01
952500.0 -1.055243000e+00 -7.819050000e-01
962000.0 -1.057006000e+00 -7.911030000e-01
971500.0 -1.060185000e+00 -8.008930000e-01
981000.0 -1.076038000e+00 -7.876300000e-01
990500.0 -1.063727000e+00 -8.160960000e-01
1000000.0 -1.081314000e+00 -8.033080000e-01
1090000.0 -1.097519000e+00 -9.023830000e-01
1180000.0 -1.133581000e+00 -9.751880000e-01
1270000.0 -1.180447000e+00 -1.042824000e+00
1360000.0 -1.238166000e+00 -1.106594000e+00
1450000.0 -1.306935000e+00 -1.155391000e+00
1540000.0 -1.382359000e+00 -1.189690000e+00
1630000.0 -1.469228000e+00 -1.211424000e+00
1720000.0 -1.559968000e+00 -1.211928000e+00
1810000.0 -1.647791000e+00 -1.187207000e+00
1900000.0 -1.730277000e+00 -1.142785000e+00
1990000.0 -1.804279000e+00 -1.082360000e+00
2080000.0 -1.860273000e+00 -1.006766000e+00
2170000.0 -1.896549000e+00 -9.171000000e-01
2260000.0 -1.916387000e+00 -8.223130000e-01
2350000.0 -1.915754000e+00 -7.312870000e-01
2440000.0 -1.901474000e+00 -6.480960000e-01
2530000.0 -1.875095000e+00 -5.681670000e-01
2620000.0 -1.839958000e+00 -4.984860000e-01
2710000.0 -1.801273000e+00 -4.383370000e-01
2800000.0 -1.757907000e+00 -3.847840000e-01
2890000.0 -1.714280000e+00 -3.424800000e-01
2980000.0 -1.673348000e+00 -3.045950000e-01
3070000.0 -1.634169000e+00 -2.709540000e-01
3160000.0 -1.595119000e+00 -2.391810000e-01
3250000.0 -1.557425000e+00 -2.148390000e-01
3340000.0 -1.522079000e+00 -1.937190000e-01
3430000.0 -1.489250000e+00 -1.726350000e-01
3520000.0 -1.459769000e+00 -1.554820000e-01
3610000.0 -1.430159000e+00 -1.367250000e-01
3700000.0 -1.405126000e+00 -1.213030000e-01
3790000.0 -1.378817000e+00 -1.065190000e-01
3880000.0 -1.354945000e+00 -9.383200000e-02
3970000.0 -1.334047000e+00 -8.027000000e-02
4060000.0 -1.313225000e+00 -6.655600000e-02
4150000.0 -1.295422000e+00 -5.444600000e-02
4240000.0 -1.278241000e+00 -4.280900000e-02
4330000.0 -1.262259000e+00 -2.899000000e-02
4420000.0 -1.249369000e+00 -1.940600000e-02
4510000.0 -1.236342000e+00 -6.262000000e-03
4600000.0 -1.224731000e+00 3.747000000e-03
4690000.0 -1.212807000e+00 1.557700000e-02
4780000.0 -1.204397000e+00 2.627100000e-02
4870000.0 -1.194720000e+00 3.714600000e-02
4960000.0 -1.187523000e+00 4.902100000e-02
5050000.0 -1.172755000e+00 5.852800000e-02
5140000.0 -1.168025000e+00 6.927000000e-02
5230000.0 -1.162445000e+00 7.975000000e-02
5320000.0 -1.156846000e+00 9.073700000e-02
5410000.0 -1.151211000e+00 1.007660000e-01
5500000.0 -1.147001000e+00 1.119820000e-01
5590000.0 -1.143488000e+00 1.219140000e-01
5680000.0 -1.139239000e+00 1.309760000e-01
5770000.0 -1.135738000e+00 1.404000000e-01
5860000.0 -1.132232000e+00 1.496710000e-01
5950000.0 -1.129660000e+00 1.586870000e-01
6040000.0 -1.125182000e+00 1.678700000e-01
6130000.0 -1.122728000e+00 1.765270000e-01
6220000.0 -1.119702000e+00 1.840140000e-01
6310000.0 -1.116539000e+00 1.927270000e-01
6400000.0 -1.115397000e+00 1.999490000e-01
6490000.0 -1.113235000e+00 2.059600000e-01
6580000.0 -1.110296000e+00 2.125380000e-01
6670000.0 -1.109153000e+00 2.188510000e-01
6760000.0 -1.107532000e+00 2.246300000e-01
6850000.0 -1.106006000e+00 2.291420000e-01
6940000.0 -1.105136000e+00 2.325040000e-01
7030000.0 -1.103860000e+00 2.365680000e-01
7120000.0 -1.102340000e+00 2.385470000e-01
7210000.0 -1.102720000e+00 2.411510000e-01
7300000.0 -1.102280000e+00 2.419170000e-01
7390000.0 -1.102293000e+00 2.430820000e-01
7480000.0 -1.101657000e+00 2.414110000e-01
7570000.0 1.958480000e-01 1.073653000e+00
7660000.0 1.955250000e-01 1.073418000e+00
7750000.0 1.939630000e-01 1.073820000e+00
7840000.0 1.928760000e-01 1.075713000e+00
7930000.0 1.934480000e-01 1.074161000e+00
8020000.0 1.922110000e-01 1.075358000e+00
8110000.0 1.913230000e-01 1.076438000e+00
8200000.0 1.890390000e-01 1.076714000e+00
8290000.0 1.902500000e-01 1.076332000e+00
8380000.0 1.887110000e-01 1.076150000e+00
8470000.0 1.884210000e-01 1.077898000e+00
8560000.0 1.871260000e-01 1.078352000e+00
8650000.0 1.871430000e-01 1.078403000e+00
8740000.0 1.852030000e-01 1.079620000e+00
8830000.0 1.857090000e-01 1.079169000e+00
8920000.0 1.855690000e-01 1.081181000e+00
9010000.0 1.840690000e-01 1.079596000e+00
9100000.0 1.830180000e-01 1.081606000e+00
9190000.0 1.833370000e-01 1.081580000e+00
9280000.0 1.824370000e-01 1.082472000e+00
9370000.0 1.815990000e-01 1.082117000e+00
9460000.0 1.803080000e-01 1.084331000e+00
9550000.0 1.794190000e-01 1.084921000e+00
9640000.0 1.786260000e-01 1.083700000e+00
9730000.0 1.783250000e-01 1.085398000e+00
9820000.0 1.775090000e-01 1.085734000e+00
9910000.0 1.773150000e-01 1.086803000e+00
10000000.0 1.767150000e-01 1.087441000e+00
10900000.0 1.696890000e-01 1.094915000e+00
11800000.0 1.636610000e-01 1.102213000e+00
12700000.0 1.572610000e-01 1.109999000e+00
13600000.0 1.501480000e-01 1.118406000e+00
14500000.0 1.442050000e-01 1.126909000e+00
15400000.0 1.379950000e-01 1.136183000e+00
16300000.0 1.309460000e-01 1.144312000e+00
17200000.0 1.238640000e-01 1.154322000e+00
18100000.0 1.169270000e-01 1.163904000e+00
19000000.0 1.087160000e-01 1.173468000e+00
19900000.0 1.013790000e-01 1.182456000e+00
20800000.0 9.332600000e-02 1.191789000e+00
21700000.0 8.492800000e-02 1.201438000e+00
22600000.0 7.552300000e-02 1.212046000e+00
23500000.0 6.621300000e-02 1.220784000e+00
24400000.0 5.718000000e-02 1.231718000e+00
25300000.0 4.588100000e-02 1.241844000e+00
26200000.0 3.603500000e-02 1.251233000e+00
27100000.0 2.563500000e-02 1.261366000e+00
28000000.0 1.451900000e-02 1.272381000e+00
28900000.0 2.208000000e-03 1.281040000e+00
29800000.0 -3.167200000e-02 1.295068000e+00
30700000.0 -2.171900000e-02 1.302338000e+00
31600000.0 -3.407600000e-02 1.311878000e+00
32500000.0 -4.749000000e-02 1.322013000e+00
33400000.0 -6.223100000e-02 1.332331000e+00
34300000.0 -7.606600000e-02 1.342013000e+00
35200000.0 -9.105800000e-02 1.351512000e+00
36100000.0 -1.048680000e-01 1.360676000e+00
37000000.0 -1.209870000e-01 1.369555000e+00
37900000.0 -1.361240000e-01 1.379930000e+00
38800000.0 -1.539990000e-01 1.387495000e+00
39700000.0 -1.716370000e-01 1.396404000e+00
40600000.0 -1.891440000e-01 1.404386000e+00
41500000.0 -2.069730000e-01 1.413102000e+00
42400000.0 -2.252950000e-01 1.420605000e+00
43300000.0 -2.451350000e-01 1.428984000e+00
44200000.0 -2.622070000e-01 1.434798000e+00
45100000.0 -2.823480000e-01 1.442791000e+00
46000000.0 -3.024940000e-01 1.448861000e+00
46900000.0 -3.232040000e-01 1.454247000e+00
47800000.0 -3.431550000e-01 1.458928000e+00
48700000.0 -3.663480000e-01 1.463353000e+00
49600000.0 -3.871270000e-01 1.468141000e+00
50500000.0 -4.086970000e-01 1.472337000e+00
51400000.0 -4.312910000e-01 1.474065000e+00
52300000.0 -4.549400000e-01 1.477773000e+00
53200000.0 -4.776140000e-01 1.480127000e+00
54100000.0 -4.999570000e-01 1.480602000e+00
55000000.0 -5.219000000e-01 1.481549000e+00
55900000.0 -5.461170000e-01 1.481204000e+00
56800000.0 -5.710000000e-01 1.480218000e+00
57700000.0 -5.952720000e-01 1.478559000e+00
58600000.0 -6.193980000e-01 1.476397000e+00
59500000.0 -6.429170000e-01 1.475787000e+00
60400000.0 -6.675050000e-01 1.471591000e+00
61300000.0 -6.915390000e-01 1.467866000e+00
62200000.0 -7.166230000e-01 1.462313000e+00
63100000.0 -7.402380000e-01 1.458397000e+00
64000000.0 -7.637160000e-01 1.450298000e+00
64900000.0 -7.883010000e-01 1.443827000e+00
65800000.0 -8.125970000e-01 1.435707000e+00
66700000.0 -8.364550000e-01 1.427620000e+00
67600000.0 -8.610070000e-01 1.417532000e+00
68500000.0 -8.822660000e-01 1.409560000e+00
69400000.0 -9.069520000e-01 1.398923000e+00
70300000.0 -9.314500000e-01 1.386701000e+00
71200000.0 -9.518770000e-01 1.374756000e+00
72100000.0 -9.756760000e-01 1.361062000e+00
73000000.0 -9.973230000e-01 1.348636000e+00
73900000.0 -1.020100000e+00 1.334883000e+00
74800000.0 -1.039094000e+00 1.320425000e+00
75700000.0 -1.061481000e+00 1.304400000e+00
76600000.0 -1.080843000e+00 1.288872000e+00
77500000.0 -1.101732000e+00 1.272978000e+00
78400000.0 -1.120803000e+00 1.255721000e+00
79300000.0 -1.139237000e+00 1.236821000e+00
80200000.0 -1.156332000e+00 1.220422000e+00
81100000.0 -1.176339000e+00 1.201725000e+00
82000000.0 -1.193299000e+00 1.182071000e+00
82900000.0 -1.208332000e+00 1.161399000e+00
83800000.0 -1.224971000e+00 1.141250000e+00
84700000.0 -1.239316000e+00 1.122706000e+00
85600000.0 -1.255413000e+00 1.100186000e+00
86500000.0 -1.269241000e+00 1.079803000e+00
87400000.0 -1.282551000e+00 1.058429000e+00
88300000.0 -1.294306000e+00 1.035288000e+00
89200000.0 -1.307792000e+00 1.012168000e+00
90100000.0 -1.318308000e+00 9.903010000e-01
91000000.0 -1.326881000e+00 9.690990000e-01
91900000.0 -1.338752000e+00 9.460710000e-01
92800000.0 -1.347005000e+00 9.232010000e-01
93700000.0 -1.354868000e+00 9.000670000e-01
94600000.0 -1.363092000e+00 8.760960000e-01
95500000.0 -1.368769000e+00 8.534530000e-01
96400000.0 -1.374851000e+00 8.298790000e-01
97300000.0 -1.378877000e+00 8.059640000e-01
98200000.0 -1.384429000e+00 7.826580000e-01
99100000.0 -1.387379000e+00 7.587290000e-01
100000000.0 -1.389262000e+00 7.392150000e-01
109000000.0 -1.385774000e+00 5.189260000e-01
118000000.0 -1.330939000e+00 3.380450000e-01
127000000.0 -1.249908000e+00 1.999870000e-01
136000000.0 -1.134004000e+00 1.010360000e-01
145000000.0 -1.046997000e+00 2.954600000e-02
154000000.0 -1.000538000e+00 -7.730000000e-04
163000000.0 -1.002734000e+00 -3.987000000e-03
172000000.0 -1.004670000e+00 -5.640000000e-03
181000000.0 -1.006533000e+00 -8.310000000e-03
190000000.0 -1.007546000e+00 -9.927000000e-03
199000000.0 -1.008010000e+00 -1.031000000e-02
208000000.0 -1.009421000e+00 -1.117500000e-02
217000000.0 -1.010734000e+00 -1.185600000e-02
226000000.0 -1.010141000e+00 -1.107800000e-02
235000000.0 -1.010944000e+00 -1.160700000e-02
244000000.0 -1.010198000e+00 -1.166500000e-02
253000000.0 -1.009138000e+00 -9.014000000e-03
262000000.0 -1.008467000e+00 -9.536000000e-03
271000000.0 -1.005992000e+00 -7.276000000e-03
280000000.0 -1.005022000e+00 -5.342000000e-03
289000000.0 -1.003550000e+00 -3.070000000e-03
298000000.0 -9.993990000e-01 -2.730000000e-04
307000000.0 -1.002503000e+00 -3.730000000e-04
316000000.0 -1.005641000e+00 -2.694000000e-03
325000000.0 -1.007795000e+00 -1.140000000e-03
334000000.0 -1.009621000e+00 -2.664000000e-03
343000000.0 -1.010460000e+00 -1.140000000e-03
352000000.0 -1.013779000e+00 -3.973000000e-03
361000000.0 -1.014358000e+00 -3.321000000e-03
370000000.0 -1.014688000e+00 -4.132000000e-03
379000000.0 -1.014077000e+00 -4.909000000e-03
388000000.0 -1.014511000e+00 -4.563000000e-03
397000000.0 -1.008042000e+00 1.206800000e-02
406000000.0 -1.020323000e+00 -3.638700000e-02
415000000.0 -1.007556000e+00 1.306900000e-02
424000000.0 -1.007698000e+00 -6.830000000e-04
433000000.0 -1.007289000e+00 -4.316000000e-03
442000000.0 -1.004420000e+00 -7.570000000e-04
451000000.0 -1.001363000e+00 -1.076000000e-03
460000000.0 -1.004112000e+00 2.420000000e-04
469000000.0 -1.007629000e+00 9.560000000e-04
478000000.0 -1.010367000e+00 2.491000000e-03
487000000.0 -1.012114000e+00 1.847000000e-03
496000000.0 -1.013252000e+00 3.492000000e-03
505000000.0 -1.016875000e+00 1.658000000e-03
514000000.0 -1.018065000e+00 1.803000000e-03
523000000.0 -1.016356000e+00 2.872000000e-03
532000000.0 -1.015284000e+00 3.377000000e-03
541000000.0 -1.015194000e+00 3.389000000e-03
550000000.0 -1.014654000e+00 8.850000000e-04
559000000.0 -1.013384000e+00 2.459000000e-03
568000000.0 -1.011263000e+00 2.878000000e-03
577000000.0 -1.011263000e+00 2.887000000e-03
586000000.0 -1.004425000e+00 2.009000000e-03
595000000.0 -1.003020000e+00 2.930000000e-04
604000000.0 -9.998310000e-01 4.205000000e-03
613000000.0 -1.000713000e+00 3.980000000e-03
622000000.0 -1.007174000e+00 8.917000000e-03
631000000.0 -1.007728000e+00 7.500000000e-03
640000000.0 -1.008603000e+00 8.813000000e-03
649000000.0 -1.009690000e+00 1.406000000e-02
658000000.0 -1.013098000e+00 1.140500000e-02
667000000.0 -1.010312000e+00 1.227400000e-02
676000000.0 -1.009171000e+00 1.229600000e-02
685000000.0 -1.012096000e+00 1.173800000e-02
694000000.0 -1.009616000e+00 1.105300000e-02
703000000.0 -1.008297000e+00 8.184000000e-03
712000000.0 -1.013733000e+00 6.344000000e-03
721000000.0 -1.005059000e+00 5.044000000e-03
730000000.0 -1.005225000e+00 9.687000000e-03
739000000.0 -1.001021000e+00 5.836000000e-03
748000000.0 -9.984220000e-01 2.947000000e-03
757000000.0 -9.961010000e-01 5.491000000e-03
766000000.0 -9.988120000e-01 3.675000000e-03
775000000.0 -9.984910000e-01 6.505000000e-03
784000000.0 -1.000241000e+00 5.569000000e-03
793000000.0 -9.960660000e-01 5.799000000e-03
802000000.0 -9.980250000e-01 8.934000000e-03
811000000.0 -9.964660000e-01 1.055900000e-02
820000000.0 -9.978360000e-01 9.752000000e-03
829000000.0 -9.997100000e-01 4.730000000e-03
838000000.0 -9.984210000e-01 7.578000000e-03
847000000.0 -9.951810000e-01 3.250000000e-03
856000000.0 -9.963350000e-01 5.671000000e-03
865000000.0 -9.995630000e-01 2.024000000e-03
874000000.0 -9.982480000e-01 2.299000000e-03
883000000.0 -9.951400000e-01 3.611000000e-03
892000000.0 -1.002283000e+00 3.113000000e-03
901000000.0 -9.996540000e-01 -7.960000000e-04
910000000.0 -9.994410000e-01 -6.360000000e-03
919000000.0 -1.001822000e+00 -4.163000000e-03
928000000.0 -1.000364000e+00 -7.183000000e-03
937000000.0 -9.987790000e-01 -4.474000000e-03
946000000.0 -9.991670000e-01 -4.761000000e-03
955000000.0 -1.001492000e+00 -6.780000000e-03
964000000.0 -1.002704000e+00 -6.873000000e-03
973000000.0 -1.003028000e+00 -8.876000000e-03
982000000.0 -1.001855000e+00 -7.998000000e-03
991000000.0 -1.002945000e+00 -7.505000000e-03
1000000000.0 -1.003091000e+00 -1.053200000e-02
1004500000.0 -1.002285000e+00 -3.122000000e-03
1009000000.0 -9.997710000e-01 -8.900000000e-04
1013500000.0 -1.003045000e+00 -2.211000000e-03
1018000000.0 -1.001437000e+00 -5.828000000e-03
1022500000.0 -1.002493000e+00 -6.718000000e-03
1027000000.0 -1.000669000e+00 -9.010000000e-03
1031500000.0 -1.000443000e+00 -3.044000000e-03
1036000000.0 -1.001117000e+00 -1.768000000e-03
1040500000.0 -1.002156000e+00 -4.261000000e-03
1045000000.0 -1.002131000e+00 -1.983000000e-03
1049500000.0 -9.990370000e-01 -5.770000000e-04
1054000000.0 -1.001188000e+00 7.700000000e-05
1058500000.0 -1.002805000e+00 -6.831000000e-03
1063000000.0 -1.003097000e+00 -8.386000000e-03
1067500000.0 -1.001890000e+00 -6.420000000e-03
1072000000.0 -1.007341000e+00 -1.444300000e-02
1076500000.0 -1.005845000e+00 -7.447000000e-03
1081000000.0 -1.003662000e+00 -5.220000000e-03
1085500000.0 -1.008351000e+00 -7.855000000e-03
1090000000.0 -1.006059000e+00 -7.325000000e-03
1094500000.0 -1.003042000e+00 -7.822000000e-03
1099000000.0 -1.006826000e+00 -1.152700000e-02
1103500000.0 -1.003415000e+00 -1.222100000e-02
1108000000.0 -1.010818000e+00 -1.240600000e-02
1112500000.0 -1.007517000e+00 -1.420100000e-02
1117000000.0 -1.003390000e+00 -1.183900000e-02
1121500000.0 -1.010292000e+00 -1.560200000e-02
1126000000.0 -1.009813000e+00 -6.668000000e-03
1130500000.0 -1.010855000e+00 -9.035000000e-03
1135000000.0 -1.007196000e+00 -5.280000000e-03
1139500000.0 -1.011654000e+00 -8.939000000e-03
1144000000.0 -1.006415000e+00 -7.782000000e-03
1148500000.0 -1.005761000e+00 -6.800000000e-03
1153000000.0 -1.009722000e+00 -6.190000000e-03
1157500000.0 -9.981740000e-01 8.496000000e-03
1162000000.0 -1.005985000e+00 -9.258000000e-03
1166500000.0 -9.993100000e-01 -2.026000000e-03
1171000000.0 -1.008370000e+00 -2.268400000e-02
1175500000.0 -1.001709000e+00 -2.039000000e-03
1180000000.0 -9.968230000e-01 1.392400000e-02
1184500000.0 -1.003753000e+00 -3.895000000e-03
1189000000.0 -1.004270000e+00 -1.871900000e-02
1193500000.0 -1.005130000e+00 -8.852000000e-03
1198000000.0 -9.950400000e-01 1.563300000e-02
1202500000.0 -9.996700000e-01 -1.133400000e-02
1207000000.0 -9.943080000e-01 -2.317700000e-02
1211500000.0 -1.000986000e+00 -2.414200000e-02
1216000000.0 -1.001304000e+00 -6.953000000e-03
1220500000.0 -1.001161000e+00 -2.689000000e-03
1225000000.0 -1.001868000e+00 7.388000000e-03
1229500000.0 -1.000853000e+00 -2.846000000e-03
1234000000.0 -1.004940000e+00 -3.230000000e-03
1238500000.0 -1.003866000e+00 -1.342000000e-03
1243000000.0 -1.008512000e+00 -1.284700000e-02
1247500000.0 -1.006812000e+00 -5.701000000e-03
1252000000.0 -1.003173000e+00 1.250000000e-04
1256500000.0 -1.004052000e+00 -9.868000000e-03
1261000000.0 -1.009077000e+00 -1.070900000e-02
1265500000.0 -1.011209000e+00 -6.818000000e-03
1270000000.0 -1.007401000e+00 -4.391000000e-03
1274500000.0 -1.007010000e+00 -8.305000000e-03
1279000000.0 -1.007320000e+00 -8.001000000e-03
1283500000.0 -1.004967000e+00 -6.430000000e-03
1288000000.0 -1.003173000e+00 -8.708000000e-03
1292500000.0 -1.004905000e+00 3.957000000e-03
1297000000.0 -1.004437000e+00 -2.393000000e-03
1301500000.0 -1.005345000e+00 -7.744000000e-03
1306000000.0 -1.004703000e+00 -8.582000000e-03
1310500000.0 -1.001851000e+00 -4.520000000e-04
1315000000.0 -9.945720000e-01 -3.827000000e-03
1319500000.0 -9.989700000e-01 -3.550000000e-03
1324000000.0 -1.003084000e+00 -5.400000000e-03
1328500000.0 -9.993760000e-01 -2.679000000e-03
1333000000.0 -9.929510000e-01 3.742000000e-03
1337500000.0 -9.949330000e-01 -2.057000000e-03
1342000000.0 -9.977670000e-01 -7.214000000e-03
1346500000.0 -9.982580000e-01 8.800000000e-05
1351000000.0 -9.952170000e-01 -2.393000000e-03
1355500000.0 -9.942780000e-01 -7.200000000e-04
1360000000.0 -9.979270000e-01 -2.029000000e-03
1364500000.0 -9.975710000e-01 -4.646000000e-03
1369000000.0 -9.959990000e-01 -6.857000000e-03
1373500000.0 -9.989320000e-01 -9.943000000e-03
1378000000.0 -1.000178000e+00 4.090000000e-04
1382500000.0 -1.009945000e+00 1.747000000e-03
1387000000.0 -9.980830000e-01 -1.238000000e-03
1391500000.0 -1.002822000e+00 1.470000000e-03
1396000000.0 -1.003080000e+00 -6.312000000e-03
1400500000.0 -1.008267000e+00 -9.330000000e-04
1405000000.0 -1.006530000e+00 -1.275000000e-03
1409500000.0 -1.005812000e+00 -2.965000000e-03
1414000000.0 -1.016231000e+00 -5.663000000e-03
1418500000.0 -1.005632000e+00 -1.740000000e-03
1423000000.0 -1.012049000e+00 3.487000000e-03
1427500000.0 -1.015268000e+00 -2.396000000e-03
1432000000.0 -1.011419000e+00 -7.317000000e-03
1436500000.0 -1.008582000e+00 -3.156000000e-03
1441000000.0 -1.008794000e+00 -5.473000000e-03
1445500000.0 -1.011954000e+00 -9.854000000e-03
1450000000.0 -1.009500000e+00 -4.761000000e-03
