! piloto_deriva / corto_deriva / r32
# HZ S RI R 50
50000.0 -9.938680000e-01 -3.674700000e-02
59500.0 -9.960290000e-01 -1.804100000e-02
69000.0 -9.981760000e-01 -4.809000000e-03
78500.0 -9.985000000e-01 -1.065000000e-03
88000.0 -9.995350000e-01 -6.700000000e-05
97500.0 -9.998410000e-01 -7.500000000e-05
107000.0 -9.994110000e-01 -3.061000000e-03
116500.0 -1.000164000e+00 -5.817000000e-03
126000.0 -9.996220000e-01 -1.047300000e-02
135500.0 -9.995910000e-01 -1.540400000e-02
145000.0 -1.000437000e+00 -2.298800000e-02
154500.0 -1.000367000e+00 -2.965300000e-02
164000.0 -1.000465000e+00 -3.642300000e-02
173500.0 -9.996680000e-01 -4.424800000e-02
183000.0 -9.998230000e-01 -5.124400000e-02
192500.0 -1.000326000e+00 -6.027800000e-02
202000.0 -1.000156000e+00 -6.822200000e-02
211500.0 -1.000491000e+00 -7.708800000e-02
221000.0 -1.000646000e+00 -8.663100000e-02
230500.0 -1.000428000e+00 -9.460200000e-02
240000.0 -1.001211000e+00 -1.030600000e-01
249500.0 -1.001318000e+00 -1.132880000e-01
259000.0 -1.001320000e+00 -1.221600000e-01
268500.0 -1.000976000e+00 -1.316830000e-01
278000.0 -1.001349000e+00 -1.408420000e-01
287500.0 -1.001872000e+00 -1.497760000e-01
297000.0 -1.002139000e+00 -1.592890000e-01
306500.0 -1.001815000e+00 -1.696090000e-01
316000.0 -1.002572000e+00 -1.773680000e-01
325500.0 -1.003578000e+00 -1.872690000e-01
335000.0 -1.003148000e+00 -1.970570000e-01
344500.0 -1.002954000e+00 -2.055360000e-01
354000.0 -1.003664000e+00 -2.153000000e-01
363500.0 -1.004476000e+00 -2.238740000e-01
373000.0 -1.004200000e+00 -2.332500000e-01
382500.0 -1.004086000e+00 -2.430430000e-01
392000.0 -1.005084000e+00 -2.524100000e-01
401500.0 -1.004634000e+00 -2.615690000e-01
411000.0 -1.004359000e+00 -2.713920000e-01
420500.0 -1.004824000e+00 -2.808430000e-01
430000.0 -1.004942000e+00 -2.899810000e-01
439500.0 -1.005411000e+00 -2.985310000e-01
449000.0 -1.005189000e+00 -3.086280000e-01
458500.0 -1.005990000e+00 -3.181390000e-01
468000.0 -1.005784000e+00 -3.271810000e-01
477500.0 -1.006115000e+00 -3.356870000e-01
487000.0 -1.006136000e+00 -3.459540000e-01
496500.0 -1.006687000e+00 -3.548820000e-01
506000.0 -1.007162000e+00 -3.637250000e-01
515500.0 -1.007365000e+00 -3.733880000e-01
525000.0 -1.007675000e+00 -3.829130000e-01
534500.0 -1.008302000e+00 -3.925080000e-01
544000.0 -1.007968000e+00 -4.011500000e-01
553500.0 -1.007962000e+00 -4.100840000e-01
563000.0 -1.007466000e+00 -4.189750000e-01
572500.0 -1.008568000e+00 -4.287920000e-01
582000.0 -1.009620000e+00 -4.381250000e-01
591500.0 -1.010196000e+00 -4.463420000e-01
601000.0 -1.011015000e+00 -4.556790000e-01
610500.0 -1.011894000e+00 -4.648680000e-01
620000.0 -1.011213000e+00 -4.735280000e-01
629500.0 -1.011813000e+00 -4.837730000e-01
639000.0 -1.012887000e+00 -4.920860000e-01
648500.0 -1.013759000e+00 -5.017790000e-01
658000.0 -1.013688000e+00 -5.106700000e-01
667500.0 -1.015122000e+00 -5.198180000e-01
677000.0 -1.015665000e+00 -5.283190000e-01
686500.0 -1.016421000e+00 -5.371230000e-01
696000.0 -1.017644000e+00 -5.476790000e-01
705500.0 -1.017987000e+00 -5.562110000e-01
715000.0 -1.017783000e+00 -5.643700000e-01
724500.0 -1.019799000e+00 -5.731940000e-01
734000.0 -1.020611000e+00 -5.827810000e-01
743500.0 -1.021216000e+00 -5.909290000e-01
753000.0 -1.021772000e+00 -6.005780000e-01
762500.0 -1.023545000e+00 -6.094670000e-01
772000.0 -1.024836000e+00 -6.188520000e-01
781500.0 -1.026635000e+00 -6.265970000e-01
791000.0 -1.026598000e+00 -6.364050000e-01
800500.0 -1.028275000e+00 -6.451510000e-01
810000.0 -1.029081000e+00 -6.548020000e-01
819500.0 -1.031334000e+00 -6.622880000e-01
829000.0 -1.031721000e+00 -6.711950000e-01
838500.0 -1.034378000e+00 -6.803860000e-01
848000.0 -1.034135000e+00 -6.888650000e-01
857500.0 -1.035207000e+00 -6.972050000e-01
867000.0 -1.039509000e+00 -7.062230000e-01
876500.0 -1.039918000e+00 -7.153090000e-01
886000.0 -1.042493000e+00 -7.240240000e-01
895500.0 -1.043573000e+00 -7.330460000e-01
905000.0 -1.044576000e+00 -7.409140000e-01
914500.0 -1.047681000e+00 -7.504700000e-01
924000.0 -1.049084000e+00 -7.570210000e-01
933500.0 -1.051466000e+00 -7.663370000e-01
943000.0 -1.053497000e+00 -7.738620000e-01
952500.0 -1.057036000e+00 -7.821860000e-01
962000.0 -1.058688000e+00 -7.927190000e-01
971500.0 -1.061194000e+00 -8.007250000e-01
981000.0 -1.062193000e+00 -8.088270000e-01
990500.0 -1.064693000e+00 -8.174670000e-01
1000000.0 -1.067254000e+00 -8.264460000e-01
1090000.0 -1.097846000e+00 -9.023480000e-01
1180000.0 -1.134558000e+00 -9.765930000e-01
1270000.0 -1.181444000e+00 -1.046177000e+00
1360000.0 -1.240597000e+00 -1.105533000e+00
1450000.0 -1.306441000e+00 -1.153693000e+00
1540000.0 -1.389748000e+00 -1.192887000e+00
1630000.0 -1.470145000e+00 -1.210275000e+00
1720000.0 -1.561926000e+00 -1.211729000e+00
1810000.0 -1.653191000e+00 -1.189269000e+00
1900000.0 -1.732832000e+00 -1.144025000e+00
1990000.0 -1.806927000e+00 -1.079692000e+00
2080000.0 -1.863049000e+00 -1.000141000e+00
2170000.0 -1.899878000e+00 -9.131590000e-01
2260000.0 -1.916991000e+00 -8.198170000e-01
2350000.0 -1.917181000e+00 -7.286260000e-01
2440000.0 -1.901409000e+00 -6.441310000e-01
2530000.0 -1.872023000e+00 -5.670420000e-01
2620000.0 -1.839748000e+00 -4.957370000e-01
2710000.0 -1.801341000e+00 -4.371130000e-01
2800000.0 -1.760140000e+00 -3.865500000e-01
2890000.0 -1.715101000e+00 -3.417740000e-01
2980000.0 -1.673288000e+00 -3.038870000e-01
3070000.0 -1.632843000e+00 -2.696070000e-01
3160000.0 -1.592019000e+00 -2.406110000e-01
3250000.0 -1.555566000e+00 -2.145610000e-01
3340000.0 -1.521855000e+00 -1.935140000e-01
3430000.0 -1.488593000e+00 -1.720810000e-01
3520000.0 -1.459872000e+00 -1.557830000e-01
3610000.0 -1.429343000e+00 -1.357330000e-01
3700000.0 -1.402708000e+00 -1.208980000e-01
3790000.0 -1.377658000e+00 -1.077640000e-01
3880000.0 -1.354930000e+00 -9.355000000e-02
3970000.0 -1.334113000e+00 -7.972100000e-02
4060000.0 -1.313035000e+00 -6.548400000e-02
4150000.0 -1.295784000e+00 -5.359100000e-02
4240000.0 -1.279000000e+00 -4.342100000e-02
4330000.0 -1.263062000e+00 -3.131500000e-02
4420000.0 -1.248534000e+00 -1.974700000e-02
4510000.0 -1.235982000e+00 -8.472000000e-03
4600000.0 -1.223358000e+00 4.031000000e-03
4690000.0 -1.213698000e+00 1.413000000e-02
4780000.0 -1.203313000e+00 2.582900000e-02
4870000.0 -1.193742000e+00 3.726300000e-02
4960000.0 -1.190642000e+00 2.640900000e-02
5050000.0 -1.171999000e+00 5.907700000e-02
5140000.0 -1.169184000e+00 5.084300000e-02
5230000.0 -1.158328000e+00 1.008390000e-01
5320000.0 -1.160634000e+00 7.054600000e-02
5410000.0 -1.147624000e+00 1.214130000e-01
5500000.0 -1.152403000e+00 9.172800000e-02
5590000.0 -1.139220000e+00 1.407180000e-01
5680000.0 -1.144062000e+00 1.114940000e-01
5770000.0 -1.132461000e+00 1.598040000e-01
5860000.0 -1.131644000e+00 1.511650000e-01
5950000.0 -1.128181000e+00 1.588010000e-01
6040000.0 -1.125836000e+00 1.681040000e-01
6130000.0 -1.123089000e+00 1.767060000e-01
6220000.0 -1.119643000e+00 1.837390000e-01
6310000.0 -1.117498000e+00 1.914980000e-01
6400000.0 -1.113867000e+00 1.995450000e-01
6490000.0 -1.112946000e+00 2.068160000e-01
6580000.0 -1.110877000e+00 2.120620000e-01
6670000.0 -1.108955000e+00 2.171710000e-01
6760000.0 -1.106784000e+00 2.245580000e-01
6850000.0 -1.106935000e+00 2.283480000e-01
6940000.0 -1.103569000e+00 2.324650000e-01
7030000.0 -1.104534000e+00 2.354070000e-01
7120000.0 -1.103170000e+00 2.391430000e-01
7210000.0 -1.102891000e+00 2.414910000e-01
7300000.0 -1.102144000e+00 2.426530000e-01
7390000.0 -1.101297000e+00 2.417480000e-01
7480000.0 -1.102517000e+00 2.422670000e-01
7570000.0 1.957120000e-01 1.073361000e+00
7660000.0 1.941000000e-01 1.074121000e+00
7750000.0 1.940970000e-01 1.073863000e+00
7840000.0 1.922960000e-01 1.074747000e+00
7930000.0 1.927490000e-01 1.074494000e+00
8020000.0 1.908490000e-01 1.075172000e+00
8110000.0 1.913480000e-01 1.075463000e+00
8200000.0 1.903820000e-01 1.076292000e+00
8290000.0 1.895350000e-01 1.076569000e+00
8380000.0 1.887430000e-01 1.077211000e+00
8470000.0 1.881690000e-01 1.077238000e+00
8560000.0 1.870190000e-01 1.078316000e+00
8650000.0 1.864420000e-01 1.077459000e+00
8740000.0 1.858720000e-01 1.078874000e+00
8830000.0 1.860470000e-01 1.079580000e+00
8920000.0 1.843720000e-01 1.079004000e+00
9010000.0 1.838940000e-01 1.081025000e+00
9100000.0 1.819510000e-01 1.080948000e+00
9190000.0 1.821490000e-01 1.081729000e+00
9280000.0 1.804840000e-01 1.082538000e+00
9370000.0 1.807730000e-01 1.082622000e+00
9460000.0 1.801640000e-01 1.084183000e+00
9550000.0 1.800060000e-01 1.084219000e+00
9640000.0 1.773180000e-01 1.085291000e+00
9730000.0 1.790270000e-01 1.085061000e+00
9820000.0 1.779230000e-01 1.086230000e+00
9910000.0 1.765850000e-01 1.086460000e+00
10000000.0 1.770940000e-01 1.086090000e+00
10900000.0 1.692170000e-01 1.095128000e+00
11800000.0 1.639500000e-01 1.102658000e+00
12700000.0 1.571870000e-01 1.110123000e+00
13600000.0 1.511110000e-01 1.118748000e+00
14500000.0 1.452470000e-01 1.127111000e+00
15400000.0 1.378980000e-01 1.136145000e+00
16300000.0 1.307220000e-01 1.145007000e+00
17200000.0 1.235710000e-01 1.154655000e+00
18100000.0 1.167050000e-01 1.164182000e+00
19000000.0 1.094140000e-01 1.173018000e+00
19900000.0 1.011160000e-01 1.182740000e+00
20800000.0 9.309700000e-02 1.191363000e+00
21700000.0 8.416300000e-02 1.201979000e+00
22600000.0 7.504900000e-02 1.212014000e+00
23500000.0 6.636500000e-02 1.220750000e+00
24400000.0 5.683100000e-02 1.231394000e+00
25300000.0 4.715500000e-02 1.241019000e+00
26200000.0 3.673600000e-02 1.251765000e+00
27100000.0 2.493300000e-02 1.261894000e+00
28000000.0 1.351300000e-02 1.271491000e+00
28900000.0 2.461000000e-03 1.281755000e+00
29800000.0 -9.156000000e-03 1.292037000e+00
30700000.0 -2.202300000e-02 1.302312000e+00
31600000.0 -3.480600000e-02 1.312476000e+00
32500000.0 -4.935400000e-02 1.322709000e+00
33400000.0 -6.119200000e-02 1.330964000e+00
34300000.0 -7.593700000e-02 1.340774000e+00
35200000.0 -8.979400000e-02 1.351187000e+00
36100000.0 -1.064320000e-01 1.361682000e+00
37000000.0 -1.214300000e-01 1.370877000e+00
37900000.0 -1.385110000e-01 1.380102000e+00
38800000.0 -1.532040000e-01 1.388873000e+00
39700000.0 -1.699960000e-01 1.396864000e+00
40600000.0 -1.885360000e-01 1.404703000e+00
41500000.0 -2.057540000e-01 1.413523000e+00
42400000.0 -2.246270000e-01 1.420459000e+00
43300000.0 -2.434820000e-01 1.428185000e+00
44200000.0 -2.624920000e-01 1.434673000e+00
45100000.0 -2.823610000e-01 1.442241000e+00
46000000.0 -3.015570000e-01 1.449350000e+00
46900000.0 -3.249880000e-01 1.453512000e+00
47800000.0 -3.432250000e-01 1.458803000e+00
48700000.0 -3.656030000e-01 1.464051000e+00
49600000.0 -3.865630000e-01 1.468357000e+00
50500000.0 -4.086280000e-01 1.472282000e+00
51400000.0 -4.306830000e-01 1.475228000e+00
52300000.0 -4.537630000e-01 1.477004000e+00
53200000.0 -4.764740000e-01 1.479396000e+00
54100000.0 -4.994160000e-01 1.480092000e+00
55000000.0 -5.232910000e-01 1.479507000e+00
55900000.0 -5.480810000e-01 1.482529000e+00
56800000.0 -5.704880000e-01 1.480977000e+00
57700000.0 -5.955580000e-01 1.480590000e+00
58600000.0 -6.197050000e-01 1.478123000e+00
59500000.0 -6.430220000e-01 1.474610000e+00
60400000.0 -6.671120000e-01 1.472030000e+00
61300000.0 -6.912620000e-01 1.467326000e+00
62200000.0 -7.164130000e-01 1.462886000e+00
63100000.0 -7.400630000e-01 1.456124000e+00
64000000.0 -7.635080000e-01 1.450605000e+00
64900000.0 -7.880560000e-01 1.443767000e+00
65800000.0 -8.108800000e-01 1.436212000e+00
66700000.0 -8.369720000e-01 1.428513000e+00
67600000.0 -8.600240000e-01 1.419150000e+00
68500000.0 -8.841050000e-01 1.408144000e+00
69400000.0 -9.065330000e-01 1.396709000e+00
70300000.0 -9.315990000e-01 1.385741000e+00
71200000.0 -9.514410000e-01 1.375134000e+00
72100000.0 -9.752830000e-01 1.362186000e+00
73000000.0 -9.978470000e-01 1.348754000e+00
73900000.0 -1.019102000e+00 1.334330000e+00
74800000.0 -1.040034000e+00 1.320104000e+00
75700000.0 -1.060506000e+00 1.303508000e+00
76600000.0 -1.082271000e+00 1.288339000e+00
77500000.0 -1.102135000e+00 1.272796000e+00
78400000.0 -1.120440000e+00 1.255928000e+00
79300000.0 -1.140582000e+00 1.237474000e+00
80200000.0 -1.156913000e+00 1.220624000e+00
81100000.0 -1.175010000e+00 1.201181000e+00
82000000.0 -1.192936000e+00 1.181580000e+00
82900000.0 -1.209098000e+00 1.162213000e+00
83800000.0 -1.225529000e+00 1.141095000e+00
84700000.0 -1.240043000e+00 1.122451000e+00
85600000.0 -1.257039000e+00 1.100021000e+00
86500000.0 -1.268082000e+00 1.079471000e+00
87400000.0 -1.282004000e+00 1.058374000e+00
88300000.0 -1.294701000e+00 1.037294000e+00
89200000.0 -1.307500000e+00 1.014436000e+00
90100000.0 -1.318510000e+00 9.913450000e-01
91000000.0 -1.328899000e+00 9.687030000e-01
91900000.0 -1.338985000e+00 9.476460000e-01
92800000.0 -1.347700000e+00 9.226160000e-01
93700000.0 -1.354468000e+00 8.986160000e-01
94600000.0 -1.362816000e+00 8.771260000e-01
95500000.0 -1.368336000e+00 8.529820000e-01
96400000.0 -1.375651000e+00 8.298640000e-01
97300000.0 -1.380245000e+00 8.080110000e-01
98200000.0 -1.384713000e+00 7.840640000e-01
99100000.0 -1.387795000e+00 7.618060000e-01
100000000.0 -1.390350000e+00 7.375990000e-01
109000000.0 -1.385236000e+00 5.202890000e-01
118000000.0 -1.332260000e+00 3.405440000e-01
127000000.0 -1.249250000e+00 1.980470000e-01
136000000.0 -1.133757000e+00 1.001370000e-01
145000000.0 -1.045853000e+00 2.835300000e-02
154000000.0 -9.998900000e-01 -6.710000000e-04
163000000.0 -1.002346000e+00 -3.501000000e-03
172000000.0 -1.004431000e+00 -6.506000000e-03
181000000.0 -1.006904000e+00 -8.115000000e-03
190000000.0 -1.007690000e+00 -1.076800000e-02
199000000.0 -1.011658000e+00 -2.992600000e-02
208000000.0 -1.009425000e+00 -1.157100000e-02
217000000.0 -1.010232000e+00 -1.162000000e-02
226000000.0 -1.010438000e+00 -1.080100000e-02
235000000.0 -1.009952000e+00 -1.181500000e-02
244000000.0 -1.010095000e+00 -1.234000000e-02
253000000.0 -1.008274000e+00 -8.721000000e-03
262000000.0 -1.008487000e+00 -9.390000000e-03
271000000.0 -1.006875000e+00 -7.440000000e-03
280000000.0 -1.005314000e+00 -6.198000000e-03
289000000.0 -1.002594000e+00 -3.408000000e-03
298000000.0 -9.992550000e-01 -6.700000000e-05
307000000.0 -1.002787000e+00 4.100000000e-04
316000000.0 -1.006196000e+00 -2.345000000e-03
325000000.0 -1.009438000e+00 1.040000000e-04
334000000.0 -1.010722000e+00 -2.872000000e-03
343000000.0 -1.013369000e+00 -3.605000000e-03
352000000.0 -1.013698000e+00 -3.352000000e-03
361000000.0 -1.005513000e+00 3.077200000e-02
370000000.0 -1.005094000e+00 3.149100000e-02
379000000.0 -1.014665000e+00 -1.909000000e-03
388000000.0 -1.014411000e+00 -3.261000000e-03
397000000.0 -1.014517000e+00 -4.586000000e-03
406000000.0 -1.005732000e+00 1.353700000e-02
415000000.0 -1.027201000e+00 -5.267800000e-02
424000000.0 -1.008393000e+00 -1.720000000e-03
433000000.0 -1.005579000e+00 -3.650000000e-04
442000000.0 -1.002109000e+00 -1.238000000e-03
451000000.0 -9.994540000e-01 -8.830000000e-04
460000000.0 -1.003239000e+00 -2.280000000e-04
469000000.0 -1.007969000e+00 -2.080000000e-04
478000000.0 -1.009869000e+00 2.829000000e-03
487000000.0 -1.011373000e+00 2.355000000e-03
496000000.0 -1.014940000e+00 -6.930000000e-04
505000000.0 -1.016157000e+00 2.228000000e-03
514000000.0 -1.016143000e+00 1.830000000e-04
523000000.0 -1.016771000e+00 3.874000000e-03
532000000.0 -1.016818000e+00 1.535000000e-03
541000000.0 -1.017713000e+00 6.765000000e-03
550000000.0 -1.012976000e+00 1.374000000e-03
559000000.0 -1.013585000e+00 4.463000000e-03
568000000.0 -1.008890000e+00 2.416000000e-03
577000000.0 -1.009925000e+00 1.647000000e-03
586000000.0 -1.005297000e+00 4.600000000e-04
595000000.0 -1.002378000e+00 -3.320000000e-04
604000000.0 -1.001021000e+00 2.815000000e-03
613000000.0 -1.003026000e+00 4.638000000e-03
622000000.0 -1.005161000e+00 6.055000000e-03
631000000.0 -1.006643000e+00 1.004000000e-02
640000000.0 -1.008313000e+00 1.231500000e-02
649000000.0 -1.011366000e+00 1.424700000e-02
658000000.0 -1.011082000e+00 1.039400000e-02
667000000.0 -1.010976000e+00 1.096200000e-02
676000000.0 -1.010965000e+00 1.120000000e-02
685000000.0 -1.013050000e+00 1.365100000e-02
694000000.0 -1.009000000e+00 8.696000000e-03
703000000.0 -1.010165000e+00 8.309000000e-03
712000000.0 -1.014811000e+00 -2.529500000e-02
721000000.0 -1.005836000e+00 9.129000000e-03
730000000.0 -1.003498000e+00 7.495000000e-03
739000000.0 -1.001632000e+00 8.779000000e-03
748000000.0 -1.000308000e+00 -1.287000000e-03
757000000.0 -9.981140000e-01 3.301000000e-03
766000000.0 -9.995260000e-01 4.598000000e-03
775000000.0 -9.977660000e-01 4.521000000e-03
784000000.0 -9.974720000e-01 5.445000000e-03
793000000.0 -1.000880000e+00 7.692000000e-03
802000000.0 -9.981700000e-01 8.978000000e-03
811000000.0 -9.968540000e-01 1.205800000e-02
820000000.0 -9.983730000e-01 7.066000000e-03
829000000.0 -9.960640000e-01 8.536000000e-03
838000000.0 -9.944040000e-01 5.828000000e-03
847000000.0 -9.959500000e-01 3.531000000e-03
856000000.0 -1.000194000e+00 2.036000000e-03
865000000.0 -1.000422000e+00 5.661000000e-03
874000000.0 -9.961570000e-01 6.690000000e-04
883000000.0 -9.991990000e-01 -3.029000000e-03
892000000.0 -1.001376000e+00 -1.898000000e-03
901000000.0 -9.966280000e-01 1.400000000e-05
910000000.0 -1.002730000e+00 -3.193000000e-03
919000000.0 -1.001502000e+00 -5.521000000e-03
928000000.0 -9.989610000e-01 -4.367000000e-03
937000000.0 -9.982570000e-01 -8.805000000e-03
946000000.0 -9.979310000e-01 -5.843000000e-03
955000000.0 -1.001961000e+00 -7.362000000e-03
964000000.0 -1.004242000e+00 -5.034000000e-03
973000000.0 -1.002938000e+00 -1.104900000e-02
982000000.0 -1.001876000e+00 -3.727000000e-03
991000000.0 -1.001990000e+00 -1.016700000e-02
1000000000.0 -1.000875000e+00 -8.813000000e-03
1004500000.0 -1.000033000e+00 -8.344000000e-03
1009000000.0 -9.988880000e-01 -3.738000000e-03
1013500000.0 -1.000911000e+00 -9.709000000e-03
1018000000.0 -1.001444000e+00 -7.102000000e-03
1022500000.0 -1.001674000e+00 -9.835000000e-03
1027000000.0 -9.985570000e-01 -6.266000000e-03
1031500000.0 -1.001094000e+00 -3.868000000e-03
1036000000.0 -1.001224000e+00 -3.800000000e-03
1040500000.0 -1.003183000e+00 -6.520000000e-03
1045000000.0 -9.985720000e-01 -7.694000000e-03
1049500000.0 -1.000098000e+00 -6.986000000e-03
1054000000.0 -9.999790000e-01 -1.095400000e-02
1058500000.0 -9.984160000e-01 -1.206700000e-02
1063000000.0 -1.006269000e+00 -7.108000000e-03
1067500000.0 -1.004213000e+00 -5.970000000e-03
1072000000.0 -1.002263000e+00 -9.808000000e-03
1076500000.0 -1.001133000e+00 -5.419000000e-03
1081000000.0 -1.006226000e+00 -1.006900000e-02
1085500000.0 -1.006993000e+00 -1.043200000e-02
1090000000.0 -1.004112000e+00 -7.825000000e-03
1094500000.0 -1.007051000e+00 -9.877000000e-03
1099000000.0 -1.007635000e+00 -1.799800000e-02
1103500000.0 -1.004127000e+00 -1.058600000e-02
1108000000.0 -1.007029000e+00 -1.097600000e-02
1112500000.0 -1.004916000e+00 -1.210900000e-02
1117000000.0 -1.008115000e+00 -4.482000000e-03
1121500000.0 -1.008722000e+00 -6.869000000e-03
1126000000.0 -1.007025000e+00 -1.063300000e-02
1130500000.0 -1.009609000e+00 -1.141500000e-02
1135000000.0 -1.003754000e+00 -9.180000000e-03
1139500000.0 -1.007525000e+00 -1.474500000e-02
1144000000.0 -1.005145000e+00 -8.757000000e-03
1148500000.0 -1.001406000e+00 -8.413000000e-03
1153000000.0 -1.007985000e+00 -1.074100000e-02
1157500000.0 -1.005261000e+00 -1.010600000e-02
1162000000.0 -1.014076000e+00 -4.925500000e-02
1166500000.0 -1.006394000e+00 -7.414000000e-03
1171000000.0 -9.987420000e-01 -9.240000000e-04
1175500000.0 -1.000210000e+00 -8.735000000e-03
1180000000.0 -1.004400000e+00 -5.424000000e-03
1184500000.0 -9.999320000e-01 -8.822000000e-03
1189000000.0 -1.002235000e+00 -5.018000000e-03
1193500000.0 -9.965700000e-01 -9.751000000e-03
1198000000.0 -9.975540000e-01 9.280000000e-04
1202500000.0 -9.976180000e-01 1.018000000e-03
1207000000.0 -9.970490000e-01 -2.736000000e-03
1211500000.0 -1.000151000e+00 -1.931000000e-03
1216000000.0 -9.944450000e-01 1.254000000e-03
1220500000.0 -9.991690000e-01 -7.134000000e-03
1225000000.0 -1.002395000e+00 1.239000000e-03
1229500000.0 -9.977740000e-01 -5.209000000e-03
1234000000.0 -1.008125000e+00 -4.525000000e-03
1238500000.0 -1.004852000e+00 -4.090000000e-03
1243000000.0 -1.000831000e+00 -2.989000000e-03
1247500000.0 -1.002939000e+00 -2.880000000e-03
1252000000.0 -1.006972000e+00 -1.320500000e-02
1256500000.0 -1.005812000e+00 -5.829000000e-03
1261000000.0 -1.003369000e+00 -3.000000000e-04
1265500000.0 -1.001520000e+00 -7.683000000e-03
1270000000.0 -1.003789000e+00 -6.854000000e-03
1274500000.0 -1.011264000e+00 -3.677000000e-03
1279000000.0 -1.004180000e+00 -4.597000000e-03
1283500000.0 -1.004239000e+00 -4.964000000e-03
1288000000.0 -1.002108000e+00 -3.900000000e-03
1292500000.0 -1.002748000e+00 1.278000000e-03
1297000000.0 -9.997050000e-01 5.555000000e-03
1301500000.0 -1.002710000e+00 4.490000000e-03
1306000000.0 -9.272750000e-01 7.238600000e-02
1310500000.0 -9.977110000e-01 -5.948000000e-03
1315000000.0 -9.995940000e-01 -3.660000000e-04
1319500000.0 -1.001842000e+00 1.340000000e-03
1324000000.0 -1.000644000e+00 -7.446000000e-03
1328500000.0 -1.000879000e+00 -5.364000000e-03
1333000000.0 -1.000348000e+00 -1.612900000e-02
1337500000.0 -9.950290000e-01 2.665000000e-03
1342000000.0 -9.950660000e-01 -1.039800000e-02
1346500000.0 -9.930490000e-01 7.083000000e-03
1351000000.0 -9.861860000e-01 -6.541000000e-03
1355500000.0 -9.971910000e-01 -1.194000000e-03
1360000000.0 -9.939760000e-01 3.187000000e-03
1364500000.0 -1.000871000e+00 -7.740000000e-03
1369000000.0 -1.003841000e+00 -7.884000000e-03
1373500000.0 -9.992850000e-01 -2.819000000e-03
1378000000.0 -1.003454000e+00 -7.686000000e-03
1382500000.0 -1.000735000e+00 -2.273000000e-03
1387000000.0 -1.001982000e+00 9.970000000e-04
1391500000.0 -1.007897000e+00 -6.666000000e-03
1396000000.0 -1.004211000e+00 3.782000000e-03
1400500000.0 -9.994830000e-01 7.070000000e-04
1405000000.0 -1.010797000e+00 -1.074000000e-02
1409500000.0 -1.004575000e+00 -1.130000000e-03
1414000000.0 -1.008902000e+00 -1.126000000e-03
1418500000.0 -1.015948000e+00 -1.082200000e-02
1423000000.0 -1.018940000e+00 -1.329600000e-02
1427500000.0 -1.009725000e+00 -1.216400000e-02
1432000000.0 -1.013342000e+00 -9.240000000e-03
1436500000.0 -1.011098000e+00 -3.366000000e-03
1441000000.0 -1.008687000e+00 -6.019000000e-03
1445500000.0 -1.009880000e+00 -4.052000000e-03
1450000000.0 -1.010981000e+00 -2.355000000e-03
