! piloto_deriva / corto_deriva / r15
# HZ S RI R 50
50000.0 -9.945270000e-01 -3.648600000e-02
59500.0 -9.941400000e-01 -1.854000000e-02
69000.0 -9.980950000e-01 -4.906000000e-03
78500.0 -9.986930000e-01 -1.207000000e-03
88000.0 -9.989450000e-01 8.200000000e-04
97500.0 -9.992870000e-01 5.470000000e-04
107000.0 -9.999110000e-01 -2.026000000e-03
116500.0 -9.999690000e-01 -5.892000000e-03
126000.0 -9.996800000e-01 -1.100300000e-02
135500.0 -1.000016000e+00 -1.564600000e-02
145000.0 -9.996500000e-01 -2.254500000e-02
154500.0 -9.998810000e-01 -2.956200000e-02
164000.0 -1.000141000e+00 -3.577400000e-02
173500.0 -1.000837000e+00 -4.384900000e-02
183000.0 -1.000407000e+00 -5.184500000e-02
192500.0 -1.000527000e+00 -5.977400000e-02
202000.0 -1.000377000e+00 -6.892000000e-02
211500.0 -1.000969000e+00 -7.714500000e-02
221000.0 -1.000044000e+00 -8.626400000e-02
230500.0 -1.000311000e+00 -9.468000000e-02
240000.0 -1.001394000e+00 -1.027300000e-01
249500.0 -1.010105000e+00 -1.300910000e-01
259000.0 -1.001422000e+00 -1.221490000e-01
268500.0 -1.001885000e+00 -1.313950000e-01
278000.0 -1.001904000e+00 -1.407470000e-01
287500.0 -1.002068000e+00 -1.494660000e-01
297000.0 -1.001494000e+00 -1.590940000e-01
306500.0 -1.001851000e+00 -1.680580000e-01
316000.0 -1.002205000e+00 -1.776580000e-01
325500.0 -1.002675000e+00 -1.865980000e-01
335000.0 -1.003411000e+00 -1.961530000e-01
344500.0 -1.002913000e+00 -2.058540000e-01
354000.0 -1.003053000e+00 -2.142030000e-01
363500.0 -1.004031000e+00 -2.234020000e-01
373000.0 -1.004731000e+00 -2.331710000e-01
382500.0 -1.004728000e+00 -2.431400000e-01
392000.0 -1.004793000e+00 -2.524570000e-01
401500.0 -1.004181000e+00 -2.612350000e-01
411000.0 -1.004241000e+00 -2.700810000e-01
420500.0 -1.005520000e+00 -2.803570000e-01
430000.0 -1.005222000e+00 -2.898000000e-01
439500.0 -1.005856000e+00 -2.986390000e-01
449000.0 -1.006099000e+00 -3.080570000e-01
458500.0 -1.004980000e+00 -3.173350000e-01
468000.0 -1.005380000e+00 -3.269840000e-01
477500.0 -1.005878000e+00 -3.366870000e-01
487000.0 -1.006721000e+00 -3.449210000e-01
496500.0 -1.006407000e+00 -3.544300000e-01
506000.0 -1.007089000e+00 -3.633430000e-01
515500.0 -1.007352000e+00 -3.733450000e-01
525000.0 -1.006648000e+00 -3.817620000e-01
534500.0 -1.008667000e+00 -3.921180000e-01
544000.0 -1.008115000e+00 -4.008590000e-01
553500.0 -1.008470000e+00 -4.088080000e-01
563000.0 -1.009547000e+00 -4.200370000e-01
572500.0 -1.009147000e+00 -4.289040000e-01
582000.0 -1.010865000e+00 -4.380470000e-01
591500.0 -1.010861000e+00 -4.472610000e-01
601000.0 -1.011046000e+00 -4.552840000e-01
610500.0 -1.011544000e+00 -4.644710000e-01
620000.0 -1.012333000e+00 -4.738860000e-01
629500.0 -1.012155000e+00 -4.822150000e-01
639000.0 -1.012520000e+00 -4.911640000e-01
648500.0 -1.013914000e+00 -5.007410000e-01
658000.0 -1.013752000e+00 -5.108270000e-01
667500.0 -1.015106000e+00 -5.187740000e-01
677000.0 -1.015796000e+00 -5.274790000e-01
686500.0 -1.014781000e+00 -5.377380000e-01
696000.0 -1.017187000e+00 -5.465470000e-01
705500.0 -1.017511000e+00 -5.555280000e-01
715000.0 -1.018708000e+00 -5.642300000e-01
724500.0 -1.018541000e+00 -5.734240000e-01
734000.0 -1.020182000e+00 -5.820650000e-01
743500.0 -1.022095000e+00 -5.919390000e-01
753000.0 -1.021919000e+00 -6.005290000e-01
762500.0 -1.023020000e+00 -6.093060000e-01
772000.0 -1.025009000e+00 -6.181750000e-01
781500.0 -1.025999000e+00 -6.261690000e-01
791000.0 -1.027524000e+00 -6.360890000e-01
800500.0 -1.027745000e+00 -6.446740000e-01
810000.0 -1.029251000e+00 -6.535370000e-01
819500.0 -1.030720000e+00 -6.633260000e-01
829000.0 -1.031201000e+00 -6.706950000e-01
838500.0 -1.033510000e+00 -6.785340000e-01
848000.0 -1.034611000e+00 -6.885000000e-01
857500.0 -1.034713000e+00 -6.973710000e-01
867000.0 -1.037843000e+00 -7.044400000e-01
876500.0 -1.040250000e+00 -7.135460000e-01
886000.0 -1.040948000e+00 -7.217710000e-01
895500.0 -1.043545000e+00 -7.308100000e-01
905000.0 -1.043651000e+00 -7.388730000e-01
914500.0 -1.047163000e+00 -7.483630000e-01
924000.0 -1.048759000e+00 -7.556570000e-01
933500.0 -1.051471000e+00 -7.661800000e-01
943000.0 -1.053682000e+00 -7.740790000e-01
952500.0 -1.056185000e+00 -7.820290000e-01
962000.0 -1.058737000e+00 -7.901570000e-01
971500.0 -1.059487000e+00 -8.005650000e-01
981000.0 -1.061870000e+00 -8.075690000e-01
990500.0 -1.064831000e+00 -8.152810000e-01
1000000.0 -1.068430000e+00 -8.262480000e-01
1090000.0 -1.096188000e+00 -9.008540000e-01
1180000.0 -1.135412000e+00 -9.758740000e-01
1270000.0 -1.180570000e+00 -1.045442000e+00
1360000.0 -1.237865000e+00 -1.105933000e+00
1450000.0 -1.304474000e+00 -1.155053000e+00
1540000.0 -1.383977000e+00 -1.191923000e+00
1630000.0 -1.469175000e+00 -1.212274000e+00
1720000.0 -1.558978000e+00 -1.210665000e+00
1810000.0 -1.650427000e+00 -1.189903000e+00
1900000.0 -1.731023000e+00 -1.142876000e+00
1990000.0 -1.806089000e+00 -1.079974000e+00
2080000.0 -1.859762000e+00 -1.002471000e+00
2170000.0 -1.896311000e+00 -9.157250000e-01
2260000.0 -1.912102000e+00 -8.218110000e-01
2350000.0 -1.913858000e+00 -7.305710000e-01
2440000.0 -1.900854000e+00 -6.460380000e-01
2530000.0 -1.874096000e+00 -5.689360000e-01
2620000.0 -1.841645000e+00 -5.006700000e-01
2710000.0 -1.802269000e+00 -4.395210000e-01
2800000.0 -1.759752000e+00 -3.886620000e-01
2890000.0 -1.715801000e+00 -3.523890000e-01
2980000.0 -1.675130000e+00 -3.039070000e-01
3070000.0 -1.633973000e+00 -2.713300000e-01
3160000.0 -1.592472000e+00 -2.416600000e-01
3250000.0 -1.556471000e+00 -2.151000000e-01
3340000.0 -1.523072000e+00 -1.923640000e-01
3430000.0 -1.488072000e+00 -1.742330000e-01
3520000.0 -1.460306000e+00 -1.555820000e-01
3610000.0 -1.429335000e+00 -1.391730000e-01
3700000.0 -1.402843000e+00 -1.215000000e-01
3790000.0 -1.377829000e+00 -1.069780000e-01
3880000.0 -1.355462000e+00 -9.161800000e-02
3970000.0 -1.333687000e+00 -7.853700000e-02
4060000.0 -1.314003000e+00 -6.683600000e-02
4150000.0 -1.295681000e+00 -5.448600000e-02
4240000.0 -1.279760000e+00 -4.207300000e-02
4330000.0 -1.263264000e+00 -3.084200000e-02
4420000.0 -1.247776000e+00 -1.797500000e-02
4510000.0 -1.235901000e+00 -7.256000000e-03
4600000.0 -1.224379000e+00 5.517000000e-03
4690000.0 -1.213793000e+00 1.587500000e-02
4780000.0 -1.203427000e+00 2.633900000e-02
4870000.0 -1.194213000e+00 3.791300000e-02
4960000.0 -1.187260000e+00 4.818800000e-02
5050000.0 -1.173110000e+00 5.968700000e-02
5140000.0 -1.167999000e+00 7.096600000e-02
5230000.0 -1.162415000e+00 7.991500000e-02
5320000.0 -1.156264000e+00 9.146800000e-02
5410000.0 -1.152371000e+00 1.014320000e-01
5500000.0 -1.147539000e+00 1.127660000e-01
5590000.0 -1.144028000e+00 1.208460000e-01
5680000.0 -1.139573000e+00 1.311510000e-01
5770000.0 -1.135800000e+00 1.411270000e-01
5860000.0 -1.132299000e+00 1.499390000e-01
5950000.0 -1.136222000e+00 1.386400000e-01
6040000.0 -1.125728000e+00 1.679460000e-01
6130000.0 -1.122543000e+00 1.765980000e-01
6220000.0 -1.119754000e+00 1.850630000e-01
6310000.0 -1.117201000e+00 1.927230000e-01
6400000.0 -1.115234000e+00 1.999300000e-01
6490000.0 -1.112990000e+00 2.068990000e-01
6580000.0 -1.111071000e+00 2.131410000e-01
6670000.0 -1.108389000e+00 2.174610000e-01
6760000.0 -1.107151000e+00 2.240680000e-01
6850000.0 -1.106272000e+00 2.285640000e-01
6940000.0 -1.104634000e+00 2.319660000e-01
7030000.0 -1.104083000e+00 2.362080000e-01
7120000.0 -1.103704000e+00 2.387160000e-01
7210000.0 -1.102075000e+00 2.410820000e-01
7300000.0 -1.102425000e+00 2.418200000e-01
7390000.0 -1.100817000e+00 2.437410000e-01
7480000.0 -1.101992000e+00 2.417700000e-01
7570000.0 1.968740000e-01 1.073322000e+00
7660000.0 1.951930000e-01 1.073502000e+00
7750000.0 1.940710000e-01 1.074709000e+00
7840000.0 1.934170000e-01 1.074131000e+00
7930000.0 1.927290000e-01 1.074835000e+00
8020000.0 1.923830000e-01 1.075229000e+00
8110000.0 1.909770000e-01 1.075974000e+00
8200000.0 1.890860000e-01 1.076461000e+00
8290000.0 1.897580000e-01 1.076427000e+00
8380000.0 1.890730000e-01 1.077665000e+00
8470000.0 1.887510000e-01 1.078247000e+00
8560000.0 1.873410000e-01 1.078277000e+00
8650000.0 1.869360000e-01 1.078211000e+00
8740000.0 1.855970000e-01 1.078812000e+00
8830000.0 1.850500000e-01 1.079674000e+00
8920000.0 1.850330000e-01 1.079580000e+00
9010000.0 1.840930000e-01 1.080530000e+00
9100000.0 1.829910000e-01 1.081687000e+00
9190000.0 1.831850000e-01 1.081086000e+00
9280000.0 1.822100000e-01 1.081711000e+00
9370000.0 1.809390000e-01 1.083614000e+00
9460000.0 1.803410000e-01 1.083029000e+00
9550000.0 1.805680000e-01 1.085215000e+00
9640000.0 1.787010000e-01 1.084571000e+00
9730000.0 1.788400000e-01 1.086193000e+00
9820000.0 1.775040000e-01 1.086372000e+00
9910000.0 1.763130000e-01 1.087262000e+00
10000000.0 1.760890000e-01 1.086828000e+00
10900000.0 1.704760000e-01 1.093775000e+00
11800000.0 1.636050000e-01 1.102116000e+00
12700000.0 1.577600000e-01 1.110294000e+00
13600000.0 1.494800000e-01 1.118452000e+00
14500000.0 1.445870000e-01 1.127473000e+00
15400000.0 1.385230000e-01 1.136729000e+00
16300000.0 1.305510000e-01 1.145407000e+00
17200000.0 1.242180000e-01 1.154202000e+00
18100000.0 1.174620000e-01 1.163715000e+00
19000000.0 1.091970000e-01 1.172464000e+00
19900000.0 1.017050000e-01 1.181943000e+00
20800000.0 9.382600000e-02 1.191768000e+00
21700000.0 8.463900000e-02 1.202420000e+00
22600000.0 7.626700000e-02 1.211731000e+00
23500000.0 6.619700000e-02 1.221753000e+00
24400000.0 5.612100000e-02 1.231371000e+00
25300000.0 4.704100000e-02 1.241360000e+00
26200000.0 3.492800000e-02 1.251098000e+00
27100000.0 2.507500000e-02 1.261516000e+00
28000000.0 1.416200000e-02 1.272031000e+00
28900000.0 1.864000000e-03 1.281674000e+00
29800000.0 -9.226000000e-03 1.292262000e+00
30700000.0 -2.123900000e-02 1.301475000e+00
31600000.0 -3.520800000e-02 1.312597000e+00
32500000.0 -4.826000000e-02 1.322323000e+00
33400000.0 -6.206400000e-02 1.332044000e+00
34300000.0 -7.591700000e-02 1.342055000e+00
35200000.0 -9.079600000e-02 1.351005000e+00
36100000.0 -1.051710000e-01 1.360806000e+00
37000000.0 -1.204920000e-01 1.369054000e+00
37900000.0 -1.390530000e-01 1.379576000e+00
38800000.0 -1.539980000e-01 1.387408000e+00
39700000.0 -1.709440000e-01 1.395499000e+00
40600000.0 -1.892230000e-01 1.404166000e+00
41500000.0 -2.059290000e-01 1.412730000e+00
42400000.0 -2.246740000e-01 1.421822000e+00
43300000.0 -2.440950000e-01 1.428430000e+00
44200000.0 -2.636500000e-01 1.436006000e+00
45100000.0 -2.817860000e-01 1.441909000e+00
46000000.0 -3.022710000e-01 1.448497000e+00
46900000.0 -3.246980000e-01 1.453096000e+00
47800000.0 -3.427670000e-01 1.458922000e+00
48700000.0 -3.652760000e-01 1.462760000e+00
49600000.0 -3.875570000e-01 1.468168000e+00
50500000.0 -4.082100000e-01 1.471779000e+00
51400000.0 -4.311240000e-01 1.475065000e+00
52300000.0 -4.539030000e-01 1.477682000e+00
53200000.0 -4.769150000e-01 1.479683000e+00
54100000.0 -4.983760000e-01 1.479934000e+00
55000000.0 -5.238950000e-01 1.480649000e+00
55900000.0 -5.474080000e-01 1.481650000e+00
56800000.0 -5.712990000e-01 1.481054000e+00
57700000.0 -5.951960000e-01 1.479995000e+00
58600000.0 -6.193140000e-01 1.479583000e+00
59500000.0 -6.430840000e-01 1.473944000e+00
60400000.0 -6.685730000e-01 1.471976000e+00
61300000.0 -6.921170000e-01 1.468235000e+00
62200000.0 -7.155200000e-01 1.461435000e+00
63100000.0 -7.417060000e-01 1.456737000e+00
64000000.0 -7.635890000e-01 1.450214000e+00
64900000.0 -7.882300000e-01 1.443481000e+00
65800000.0 -8.127260000e-01 1.436410000e+00
66700000.0 -8.368340000e-01 1.426628000e+00
67600000.0 -8.591870000e-01 1.417495000e+00
68500000.0 -8.832990000e-01 1.408179000e+00
69400000.0 -9.072530000e-01 1.396964000e+00
70300000.0 -9.297590000e-01 1.387588000e+00
71200000.0 -9.526940000e-01 1.373846000e+00
72100000.0 -9.739700000e-01 1.363066000e+00
73000000.0 -9.962640000e-01 1.348372000e+00
73900000.0 -1.019712000e+00 1.334789000e+00
74800000.0 -1.041501000e+00 1.318344000e+00
75700000.0 -1.061085000e+00 1.304348000e+00
76600000.0 -1.081379000e+00 1.289880000e+00
77500000.0 -1.101874000e+00 1.271986000e+00
78400000.0 -1.120258000e+00 1.255343000e+00
79300000.0 -1.138729000e+00 1.237665000e+00
80200000.0 -1.158645000e+00 1.219887000e+00
81100000.0 -1.176149000e+00 1.201465000e+00
82000000.0 -1.192688000e+00 1.181445000e+00
82900000.0 -1.209220000e+00 1.161635000e+00
83800000.0 -1.224120000e+00 1.141063000e+00
84700000.0 -1.239937000e+00 1.121257000e+00
85600000.0 -1.254619000e+00 1.100110000e+00
86500000.0 -1.267701000e+00 1.079023000e+00
87400000.0 -1.282616000e+00 1.056781000e+00
88300000.0 -1.294854000e+00 1.035302000e+00
89200000.0 -1.306703000e+00 1.013985000e+00
90100000.0 -1.317333000e+00 9.914350000e-01
91000000.0 -1.329617000e+00 9.679500000e-01
91900000.0 -1.338007000e+00 9.478590000e-01
92800000.0 -1.347148000e+00 9.233740000e-01
93700000.0 -1.355040000e+00 8.997760000e-01
94600000.0 -1.362919000e+00 8.762970000e-01
95500000.0 -1.369245000e+00 8.517750000e-01
96400000.0 -1.373755000e+00 8.304020000e-01
97300000.0 -1.380684000e+00 8.067500000e-01
98200000.0 -1.383324000e+00 7.837160000e-01
99100000.0 -1.387124000e+00 7.625710000e-01
100000000.0 -1.391113000e+00 7.381620000e-01
109000000.0 -1.383847000e+00 5.201230000e-01
118000000.0 -1.331491000e+00 3.381430000e-01
127000000.0 -1.249452000e+00 1.993330000e-01
136000000.0 -1.135072000e+00 9.988600000e-02
145000000.0 -1.046177000e+00 2.928400000e-02
154000000.0 -1.000389000e+00 -1.846000000e-03
163000000.0 -1.003862000e+00 -3.833000000e-03
172000000.0 -1.005213000e+00 -5.949000000e-03
181000000.0 -1.008718000e+00 -2.608900000e-02
190000000.0 -1.007530000e+00 -9.986000000e-03
199000000.0 -1.006520000e+00 7.425000000e-03
208000000.0 -1.009841000e+00 -1.190500000e-02
217000000.0 -1.010874000e+00 -2.878100000e-02
226000000.0 -1.010801000e+00 -1.115900000e-02
235000000.0 -1.008022000e+00 6.550000000e-03
244000000.0 -1.009485000e+00 -1.150800000e-02
253000000.0 -1.010598000e+00 -2.808400000e-02
262000000.0 -1.007051000e+00 -7.943000000e-03
271000000.0 -1.008396000e+00 -2.413700000e-02
280000000.0 -1.004389000e+00 -4.938000000e-03
289000000.0 -1.003146000e+00 -3.090000000e-03
298000000.0 -9.999170000e-01 -1.411000000e-03
307000000.0 -1.001893000e+00 -2.204000000e-03
316000000.0 -1.005201000e+00 -3.400000000e-04
325000000.0 -1.008754000e+00 -8.160000000e-04
334000000.0 -1.009416000e+00 -2.024000000e-03
343000000.0 -1.014467000e+00 -2.968000000e-03
352000000.0 -1.008533000e+00 3.025000000e-02
361000000.0 -1.015110000e+00 -4.978000000e-03
370000000.0 -1.011360000e+00 1.501800000e-02
379000000.0 -1.014859000e+00 -3.075000000e-03
388000000.0 -1.015093000e+00 -4.729000000e-03
397000000.0 -1.013667000e+00 -5.074000000e-03
406000000.0 -1.010093000e+00 1.469800000e-02
415000000.0 -1.009861000e+00 -3.080000000e-03
424000000.0 -1.009092000e+00 -1.831000000e-03
433000000.0 -1.007330000e+00 -3.393000000e-03
442000000.0 -1.002743000e+00 -2.710000000e-04
451000000.0 -1.000225000e+00 1.710000000e-04
460000000.0 -1.004435000e+00 -2.544000000e-03
469000000.0 -1.007858000e+00 2.436000000e-03
478000000.0 -1.010902000e+00 1.719000000e-03
487000000.0 -1.012519000e+00 1.678000000e-03
496000000.0 -1.014168000e+00 2.490000000e-03
505000000.0 -1.015250000e+00 2.843000000e-03
514000000.0 -1.014507000e+00 2.253000000e-03
523000000.0 -1.017921000e+00 3.754000000e-03
532000000.0 -1.017387000e+00 2.117000000e-03
541000000.0 -1.016957000e+00 2.882000000e-03
550000000.0 -1.014457000e+00 3.801000000e-03
559000000.0 -1.012885000e+00 3.754000000e-03
568000000.0 -1.009517000e+00 1.941000000e-03
577000000.0 -1.009001000e+00 1.309000000e-03
586000000.0 -1.007219000e+00 1.523000000e-03
595000000.0 -1.004392000e+00 6.870000000e-04
604000000.0 -1.001646000e+00 2.430000000e-03
613000000.0 -1.004397000e+00 2.769000000e-03
622000000.0 -1.007741000e+00 6.792000000e-03
631000000.0 -1.009855000e+00 6.093000000e-03
640000000.0 -1.009171000e+00 1.239500000e-02
649000000.0 -1.007906000e+00 1.338000000e-02
658000000.0 -1.010727000e+00 1.009000000e-02
667000000.0 -1.009086000e+00 1.027800000e-02
676000000.0 -1.011444000e+00 1.594200000e-02
685000000.0 -1.010842000e+00 9.783000000e-03
694000000.0 -1.005858000e+00 9.817000000e-03
703000000.0 -1.012983000e+00 1.014600000e-02
712000000.0 -1.008568000e+00 9.625000000e-03
721000000.0 -1.005000000e+00 1.062300000e-02
730000000.0 -1.003300000e+00 8.538000000e-03
739000000.0 -1.003259000e+00 6.538000000e-03
748000000.0 -1.000257000e+00 5.479000000e-03
757000000.0 -1.001476000e+00 4.324000000e-03
766000000.0 -9.998230000e-01 6.966000000e-03
775000000.0 -1.000070000e+00 5.892000000e-03
784000000.0 -9.986870000e-01 8.373000000e-03
793000000.0 -9.975000000e-01 5.721000000e-03
802000000.0 -9.989160000e-01 9.585000000e-03
811000000.0 -9.976150000e-01 8.266000000e-03
820000000.0 -9.983400000e-01 8.195000000e-03
829000000.0 -9.966690000e-01 5.934000000e-03
838000000.0 -9.946730000e-01 8.631000000e-03
847000000.0 -9.963240000e-01 8.038000000e-03
856000000.0 -9.970270000e-01 2.495000000e-03
865000000.0 -1.001137000e+00 -3.557000000e-03
874000000.0 -9.982740000e-01 1.442000000e-03
883000000.0 -9.981200000e-01 -1.565000000e-03
892000000.0 -9.974330000e-01 -1.686000000e-03
901000000.0 -9.985610000e-01 -2.862000000e-03
910000000.0 -1.000168000e+00 -7.340000000e-03
919000000.0 -9.998110000e-01 -4.668000000e-03
928000000.0 -1.000131000e+00 -8.618000000e-03
937000000.0 -9.986750000e-01 -5.844000000e-03
946000000.0 -9.985970000e-01 -2.631000000e-03
955000000.0 -9.994010000e-01 -7.429000000e-03
964000000.0 -1.002668000e+00 -2.838000000e-03
973000000.0 -1.002789000e+00 -3.273000000e-03
982000000.0 -1.001225000e+00 -6.826000000e-03
991000000.0 -1.002209000e+00 -4.938000000e-03
1000000000.0 -1.001283000e+00 -7.879000000e-03
1004500000.0 -1.001446000e+00 -8.343000000e-03
1009000000.0 -1.000863000e+00 -1.100200000e-02
1013500000.0 -1.001492000e+00 -6.909000000e-03
1018000000.0 -1.000643000e+00 -2.457000000e-03
1022500000.0 -1.000449000e+00 -4.841000000e-03
1027000000.0 -1.004376000e+00 -1.090500000e-02
1031500000.0 -1.000495000e+00 -8.784000000e-03
1036000000.0 -9.988590000e-01 -2.545000000e-03
1040500000.0 -9.995420000e-01 -5.912000000e-03
1045000000.0 -9.984040000e-01 -3.859000000e-03
1049500000.0 -1.001096000e+00 -7.629000000e-03
1054000000.0 -1.000537000e+00 -8.447000000e-03
1058500000.0 -1.001468000e+00 -2.800000000e-03
1063000000.0 -1.001704000e+00 -5.804000000e-03
1067500000.0 -1.002588000e+00 -5.696000000e-03
1072000000.0 -1.004588000e+00 -9.666000000e-03
1076500000.0 -1.001658000e+00 -9.725000000e-03
1081000000.0 -1.002419000e+00 -1.099200000e-02
1085500000.0 -1.003587000e+00 -1.361400000e-02
1090000000.0 -1.003652000e+00 -3.996000000e-03
1094500000.0 -1.007967000e+00 -1.329500000e-02
1099000000.0 -1.004344000e+00 -1.001200000e-02
1103500000.0 -1.006254000e+00 -1.281100000e-02
1108000000.0 -1.011461000e+00 -1.038700000e-02
1112500000.0 -1.007966000e+00 -1.027400000e-02
1117000000.0 -1.003828000e+00 -1.111000000e-02
1121500000.0 -1.006814000e+00 -1.500900000e-02
1126000000.0 -1.013196000e+00 -3.144600000e-02
1130500000.0 -1.012310000e+00 -1.300900000e-02
1135000000.0 -1.007849000e+00 -1.136200000e-02
1139500000.0 -1.006643000e+00 -5.541000000e-03
1144000000.0 -1.004668000e+00 -5.312000000e-03
1148500000.0 -1.002905000e+00 -1.403300000e-02
1153000000.0 -9.994230000e-01 -7.918000000e-03
1157500000.0 -9.849670000e-01 3.849100000e-02
1162000000.0 -9.853250000e-01 4.625900000e-02
1166500000.0 -1.001463000e+00 -4.782000000e-03
1171000000.0 -1.003764000e+00 -1.398200000e-02
1175500000.0 -9.975010000e-01 -7.307000000e-03
1180000000.0 -1.000760000e+00 -3.436000000e-03
1184500000.0 -9.984230000e-01 -3.719000000e-03
1189000000.0 -1.001688000e+00 -2.070000000e-03
1193500000.0 -9.932590000e-01 -2.960000000e-04
1198000000.0 -9.961380000e-01 -1.584000000e-03
1202500000.0 -9.968930000e-01 -8.956000000e-03
1207000000.0 -9.950880000e-01 -2.643000000e-03
1211500000.0 -9.983250000e-01 -2.445000000e-03
1216000000.0 -9.982060000e-01 4.861000000e-03
1220500000.0 -9.991770000e-01 -8.704000000e-03
1225000000.0 -9.955960000e-01 -8.029000000e-03
1229500000.0 -9.996900000e-01 -7.323000000e-03
1234000000.0 -1.005615000e+00 -9.075000000e-03
1238500000.0 -1.002607000e+00 -1.286000000e-03
1243000000.0 -1.003615000e+00 -6.690000000e-04
1247500000.0 -1.005392000e+00 -7.803000000e-03
1252000000.0 -1.006707000e+00 -4.382000000e-03
1256500000.0 -1.003748000e+00 -1.574500000e-02
1261000000.0 -9.998730000e-01 -6.714000000e-03
1265500000.0 -1.005062000e+00 -6.367000000e-03
1270000000.0 -1.004252000e+00 -5.518000000e-03
1274500000.0 -1.009312000e+00 -1.031700000e-02
1279000000.0 -1.007370000e+00 -9.244000000e-03
1283500000.0 -1.006087000e+00 -5.580000000e-04
1288000000.0 -1.005997000e+00 -6.255000000e-03
1292500000.0 -1.002718000e+00 -4.388000000e-03
1297000000.0 -1.007113000e+00 -3.521000000e-03
1301500000.0 -9.968090000e-01 -8.468000000e-03
1306000000.0 -1.006390000e+00 -3.165000000e-03
1310500000.0 -9.986830000e-01 -4.605000000e-03
1315000000.0 -1.001867000e+00 -3.843000000e-03
1319500000.0 -9.957780000e-01 -1.155100000e-02
1324000000.0 -1.005409000e+00 -9.237000000e-03
1328500000.0 -9.979240000e-01 -3.054000000e-03
1333000000.0 -9.951240000e-01 -6.688000000e-03
1337500000.0 -1.002074000e+00 -3.729000000e-03
1342000000.0 -9.954050000e-01 -6.104000000e-03
1346500000.0 -9.960290000e-01 -1.129000000e-03
1351000000.0 -9.914030000e-01 -1.923000000e-03
1355500000.0 -9.922040000e-01 3.930000000e-04
1360000000.0 -9.920100000e-01 -6.732000000e-03
1364500000.0 -9.896010000e-01 2.863000000e-03
1369000000.0 -9.945270000e-01 -3.044000000e-03
1373500000.0 -1.001402000e+00 -3.869000000e-03
1378000000.0 -1.006086000e+00 -4.409000000e-03
1382500000.0 -1.005744000e+00 -2.196000000e-03
1387000000.0 -9.932500000e-01 3.579000000e-03
1391500000.0 -1.004726000e+00 -6.923000000e-03
1396000000.0 -1.009126000e+00 1.093000000e-03
1400500000.0 -1.002034000e+00 3.015000000e-03
1405000000.0 -1.001744000e+00 -8.409000000e-03
1409500000.0 -1.006049000e+00 -7.555000000e-03
1414000000.0 -1.009893000e+00 9.090000000e-04
1418500000.0 -1.013751000e+00 -8.312000000e-03
1423000000.0 -1.011976000e+00 -9.216000000e-03
1427500000.0 -1.019392000e+00 -1.339700000e-02
1432000000.0 -1.009483000e+00 -1.455000000e-02
1436500000.0 -1.009592000e+00 -4.666000000e-03
1441000000.0 -1.011808000e+00 -5.061000000e-03
1445500000.0 -1.012370000e+00 -5.388000000e-03
1450000000.0 -1.010675000e+00 -4.895000000e-03
