! piloto_deriva / corto_deriva / r44
# HZ S RI R 50
50000.0 -9.969530000e-01 -3.586700000e-02
59500.0 -9.994530000e-01 -1.713500000e-02
69000.0 -9.986040000e-01 -4.808000000e-03
78500.0 -9.986820000e-01 -1.085000000e-03
88000.0 -1.000134000e+00 6.040000000e-04
97500.0 -9.998040000e-01 -1.340000000e-04
107000.0 -9.995320000e-01 -2.998000000e-03
116500.0 -9.997910000e-01 -6.195000000e-03
126000.0 -9.992280000e-01 -1.108600000e-02
135500.0 -9.996190000e-01 -1.643900000e-02
145000.0 -1.000063000e+00 -2.339200000e-02
154500.0 -9.999970000e-01 -2.932700000e-02
164000.0 -1.000415000e+00 -3.648700000e-02
173500.0 -9.995960000e-01 -4.389400000e-02
183000.0 -1.000179000e+00 -5.216800000e-02
192500.0 -9.989160000e-01 -6.081200000e-02
202000.0 -9.998010000e-01 -6.920000000e-02
211500.0 -1.000642000e+00 -7.771300000e-02
221000.0 -9.999100000e-01 -8.611000000e-02
230500.0 -1.000021000e+00 -9.536300000e-02
240000.0 -1.000869000e+00 -1.043960000e-01
249500.0 -1.001298000e+00 -1.131820000e-01
259000.0 -1.000749000e+00 -1.227180000e-01
268500.0 -1.002014000e+00 -1.314460000e-01
278000.0 -1.002197000e+00 -1.404200000e-01
287500.0 -1.002064000e+00 -1.505130000e-01
297000.0 -1.001813000e+00 -1.593660000e-01
306500.0 -1.001789000e+00 -1.690610000e-01
316000.0 -1.002835000e+00 -1.790250000e-01
325500.0 -1.003216000e+00 -1.873020000e-01
335000.0 -1.003223000e+00 -1.970010000e-01
344500.0 -1.002836000e+00 -2.060890000e-01
354000.0 -1.003299000e+00 -2.151710000e-01
363500.0 -1.003983000e+00 -2.244330000e-01
373000.0 -1.003494000e+00 -2.340290000e-01
382500.0 -1.004393000e+00 -2.436850000e-01
392000.0 -1.004488000e+00 -2.523480000e-01
401500.0 -1.004866000e+00 -2.627090000e-01
411000.0 -1.018026000e+00 -2.693930000e-01
420500.0 -1.005505000e+00 -2.812350000e-01
430000.0 -1.006331000e+00 -2.900320000e-01
439500.0 -1.001191000e+00 -3.175070000e-01
449000.0 -1.009319000e+00 -2.899810000e-01
458500.0 -1.002118000e+00 -3.364490000e-01
468000.0 -1.010350000e+00 -3.088860000e-01
477500.0 -1.001784000e+00 -3.556870000e-01
487000.0 -1.010765000e+00 -3.283040000e-01
496500.0 -1.001802000e+00 -3.736400000e-01
506000.0 -1.012460000e+00 -3.456880000e-01
515500.0 -1.007160000e+00 -3.742240000e-01
525000.0 -1.007326000e+00 -3.836520000e-01
534500.0 -1.007800000e+00 -3.930110000e-01
544000.0 -1.008144000e+00 -4.029090000e-01
553500.0 -1.009071000e+00 -4.105210000e-01
563000.0 -1.009412000e+00 -4.192110000e-01
572500.0 -1.009454000e+00 -4.297810000e-01
582000.0 -1.010567000e+00 -4.379770000e-01
591500.0 -1.010764000e+00 -4.481260000e-01
601000.0 -1.010678000e+00 -4.571170000e-01
610500.0 -1.011361000e+00 -4.651230000e-01
620000.0 -1.013570000e+00 -4.746610000e-01
629500.0 -1.012855000e+00 -4.841310000e-01
639000.0 -1.012667000e+00 -4.934190000e-01
648500.0 -1.013409000e+00 -5.017500000e-01
658000.0 -1.014551000e+00 -5.112960000e-01
667500.0 -1.015361000e+00 -5.195850000e-01
677000.0 -1.015593000e+00 -5.294480000e-01
686500.0 -1.016819000e+00 -5.383100000e-01
696000.0 -1.017693000e+00 -5.475260000e-01
705500.0 -1.017798000e+00 -5.569510000e-01
715000.0 -1.018384000e+00 -5.659760000e-01
724500.0 -1.019654000e+00 -5.742840000e-01
734000.0 -1.020959000e+00 -5.836110000e-01
743500.0 -1.021545000e+00 -5.917240000e-01
753000.0 -1.023389000e+00 -6.005010000e-01
762500.0 -1.022980000e+00 -6.102190000e-01
772000.0 -1.024409000e+00 -6.187810000e-01
781500.0 -1.026132000e+00 -6.275920000e-01
791000.0 -1.027537000e+00 -6.363220000e-01
800500.0 -1.029357000e+00 -6.456410000e-01
810000.0 -1.029171000e+00 -6.536980000e-01
819500.0 -1.029957000e+00 -6.631320000e-01
829000.0 -1.030996000e+00 -6.715030000e-01
838500.0 -1.034476000e+00 -6.812090000e-01
848000.0 -1.035898000e+00 -6.890870000e-01
857500.0 -1.037730000e+00 -6.974460000e-01
867000.0 -1.038242000e+00 -7.079320000e-01
876500.0 -1.040043000e+00 -7.145560000e-01
886000.0 -1.041233000e+00 -7.249360000e-01
895500.0 -1.043986000e+00 -7.323770000e-01
905000.0 -1.044368000e+00 -7.408560000e-01
914500.0 -1.046325000e+00 -7.501650000e-01
924000.0 -1.050184000e+00 -7.588970000e-01
933500.0 -1.050280000e+00 -7.660550000e-01
943000.0 -1.052866000e+00 -7.764480000e-01
952500.0 -1.055970000e+00 -7.832870000e-01
962000.0 -1.057753000e+00 -7.932820000e-01
971500.0 -1.061189000e+00 -8.021360000e-01
981000.0 -1.063857000e+00 -8.104350000e-01
990500.0 -1.066367000e+00 -8.174460000e-01
1000000.0 -1.067707000e+00 -8.272400000e-01
1090000.0 -1.097462000e+00 -9.038150000e-01
1180000.0 -1.135745000e+00 -9.766660000e-01
1270000.0 -1.183001000e+00 -1.046486000e+00
1360000.0 -1.241681000e+00 -1.104650000e+00
1450000.0 -1.308981000e+00 -1.155849000e+00
1540000.0 -1.388334000e+00 -1.191034000e+00
1630000.0 -1.473478000e+00 -1.210839000e+00
1720000.0 -1.565685000e+00 -1.213829000e+00
1810000.0 -1.653625000e+00 -1.188320000e+00
1900000.0 -1.737791000e+00 -1.142423000e+00
1990000.0 -1.808727000e+00 -1.079736000e+00
2080000.0 -1.864280000e+00 -1.000119000e+00
2170000.0 -1.899238000e+00 -9.092680000e-01
2260000.0 -1.916856000e+00 -8.200900000e-01
2350000.0 -1.917437000e+00 -7.259440000e-01
2440000.0 -1.898542000e+00 -6.449220000e-01
2530000.0 -1.874823000e+00 -5.655890000e-01
2620000.0 -1.837467000e+00 -4.959800000e-01
2710000.0 -1.799582000e+00 -4.380190000e-01
2800000.0 -1.759171000e+00 -3.836430000e-01
2890000.0 -1.713165000e+00 -3.399860000e-01
2980000.0 -1.671052000e+00 -3.009700000e-01
3070000.0 -1.631574000e+00 -2.697480000e-01
3160000.0 -1.591077000e+00 -2.405070000e-01
3250000.0 -1.555636000e+00 -2.151770000e-01
3340000.0 -1.520165000e+00 -1.941540000e-01
3430000.0 -1.487711000e+00 -1.732820000e-01
3520000.0 -1.456348000e+00 -1.536870000e-01
3610000.0 -1.429682000e+00 -1.383500000e-01
3700000.0 -1.401422000e+00 -1.219960000e-01
3790000.0 -1.376984000e+00 -1.075750000e-01
3880000.0 -1.354795000e+00 -9.215700000e-02
3970000.0 -1.332804000e+00 -7.925900000e-02
4060000.0 -1.314703000e+00 -6.798400000e-02
4150000.0 -1.296443000e+00 -5.433500000e-02
4240000.0 -1.278150000e+00 -4.273200000e-02
4330000.0 -1.262239000e+00 -2.990000000e-02
4420000.0 -1.247601000e+00 -1.743500000e-02
4510000.0 -1.235257000e+00 -7.508000000e-03
4600000.0 -1.224000000e+00 3.740000000e-03
4690000.0 -1.213946000e+00 1.395900000e-02
4780000.0 -1.202519000e+00 2.633400000e-02
4870000.0 -1.195801000e+00 3.658400000e-02
4960000.0 -1.188355000e+00 4.688300000e-02
5050000.0 -1.172032000e+00 5.860000000e-02
5140000.0 -1.167559000e+00 6.889800000e-02
5230000.0 -1.160976000e+00 7.960300000e-02
5320000.0 -1.157314000e+00 9.077500000e-02
5410000.0 -1.151160000e+00 1.009830000e-01
5500000.0 -1.148332000e+00 1.121580000e-01
5590000.0 -1.144619000e+00 1.202550000e-01
5680000.0 -1.140027000e+00 1.310880000e-01
5770000.0 -1.136215000e+00 1.401190000e-01
5860000.0 -1.132234000e+00 1.507040000e-01
5950000.0 -1.127922000e+00 1.592210000e-01
6040000.0 -1.126098000e+00 1.690340000e-01
6130000.0 -1.121706000e+00 1.763360000e-01
6220000.0 -1.120484000e+00 1.848080000e-01
6310000.0 -1.115670000e+00 1.914940000e-01
6400000.0 -1.115559000e+00 1.998000000e-01
6490000.0 -1.112441000e+00 2.065460000e-01
6580000.0 -1.110668000e+00 2.130420000e-01
6670000.0 -1.103063000e+00 2.382100000e-01
6760000.0 -1.112698000e+00 2.049370000e-01
6850000.0 -1.099459000e+00 2.475680000e-01
6940000.0 -1.110448000e+00 2.118040000e-01
7030000.0 -1.097177000e+00 2.554280000e-01
7120000.0 -1.109107000e+00 2.191050000e-01
7210000.0 -1.103554000e+00 2.394830000e-01
7300000.0 -1.109138000e+00 2.228840000e-01
7390000.0 -1.102233000e+00 2.421750000e-01
7480000.0 -1.102426000e+00 2.431580000e-01
7570000.0 1.958600000e-01 1.073668000e+00
7660000.0 1.951740000e-01 1.073581000e+00
7750000.0 1.945130000e-01 1.074099000e+00
7840000.0 1.926250000e-01 1.074704000e+00
7930000.0 1.929800000e-01 1.074587000e+00
8020000.0 1.910710000e-01 1.075243000e+00
8110000.0 1.920840000e-01 1.076129000e+00
8200000.0 1.906590000e-01 1.075742000e+00
8290000.0 1.894970000e-01 1.077407000e+00
8380000.0 1.887930000e-01 1.077094000e+00
8470000.0 1.888330000e-01 1.077688000e+00
8560000.0 1.867420000e-01 1.078079000e+00
8650000.0 1.867020000e-01 1.078593000e+00
8740000.0 1.851480000e-01 1.079194000e+00
8830000.0 1.844380000e-01 1.080587000e+00
8920000.0 1.842510000e-01 1.079800000e+00
9010000.0 1.826410000e-01 1.080519000e+00
9100000.0 1.829000000e-01 1.079999000e+00
9190000.0 1.817870000e-01 1.081623000e+00
9280000.0 1.801560000e-01 1.080708000e+00
9370000.0 1.811050000e-01 1.082794000e+00
9460000.0 1.798370000e-01 1.084112000e+00
9550000.0 1.797950000e-01 1.083556000e+00
9640000.0 1.791230000e-01 1.084888000e+00
9730000.0 1.786570000e-01 1.084561000e+00
9820000.0 1.780440000e-01 1.087290000e+00
9910000.0 1.767790000e-01 1.087039000e+00
10000000.0 1.758780000e-01 1.086329000e+00
10900000.0 1.695190000e-01 1.094079000e+00
11800000.0 1.635340000e-01 1.101317000e+00
12700000.0 1.572640000e-01 1.109737000e+00
13600000.0 1.500980000e-01 1.118997000e+00
14500000.0 1.441430000e-01 1.127549000e+00
15400000.0 1.377470000e-01 1.136622000e+00
16300000.0 1.314920000e-01 1.144960000e+00
17200000.0 1.237910000e-01 1.154190000e+00
18100000.0 1.178910000e-01 1.164300000e+00
19000000.0 1.088260000e-01 1.173144000e+00
19900000.0 1.003350000e-01 1.182154000e+00
20800000.0 9.399000000e-02 1.191271000e+00
21700000.0 8.508200000e-02 1.201219000e+00
22600000.0 7.545500000e-02 1.211481000e+00
23500000.0 6.639300000e-02 1.221295000e+00
24400000.0 5.603700000e-02 1.231102000e+00
25300000.0 4.704700000e-02 1.241444000e+00
26200000.0 3.668600000e-02 1.251680000e+00
27100000.0 2.585400000e-02 1.262243000e+00
28000000.0 1.506400000e-02 1.272348000e+00
28900000.0 3.524000000e-03 1.282358000e+00
29800000.0 1.372000000e-02 1.288327000e+00
30700000.0 -2.264800000e-02 1.302392000e+00
31600000.0 -3.443700000e-02 1.312768000e+00
32500000.0 -4.724100000e-02 1.321473000e+00
33400000.0 -6.153900000e-02 1.331983000e+00
34300000.0 -7.694900000e-02 1.341088000e+00
35200000.0 -9.152400000e-02 1.351747000e+00
36100000.0 -1.052710000e-01 1.361069000e+00
37000000.0 -1.217900000e-01 1.370111000e+00
37900000.0 -1.373820000e-01 1.379165000e+00
38800000.0 -1.532270000e-01 1.388438000e+00
39700000.0 -1.703670000e-01 1.397468000e+00
40600000.0 -1.892890000e-01 1.405099000e+00
41500000.0 -2.068750000e-01 1.412374000e+00
42400000.0 -2.250310000e-01 1.420622000e+00
43300000.0 -2.424310000e-01 1.428566000e+00
44200000.0 -2.633910000e-01 1.435840000e+00
45100000.0 -2.819320000e-01 1.440685000e+00
46000000.0 -3.012190000e-01 1.447997000e+00
46900000.0 -3.231660000e-01 1.454291000e+00
47800000.0 -3.433880000e-01 1.459701000e+00
48700000.0 -3.651220000e-01 1.462702000e+00
49600000.0 -3.878860000e-01 1.467491000e+00
50500000.0 -4.093860000e-01 1.471579000e+00
51400000.0 -4.325720000e-01 1.475180000e+00
52300000.0 -4.539060000e-01 1.477140000e+00
53200000.0 -4.775070000e-01 1.479413000e+00
54100000.0 -4.991480000e-01 1.481127000e+00
55000000.0 -5.234200000e-01 1.480477000e+00
55900000.0 -5.472180000e-01 1.480758000e+00
56800000.0 -5.697940000e-01 1.481156000e+00
57700000.0 -5.948680000e-01 1.480133000e+00
58600000.0 -6.193080000e-01 1.477657000e+00
59500000.0 -6.437710000e-01 1.475217000e+00
60400000.0 -6.673360000e-01 1.471160000e+00
61300000.0 -6.918090000e-01 1.468271000e+00
62200000.0 -7.169220000e-01 1.463836000e+00
63100000.0 -7.405890000e-01 1.456447000e+00
64000000.0 -7.652310000e-01 1.451733000e+00
64900000.0 -7.889770000e-01 1.444594000e+00
65800000.0 -8.137740000e-01 1.435792000e+00
66700000.0 -8.371530000e-01 1.426556000e+00
67600000.0 -8.604200000e-01 1.417045000e+00
68500000.0 -8.834120000e-01 1.407702000e+00
69400000.0 -9.068870000e-01 1.397995000e+00
70300000.0 -9.300110000e-01 1.386301000e+00
71200000.0 -9.534080000e-01 1.375023000e+00
72100000.0 -9.754090000e-01 1.361648000e+00
73000000.0 -9.976280000e-01 1.349700000e+00
73900000.0 -1.018723000e+00 1.333820000e+00
74800000.0 -1.040284000e+00 1.319678000e+00
75700000.0 -1.061299000e+00 1.303391000e+00
76600000.0 -1.080922000e+00 1.288441000e+00
77500000.0 -1.101163000e+00 1.272572000e+00
78400000.0 -1.120201000e+00 1.254551000e+00
79300000.0 -1.139993000e+00 1.237822000e+00
80200000.0 -1.158470000e+00 1.220300000e+00
81100000.0 -1.176059000e+00 1.201225000e+00
82000000.0 -1.192164000e+00 1.181718000e+00
82900000.0 -1.209001000e+00 1.162140000e+00
83800000.0 -1.226484000e+00 1.142387000e+00
84700000.0 -1.239111000e+00 1.121577000e+00
85600000.0 -1.254856000e+00 1.100875000e+00
86500000.0 -1.268993000e+00 1.079573000e+00
87400000.0 -1.283553000e+00 1.057875000e+00
88300000.0 -1.294533000e+00 1.036702000e+00
89200000.0 -1.304347000e+00 1.012816000e+00
90100000.0 -1.317619000e+00 9.908390000e-01
91000000.0 -1.329384000e+00 9.684610000e-01
91900000.0 -1.338336000e+00 9.464200000e-01
92800000.0 -1.367607000e+00 9.024690000e-01
93700000.0 -1.355045000e+00 8.985890000e-01
94600000.0 -1.360804000e+00 8.766940000e-01
95500000.0 -1.367346000e+00 8.540570000e-01
96400000.0 -1.373889000e+00 8.301140000e-01
97300000.0 -1.379811000e+00 8.065560000e-01
98200000.0 -1.383980000e+00 7.834540000e-01
99100000.0 -1.388811000e+00 7.607800000e-01
100000000.0 -1.391369000e+00 7.375310000e-01
109000000.0 -1.386843000e+00 5.207320000e-01
118000000.0 -1.331588000e+00 3.376620000e-01
127000000.0 -1.248792000e+00 1.993730000e-01
136000000.0 -1.133903000e+00 1.004400000e-01
145000000.0 -1.045978000e+00 2.862100000e-02
154000000.0 -9.998440000e-01 -1.704000000e-03
163000000.0 -1.002508000e+00 -3.812000000e-03
172000000.0 -1.004502000e+00 -6.339000000e-03
181000000.0 -1.006586000e+00 -7.581000000e-03
190000000.0 -1.007255000e+00 -9.921000000e-03
199000000.0 -1.009413000e+00 -1.126200000e-02
208000000.0 -1.009499000e+00 -1.084800000e-02
217000000.0 -1.009738000e+00 -1.147900000e-02
226000000.0 -1.010827000e+00 -1.216000000e-02
235000000.0 -1.010807000e+00 -1.064900000e-02
244000000.0 -1.010252000e+00 -9.192000000e-03
253000000.0 -1.009171000e+00 -9.105000000e-03
262000000.0 -1.007543000e+00 -7.666000000e-03
271000000.0 -1.006376000e+00 -6.673000000e-03
280000000.0 -1.006961000e+00 -2.322100000e-02
289000000.0 -1.003145000e+00 -3.820000000e-03
298000000.0 -9.998520000e-01 -4.770000000e-04
307000000.0 -1.001557000e+00 -2.212000000e-03
316000000.0 -1.008698000e+00 -1.882500000e-02
325000000.0 -1.007487000e+00 -1.925000000e-03
334000000.0 -1.003746000e+00 3.274000000e-02
343000000.0 -1.010834000e+00 -2.494000000e-03
352000000.0 -1.010879000e+00 1.303400000e-02
361000000.0 -9.892830000e-01 6.140600000e-02
370000000.0 -1.012063000e+00 1.527300000e-02
379000000.0 -1.017444000e+00 -3.917500000e-02
388000000.0 -1.011887000e+00 1.374400000e-02
397000000.0 -1.013099000e+00 -3.658000000e-03
406000000.0 -1.021166000e+00 -3.764500000e-02
415000000.0 -1.011701000e+00 -1.326000000e-03
424000000.0 -1.009028000e+00 -2.198000000e-03
433000000.0 -1.005728000e+00 -1.789000000e-03
442000000.0 -1.004600000e+00 -8.560000000e-04
451000000.0 -1.001664000e+00 1.590000000e-04
460000000.0 -1.004058000e+00 1.049000000e-03
469000000.0 -1.006547000e+00 3.758000000e-03
478000000.0 -1.009726000e+00 1.012000000e-03
487000000.0 -1.012927000e+00 1.974000000e-03
496000000.0 -1.014474000e+00 2.545000000e-03
505000000.0 -1.015651000e+00 3.562000000e-03
514000000.0 -1.017325000e+00 2.309000000e-03
523000000.0 -1.015774000e+00 3.389000000e-03
532000000.0 -1.014880000e+00 3.172000000e-03
541000000.0 -1.017943000e+00 2.097000000e-03
550000000.0 -1.015560000e+00 1.847000000e-03
559000000.0 -1.011491000e+00 5.107000000e-03
568000000.0 -1.010479000e+00 2.418000000e-03
577000000.0 -1.009746000e+00 1.183000000e-03
586000000.0 -1.007482000e+00 1.563000000e-03
595000000.0 -1.001485000e+00 5.108000000e-03
604000000.0 -1.002173000e+00 3.200000000e-03
613000000.0 -1.005683000e+00 2.270000000e-03
622000000.0 -1.005729000e+00 4.284000000e-03
631000000.0 -1.008286000e+00 7.849000000e-03
640000000.0 -1.008631000e+00 6.354000000e-03
649000000.0 -1.010111000e+00 1.029600000e-02
658000000.0 -1.009967000e+00 1.339800000e-02
667000000.0 -1.012792000e+00 1.088100000e-02
676000000.0 -1.011769000e+00 1.245600000e-02
685000000.0 -1.010432000e+00 1.283400000e-02
694000000.0 -1.011038000e+00 1.253600000e-02
703000000.0 -1.007617000e+00 1.058600000e-02
712000000.0 -1.012626000e+00 8.263000000e-03
721000000.0 -1.007984000e+00 1.118300000e-02
730000000.0 -1.003078000e+00 4.683000000e-03
739000000.0 -1.001665000e+00 6.345000000e-03
748000000.0 -9.991380000e-01 6.190000000e-04
757000000.0 -1.001045000e+00 4.075000000e-03
766000000.0 -9.998390000e-01 4.089000000e-03
775000000.0 -1.000772000e+00 6.380000000e-03
784000000.0 -9.984650000e-01 3.849000000e-03
793000000.0 -9.978290000e-01 5.380000000e-03
802000000.0 -9.991030000e-01 4.379000000e-03
811000000.0 -9.961920000e-01 1.091900000e-02
820000000.0 -9.985380000e-01 1.135400000e-02
829000000.0 -9.996790000e-01 9.346000000e-03
838000000.0 -1.000400000e+00 5.758000000e-03
847000000.0 -9.969600000e-01 3.376000000e-03
856000000.0 -9.989290000e-01 1.394000000e-03
865000000.0 -9.986980000e-01 4.727000000e-03
874000000.0 -9.989090000e-01 6.064000000e-03
883000000.0 -9.960820000e-01 3.480000000e-03
892000000.0 -1.001958000e+00 -4.514000000e-03
901000000.0 -1.001572000e+00 2.524000000e-03
910000000.0 -9.976610000e-01 2.211000000e-03
919000000.0 -9.990670000e-01 -4.540000000e-03
928000000.0 -9.977270000e-01 -2.805000000e-03
937000000.0 -1.000055000e+00 -4.453000000e-03
946000000.0 -1.002051000e+00 -1.127300000e-02
955000000.0 -9.995140000e-01 -5.735000000e-03
964000000.0 -9.991340000e-01 -5.822000000e-03
973000000.0 -1.000373000e+00 -5.435000000e-03
982000000.0 -1.003415000e+00 -1.054600000e-02
991000000.0 -9.994070000e-01 -9.598000000e-03
1000000000.0 -1.002620000e+00 -6.313000000e-03
1004500000.0 -1.002171000e+00 -5.396000000e-03
1009000000.0 -9.984970000e-01 -3.161000000e-03
1013500000.0 -1.002092000e+00 -6.266000000e-03
1018000000.0 -1.001844000e+00 -6.026000000e-03
1022500000.0 -9.994250000e-01 -1.931000000e-03
1027000000.0 -1.002206000e+00 -2.242000000e-03
1031500000.0 -1.002441000e+00 -4.054000000e-03
1036000000.0 -1.002588000e+00 -6.633000000e-03
1040500000.0 -1.001213000e+00 -5.423000000e-03
1045000000.0 -1.000183000e+00 -9.768000000e-03
1049500000.0 -9.981010000e-01 -4.573000000e-03
1054000000.0 -1.000187000e+00 -7.719000000e-03
1058500000.0 -1.001009000e+00 -5.801000000e-03
1063000000.0 -1.003216000e+00 -8.097000000e-03
1067500000.0 -1.001189000e+00 -9.080000000e-04
1072000000.0 -1.004567000e+00 -1.220900000e-02
1076500000.0 -1.003262000e+00 -6.491000000e-03
1081000000.0 -1.004358000e+00 -8.015000000e-03
1085500000.0 -1.010097000e+00 -7.965000000e-03
1090000000.0 -1.008652000e+00 -8.491000000e-03
1094500000.0 -1.006030000e+00 -4.659000000e-03
1099000000.0 -1.007902000e+00 -1.323500000e-02
1103500000.0 -1.007919000e+00 -1.237500000e-02
1108000000.0 -1.006037000e+00 -2.900000000e-03
1112500000.0 -1.008543000e+00 -6.434000000e-03
1117000000.0 -1.008374000e+00 -6.007000000e-03
1121500000.0 -1.019273000e+00 -4.927900000e-02
1126000000.0 -1.007765000e+00 -1.341100000e-02
1130500000.0 -1.013351000e+00 -1.766700000e-02
1135000000.0 -1.007782000e+00 -1.039700000e-02
1139500000.0 -1.007467000e+00 -1.351000000e-02
1144000000.0 -9.787230000e-01 3.694100000e-02
1148500000.0 -1.001185000e+00 -4.377000000e-03
1153000000.0 -1.003378000e+00 -1.173300000e-02
1157500000.0 -1.001268000e+00 -6.124000000e-03
1162000000.0 -1.002462000e+00 -1.017400000e-02
1166500000.0 -1.002712000e+00 -1.293200000e-02
1171000000.0 -1.002650000e+00 -1.043900000e-02
1175500000.0 -1.001792000e+00 -8.199000000e-03
1180000000.0 -9.990790000e-01 -8.304000000e-03
1184500000.0 -1.000838000e+00 -8.521000000e-03
1189000000.0 -1.001927000e+00 -7.600000000e-03
1193500000.0 -9.964170000e-01 -2.080000000e-03
1198000000.0 -9.969550000e-01 -5.491000000e-03
1202500000.0 -9.952940000e-01 -5.980000000e-04
1207000000.0 -9.994240000e-01 -4.663000000e-03
1211500000.0 -9.956770000e-01 -6.318000000e-03
1216000000.0 -9.975400000e-01 -8.330000000e-03
1220500000.0 -1.004990000e+00 -1.084400000e-02
1225000000.0 -1.001885000e+00 -8.861000000e-03
1229500000.0 -1.002045000e+00 -8.078000000e-03
1234000000.0 -1.005393000e+00 -6.138000000e-03
1238500000.0 -1.008628000e+00 -6.338000000e-03
1243000000.0 -1.002103000e+00 3.113000000e-03
1247500000.0 -1.005591000e+00 -7.902000000e-03
1252000000.0 -1.003279000e+00 -8.181000000e-03
1256500000.0 -1.005377000e+00 -1.169800000e-02
1261000000.0 -1.002401000e+00 -7.388000000e-03
1265500000.0 -9.993290000e-01 -7.542000000e-03
1270000000.0 -1.003745000e+00 -9.328000000e-03
1274500000.0 -1.005422000e+00 -6.360000000e-04
1279000000.0 -1.008154000e+00 -1.138000000e-03
1283500000.0 -1.002592000e+00 -3.200000000e-03
1288000000.0 -1.005625000e+00 -3.586000000e-03
1292500000.0 -1.005679000e+00 4.024000000e-03
1297000000.0 -1.010500000e+00 -1.280100000e-02
1301500000.0 -9.983510000e-01 -9.959000000e-03
1306000000.0 -1.001137000e+00 -6.045000000e-03
1310500000.0 -9.971470000e-01 -6.365000000e-03
1315000000.0 -1.000155000e+00 3.968000000e-03
1319500000.0 -9.958200000e-01 -3.453000000e-03
1324000000.0 -9.925080000e-01 -5.146000000e-03
1328500000.0 -9.987610000e-01 -4.983000000e-03
1333000000.0 -9.944090000e-01 -1.230900000e-02
1337500000.0 -1.000123000e+00 3.899000000e-03
1342000000.0 -9.987480000e-01 -8.521000000e-03
1346500000.0 -9.885520000e-01 -5.119000000e-03
1351000000.0 -9.901790000e-01 -4.800000000e-05
1355500000.0 -9.909380000e-01 1.061000000e-03
1360000000.0 -9.992470000e-01 -2.301000000e-03
1364500000.0 -1.000567000e+00 -2.600000000e-05
1369000000.0 -1.001148000e+00 -9.062000000e-03
1373500000.0 -9.997590000e-01 -5.523000000e-03
1378000000.0 -9.971110000e-01 -3.880000000e-03
1382500000.0 -1.002277000e+00 -7.413000000e-03
1387000000.0 -1.004360000e+00 5.182000000e-03
1391500000.0 -1.005306000e+00 -6.246000000e-03
1396000000.0 -1.001474000e+00 1.421000000e-03
1400500000.0 -1.006160000e+00 6.975000000e-03
1405000000.0 -1.007970000e+00 -8.077000000e-03
1409500000.0 -1.008308000e+00 -4.526000000e-03
1414000000.0 -1.010819000e+00 8.610000000e-04
1418500000.0 -1.003803000e+00 -4.907000000e-03
1423000000.0 -1.008395000e+00 -1.220800000e-02
1427500000.0 -1.005798000e+00 -6.204000000e-03
1432000000.0 -1.011902000e+00 -8.131000000e-03
1436500000.0 -1.009140000e+00 -3.747000000e-03
1441000000.0 -1.011094000e+00 -9.715000000e-03
1445500000.0 -1.009386000e+00 -7.700000000e-03
1450000000.0 -1.011836000e+00 -5.940000000e-03
