! piloto_deriva / corto_deriva / r19
# HZ S RI R 50
50000.0 -9.988370000e-01 -3.691600000e-02
59500.0 -9.985200000e-01 -1.777700000e-02
69000.0 -9.976390000e-01 -7.048000000e-03
78500.0 -9.985250000e-01 -1.704000000e-03
88000.0 -1.000030000e+00 7.660000000e-04
97500.0 -9.998440000e-01 -3.100000000e-05
107000.0 -1.000161000e+00 -2.238000000e-03
116500.0 -1.000641000e+00 -6.111000000e-03
126000.0 -9.994120000e-01 -9.802000000e-03
135500.0 -1.000077000e+00 -1.702800000e-02
145000.0 -9.997440000e-01 -2.235500000e-02
154500.0 -9.995320000e-01 -2.839300000e-02
164000.0 -1.000209000e+00 -3.601200000e-02
173500.0 -1.000402000e+00 -4.375100000e-02
183000.0 -9.999430000e-01 -5.239900000e-02
192500.0 -9.998090000e-01 -6.084800000e-02
202000.0 -9.999820000e-01 -6.907500000e-02
211500.0 -1.000508000e+00 -7.716300000e-02
221000.0 -1.000414000e+00 -8.619600000e-02
230500.0 -1.001293000e+00 -9.431300000e-02
240000.0 -1.000811000e+00 -1.030840000e-01
249500.0 -1.000681000e+00 -1.122510000e-01
259000.0 -1.004676000e+00 -1.578930000e-01
268500.0 -1.002107000e+00 -1.314000000e-01
278000.0 -1.001786000e+00 -1.409710000e-01
287500.0 -1.001890000e+00 -1.493620000e-01
297000.0 -1.002534000e+00 -1.595460000e-01
306500.0 -1.002464000e+00 -1.684780000e-01
316000.0 -1.002543000e+00 -1.778060000e-01
325500.0 -1.002966000e+00 -1.867620000e-01
335000.0 -1.003001000e+00 -1.968650000e-01
344500.0 -1.003140000e+00 -2.064740000e-01
354000.0 -1.003896000e+00 -2.162900000e-01
363500.0 -1.003613000e+00 -2.240180000e-01
373000.0 -1.003821000e+00 -2.336870000e-01
382500.0 -1.004230000e+00 -2.421750000e-01
392000.0 -1.003169000e+00 -2.524040000e-01
401500.0 -1.003893000e+00 -2.615330000e-01
411000.0 -1.005222000e+00 -2.711220000e-01
420500.0 -1.005682000e+00 -2.797910000e-01
430000.0 -1.005002000e+00 -2.895900000e-01
439500.0 -1.004444000e+00 -2.989180000e-01
449000.0 -1.005670000e+00 -3.079630000e-01
458500.0 -1.005877000e+00 -3.176370000e-01
468000.0 -1.005591000e+00 -3.264960000e-01
477500.0 -1.006057000e+00 -3.354710000e-01
487000.0 -1.006841000e+00 -3.453860000e-01
496500.0 -1.007633000e+00 -3.553820000e-01
506000.0 -1.007226000e+00 -3.633350000e-01
515500.0 -1.007211000e+00 -3.729500000e-01
525000.0 -1.007469000e+00 -3.820490000e-01
534500.0 -1.007697000e+00 -3.914560000e-01
544000.0 -1.008964000e+00 -4.011640000e-01
553500.0 -1.008177000e+00 -4.095180000e-01
563000.0 -1.009634000e+00 -4.182800000e-01
572500.0 -1.008567000e+00 -4.280550000e-01
582000.0 -1.009516000e+00 -4.375400000e-01
591500.0 -1.010037000e+00 -4.467410000e-01
601000.0 -1.009960000e+00 -4.563110000e-01
610500.0 -1.011239000e+00 -4.654200000e-01
620000.0 -1.012335000e+00 -4.741700000e-01
629500.0 -1.012685000e+00 -4.838040000e-01
639000.0 -1.012477000e+00 -4.919490000e-01
648500.0 -1.012839000e+00 -5.012850000e-01
658000.0 -1.014257000e+00 -5.108220000e-01
667500.0 -1.014632000e+00 -5.198850000e-01
677000.0 -1.015521000e+00 -5.290440000e-01
686500.0 -1.016131000e+00 -5.374350000e-01
696000.0 -1.016852000e+00 -5.462740000e-01
705500.0 -1.017350000e+00 -5.551900000e-01
715000.0 -1.018315000e+00 -5.655240000e-01
724500.0 -1.019441000e+00 -5.731900000e-01
734000.0 -1.020220000e+00 -5.826460000e-01
743500.0 -1.022201000e+00 -5.908910000e-01
753000.0 -1.022418000e+00 -6.002500000e-01
762500.0 -1.023328000e+00 -6.098120000e-01
772000.0 -1.024816000e+00 -6.176430000e-01
781500.0 -1.025134000e+00 -6.255520000e-01
791000.0 -1.026142000e+00 -6.358350000e-01
800500.0 -1.027482000e+00 -6.447180000e-01
810000.0 -1.028492000e+00 -6.536380000e-01
819500.0 -1.030259000e+00 -6.612240000e-01
829000.0 -1.031998000e+00 -6.709050000e-01
838500.0 -1.034142000e+00 -6.800190000e-01
848000.0 -1.033504000e+00 -6.890820000e-01
857500.0 -1.035279000e+00 -6.966000000e-01
867000.0 -1.038035000e+00 -7.063550000e-01
876500.0 -1.039529000e+00 -7.138190000e-01
886000.0 -1.042118000e+00 -7.238240000e-01
895500.0 -1.042304000e+00 -7.304920000e-01
905000.0 -1.044862000e+00 -7.401880000e-01
914500.0 -1.047203000e+00 -7.488310000e-01
924000.0 -1.048196000e+00 -7.561940000e-01
933500.0 -1.051334000e+00 -7.659600000e-01
943000.0 -1.053010000e+00 -7.739010000e-01
952500.0 -1.056486000e+00 -7.818980000e-01
962000.0 -1.057801000e+00 -7.917660000e-01
971500.0 -1.060719000e+00 -7.985590000e-01
981000.0 -1.063725000e+00 -8.068430000e-01
990500.0 -1.063959000e+00 -8.152690000e-01
1000000.0 -1.069210000e+00 -8.254460000e-01
1090000.0 -1.096629000e+00 -9.029070000e-01
1180000.0 -1.133996000e+00 -9.759890000e-01
1270000.0 -1.181286000e+00 -1.043653000e+00
1360000.0 -1.258156000e+00 -1.079320000e+00
1450000.0 -1.305530000e+00 -1.155119000e+00
1540000.0 -1.403633000e+00 -1.163654000e+00
1630000.0 -1.449790000e+00 -1.240511000e+00
1720000.0 -1.580215000e+00 -1.179065000e+00
1810000.0 -1.629506000e+00 -1.222234000e+00
1900000.0 -1.749705000e+00 -1.111328000e+00
1990000.0 -1.788633000e+00 -1.116561000e+00
2080000.0 -1.874864000e+00 -9.668970000e-01
2170000.0 -1.884863000e+00 -9.493830000e-01
2260000.0 -1.917407000e+00 -8.246080000e-01
2350000.0 -1.917063000e+00 -7.323400000e-01
2440000.0 -1.900809000e+00 -6.481580000e-01
2530000.0 -1.873403000e+00 -5.670810000e-01
2620000.0 -1.838953000e+00 -4.988380000e-01
2710000.0 -1.798940000e+00 -4.364900000e-01
2800000.0 -1.758896000e+00 -3.878580000e-01
2890000.0 -1.716366000e+00 -3.426070000e-01
2980000.0 -1.674209000e+00 -3.054240000e-01
3070000.0 -1.633265000e+00 -2.707480000e-01
3160000.0 -1.594194000e+00 -2.411580000e-01
3250000.0 -1.557358000e+00 -2.142450000e-01
3340000.0 -1.520571000e+00 -1.939200000e-01
3430000.0 -1.488586000e+00 -1.741800000e-01
3520000.0 -1.460029000e+00 -1.538050000e-01
3610000.0 -1.428697000e+00 -1.366920000e-01
3700000.0 -1.403599000e+00 -1.208080000e-01
3790000.0 -1.377029000e+00 -1.072240000e-01
3880000.0 -1.355142000e+00 -9.301700000e-02
3970000.0 -1.334231000e+00 -7.902300000e-02
4060000.0 -1.314111000e+00 -6.830100000e-02
4150000.0 -1.295867000e+00 -5.594200000e-02
4240000.0 -1.279086000e+00 -4.184600000e-02
4330000.0 -1.263651000e+00 -3.004900000e-02
4420000.0 -1.249721000e+00 -1.885800000e-02
4510000.0 -1.235140000e+00 -7.379000000e-03
4600000.0 -1.224213000e+00 3.821000000e-03
4690000.0 -1.213781000e+00 1.570800000e-02
4780000.0 -1.203519000e+00 2.557800000e-02
4870000.0 -1.194550000e+00 3.810800000e-02
4960000.0 -1.187504000e+00 4.908700000e-02
5050000.0 -1.172727000e+00 6.002200000e-02
5140000.0 -1.166624000e+00 6.955000000e-02
5230000.0 -1.161975000e+00 7.968900000e-02
5320000.0 -1.157030000e+00 9.037700000e-02
5410000.0 -1.151464000e+00 1.022330000e-01
5500000.0 -1.148062000e+00 1.113770000e-01
5590000.0 -1.143885000e+00 1.212820000e-01
5680000.0 -1.139288000e+00 1.312910000e-01
5770000.0 -1.136841000e+00 1.409480000e-01
5860000.0 -1.132838000e+00 1.497120000e-01
5950000.0 -1.129422000e+00 1.592410000e-01
6040000.0 -1.125924000e+00 1.684690000e-01
6130000.0 -1.123100000e+00 1.770660000e-01
6220000.0 -1.120199000e+00 1.842820000e-01
6310000.0 -1.117147000e+00 1.926940000e-01
6400000.0 -1.115791000e+00 1.989550000e-01
6490000.0 -1.112839000e+00 2.061850000e-01
6580000.0 -1.111353000e+00 2.124550000e-01
6670000.0 -1.109204000e+00 2.189460000e-01
6760000.0 -1.106448000e+00 2.239340000e-01
6850000.0 -1.104932000e+00 2.286430000e-01
6940000.0 -1.104988000e+00 2.322210000e-01
7030000.0 -1.103655000e+00 2.365070000e-01
7120000.0 -1.103393000e+00 2.397180000e-01
7210000.0 -1.102531000e+00 2.403730000e-01
7300000.0 -1.102554000e+00 2.421530000e-01
7390000.0 -1.102655000e+00 2.420710000e-01
7480000.0 -1.102043000e+00 2.423090000e-01
7570000.0 1.954760000e-01 1.074111000e+00
7660000.0 1.949330000e-01 1.074203000e+00
7750000.0 1.945180000e-01 1.074663000e+00
7840000.0 1.930610000e-01 1.074521000e+00
7930000.0 1.921040000e-01 1.074348000e+00
8020000.0 1.920310000e-01 1.075636000e+00
8110000.0 1.915050000e-01 1.076010000e+00
8200000.0 1.902760000e-01 1.076290000e+00
8290000.0 1.897830000e-01 1.077200000e+00
8380000.0 1.889820000e-01 1.077914000e+00
8470000.0 1.878730000e-01 1.077330000e+00
8560000.0 1.880320000e-01 1.077830000e+00
8650000.0 1.859270000e-01 1.079384000e+00
8740000.0 1.855530000e-01 1.079561000e+00
8830000.0 1.851840000e-01 1.080170000e+00
8920000.0 1.840940000e-01 1.080087000e+00
9010000.0 1.833090000e-01 1.080398000e+00
9100000.0 1.830700000e-01 1.080323000e+00
9190000.0 1.826820000e-01 1.080938000e+00
9280000.0 1.814960000e-01 1.081268000e+00
9370000.0 1.810710000e-01 1.082890000e+00
9460000.0 1.802670000e-01 1.084378000e+00
9550000.0 1.797740000e-01 1.084465000e+00
9640000.0 1.790350000e-01 1.084464000e+00
9730000.0 1.781230000e-01 1.085644000e+00
9820000.0 1.774340000e-01 1.086032000e+00
9910000.0 1.761600000e-01 1.085761000e+00
10000000.0 1.760990000e-01 1.086627000e+00
10900000.0 1.691370000e-01 1.094046000e+00
11800000.0 1.628140000e-01 1.102655000e+00
12700000.0 1.563640000e-01 1.110581000e+00
13600000.0 1.514640000e-01 1.118110000e+00
14500000.0 1.438210000e-01 1.126780000e+00
15400000.0 1.381940000e-01 1.135342000e+00
16300000.0 1.317270000e-01 1.144652000e+00
17200000.0 1.239540000e-01 1.153371000e+00
18100000.0 1.157870000e-01 1.162973000e+00
19000000.0 1.087270000e-01 1.173642000e+00
19900000.0 1.014400000e-01 1.182375000e+00
20800000.0 9.343500000e-02 1.191423000e+00
21700000.0 8.381000000e-02 1.201358000e+00
22600000.0 7.486100000e-02 1.212551000e+00
23500000.0 6.749600000e-02 1.221830000e+00
24400000.0 5.623500000e-02 1.230315000e+00
25300000.0 4.649800000e-02 1.243265000e+00
26200000.0 3.591900000e-02 1.250767000e+00
27100000.0 2.588900000e-02 1.263343000e+00
28000000.0 1.482900000e-02 1.270938000e+00
28900000.0 1.836000000e-03 1.282315000e+00
29800000.0 -1.055160000e-01 1.474506000e+00
30700000.0 -2.120200000e-02 1.303631000e+00
31600000.0 -3.473500000e-02 1.311499000e+00
32500000.0 -4.756900000e-02 1.322067000e+00
33400000.0 -6.158800000e-02 1.331838000e+00
34300000.0 -7.635900000e-02 1.341571000e+00
35200000.0 -9.041500000e-02 1.351256000e+00
36100000.0 -1.060220000e-01 1.361943000e+00
37000000.0 -1.219740000e-01 1.369853000e+00
37900000.0 -1.376260000e-01 1.380350000e+00
38800000.0 -1.543720000e-01 1.387757000e+00
39700000.0 -1.711690000e-01 1.396524000e+00
40600000.0 -1.886200000e-01 1.405743000e+00
41500000.0 -2.069760000e-01 1.413377000e+00
42400000.0 -2.251890000e-01 1.420056000e+00
43300000.0 -2.439370000e-01 1.428774000e+00
44200000.0 -2.635710000e-01 1.436266000e+00
45100000.0 -2.830150000e-01 1.441939000e+00
46000000.0 -3.029630000e-01 1.448541000e+00
46900000.0 -3.231610000e-01 1.452885000e+00
47800000.0 -3.434550000e-01 1.457862000e+00
48700000.0 -3.666850000e-01 1.463565000e+00
49600000.0 -3.866520000e-01 1.467144000e+00
50500000.0 -4.083490000e-01 1.471435000e+00
51400000.0 -4.297730000e-01 1.474702000e+00
52300000.0 -4.541010000e-01 1.477275000e+00
53200000.0 -4.762620000e-01 1.480733000e+00
54100000.0 -4.997600000e-01 1.481308000e+00
55000000.0 -5.245250000e-01 1.481535000e+00
55900000.0 -5.474460000e-01 1.481959000e+00
56800000.0 -5.714430000e-01 1.479883000e+00
57700000.0 -5.946310000e-01 1.479878000e+00
58600000.0 -6.184260000e-01 1.479311000e+00
59500000.0 -6.430310000e-01 1.475398000e+00
60400000.0 -6.673630000e-01 1.471002000e+00
61300000.0 -6.916690000e-01 1.467944000e+00
62200000.0 -7.164790000e-01 1.461285000e+00
63100000.0 -7.403790000e-01 1.457676000e+00
64000000.0 -7.651280000e-01 1.450687000e+00
64900000.0 -7.895310000e-01 1.443413000e+00
65800000.0 -8.134110000e-01 1.436582000e+00
66700000.0 -8.366110000e-01 1.427438000e+00
67600000.0 -8.608640000e-01 1.417521000e+00
68500000.0 -8.848790000e-01 1.408270000e+00
69400000.0 -9.068990000e-01 1.396519000e+00
70300000.0 -9.294180000e-01 1.386131000e+00
71200000.0 -9.511940000e-01 1.374562000e+00
72100000.0 -9.747160000e-01 1.362071000e+00
73000000.0 -9.968990000e-01 1.348194000e+00
73900000.0 -1.019091000e+00 1.333011000e+00
74800000.0 -1.039693000e+00 1.319681000e+00
75700000.0 -1.060689000e+00 1.305490000e+00
76600000.0 -1.081442000e+00 1.287512000e+00
77500000.0 -1.100066000e+00 1.273090000e+00
78400000.0 -1.120390000e+00 1.253916000e+00
79300000.0 -1.137801000e+00 1.237776000e+00
80200000.0 -1.158261000e+00 1.220022000e+00
81100000.0 -1.175058000e+00 1.200682000e+00
82000000.0 -1.191198000e+00 1.181750000e+00
82900000.0 -1.209237000e+00 1.161252000e+00
83800000.0 -1.224864000e+00 1.141724000e+00
84700000.0 -1.240673000e+00 1.121916000e+00
85600000.0 -1.255463000e+00 1.100224000e+00
86500000.0 -1.269469000e+00 1.079321000e+00
87400000.0 -1.283819000e+00 1.057793000e+00
88300000.0 -1.294758000e+00 1.037445000e+00
89200000.0 -1.306340000e+00 1.013595000e+00
90100000.0 -1.317737000e+00 9.904750000e-01
91000000.0 -1.330098000e+00 9.689590000e-01
91900000.0 -1.338326000e+00 9.459960000e-01
92800000.0 -1.345506000e+00 9.227370000e-01
93700000.0 -1.354930000e+00 8.988520000e-01
94600000.0 -1.362463000e+00 8.769170000e-01
95500000.0 -1.369191000e+00 8.530700000e-01
96400000.0 -1.375100000e+00 8.296630000e-01
97300000.0 -1.379469000e+00 8.059360000e-01
98200000.0 -1.384950000e+00 7.833050000e-01
99100000.0 -1.387186000e+00 7.609650000e-01
100000000.0 -1.390842000e+00 7.386210000e-01
109000000.0 -1.384229000e+00 5.216460000e-01
118000000.0 -1.330965000e+00 3.386760000e-01
127000000.0 -1.249590000e+00 1.982370000e-01
136000000.0 -1.134686000e+00 1.002620000e-01
145000000.0 -1.046436000e+00 2.952300000e-02
154000000.0 -9.998350000e-01 -1.504000000e-03
163000000.0 -1.001896000e+00 -3.845000000e-03
172000000.0 -1.003743000e+00 -6.293000000e-03
181000000.0 -1.006306000e+00 -8.388000000e-03
190000000.0 -1.008162000e+00 -9.738000000e-03
199000000.0 -1.008799000e+00 -1.122400000e-02
208000000.0 -1.009821000e+00 -1.177100000e-02
217000000.0 -1.010010000e+00 -1.095800000e-02
226000000.0 -1.010316000e+00 -1.026000000e-02
235000000.0 -1.010735000e+00 -1.117400000e-02
244000000.0 -1.010247000e+00 -1.197500000e-02
253000000.0 -1.008429000e+00 -9.515000000e-03
262000000.0 -1.007430000e+00 -8.060000000e-03
271000000.0 -1.006565000e+00 -6.821000000e-03
280000000.0 -1.003985000e+00 -3.583000000e-03
289000000.0 -1.002156000e+00 -3.898000000e-03
298000000.0 -9.996650000e-01 -8.690000000e-04
307000000.0 -1.002626000e+00 -1.155000000e-03
316000000.0 -1.004778000e+00 1.231000000e-03
325000000.0 -1.006435000e+00 -2.309000000e-03
334000000.0 -1.009038000e+00 -1.670000000e-03
343000000.0 -1.013420000e+00 -3.425000000e-03
352000000.0 -1.013756000e+00 -2.357000000e-03
361000000.0 -1.023295000e+00 -3.926200000e-02
370000000.0 -1.014837000e+00 -3.601000000e-03
379000000.0 -1.014075000e+00 -4.790000000e-03
388000000.0 -1.022351000e+00 -3.921700000e-02
397000000.0 -1.013921000e+00 -3.884000000e-03
406000000.0 -1.012683000e+00 -1.926000000e-03
415000000.0 -1.013086000e+00 -2.084900000e-02
424000000.0 -1.008894000e+00 -2.077000000e-03
433000000.0 -1.005548000e+00 -2.300000000e-03
442000000.0 -1.005179000e+00 -1.281000000e-03
451000000.0 -1.000275000e+00 -1.921000000e-03
460000000.0 -1.004919000e+00 6.410000000e-04
469000000.0 -1.007614000e+00 2.504000000e-03
478000000.0 -1.010393000e+00 2.454000000e-03
487000000.0 -1.012586000e+00 2.163000000e-03
496000000.0 -1.014421000e+00 1.815000000e-03
505000000.0 -1.015506000e+00 4.806000000e-03
514000000.0 -1.016776000e+00 2.857000000e-03
523000000.0 -1.017885000e+00 4.310000000e-03
532000000.0 -1.018098000e+00 2.504000000e-03
541000000.0 -1.017849000e+00 2.863000000e-03
550000000.0 -1.013769000e+00 1.569000000e-03
559000000.0 -1.012208000e+00 2.560000000e-03
568000000.0 -1.012066000e+00 8.370000000e-04
577000000.0 -1.010243000e+00 3.395000000e-03
586000000.0 -1.006104000e+00 2.839000000e-03
595000000.0 -1.000561000e+00 -2.423000000e-03
604000000.0 -1.000729000e+00 4.520000000e-03
613000000.0 -1.004515000e+00 5.651000000e-03
622000000.0 -1.005117000e+00 9.214000000e-03
631000000.0 -1.005610000e+00 8.277000000e-03
640000000.0 -1.009388000e+00 1.027600000e-02
649000000.0 -1.010871000e+00 1.506000000e-02
658000000.0 -1.012118000e+00 1.484100000e-02
667000000.0 -1.011720000e+00 1.077500000e-02
676000000.0 -1.012651000e+00 1.334200000e-02
685000000.0 -1.010903000e+00 1.616800000e-02
694000000.0 -1.009095000e+00 1.322100000e-02
703000000.0 -1.007760000e+00 1.189200000e-02
712000000.0 -1.008541000e+00 8.207000000e-03
721000000.0 -1.003164000e+00 7.520000000e-03
730000000.0 -1.005146000e+00 7.594000000e-03
739000000.0 -1.000342000e+00 5.315000000e-03
748000000.0 -9.997080000e-01 5.456000000e-03
757000000.0 -9.976740000e-01 1.556000000e-03
766000000.0 -1.000796000e+00 2.738000000e-03
775000000.0 -9.990820000e-01 6.209000000e-03
784000000.0 -9.992420000e-01 4.918000000e-03
793000000.0 -9.994990000e-01 4.164000000e-03
802000000.0 -9.997080000e-01 4.475000000e-03
811000000.0 -9.988790000e-01 8.924000000e-03
820000000.0 -9.979710000e-01 5.274000000e-03
829000000.0 -1.001102000e+00 1.271700000e-02
838000000.0 -9.962420000e-01 9.047000000e-03
847000000.0 -9.963960000e-01 5.713000000e-03
856000000.0 -9.964760000e-01 6.744000000e-03
865000000.0 -9.995170000e-01 5.070000000e-04
874000000.0 -9.989650000e-01 3.527000000e-03
883000000.0 -9.996610000e-01 -3.008000000e-03
892000000.0 -9.988550000e-01 -2.487000000e-03
901000000.0 -9.977640000e-01 1.175000000e-03
910000000.0 -9.985210000e-01 8.030000000e-04
919000000.0 -1.001197000e+00 -4.141000000e-03
928000000.0 -9.989730000e-01 -2.426000000e-03
937000000.0 -9.990080000e-01 -3.487000000e-03
946000000.0 -1.000957000e+00 -5.728000000e-03
955000000.0 -1.000174000e+00 -4.030000000e-03
964000000.0 -1.002254000e+00 -2.249000000e-03
973000000.0 -1.003549000e+00 -7.462000000e-03
982000000.0 -1.003801000e+00 -6.875000000e-03
991000000.0 -1.000527000e+00 -6.857000000e-03
1000000000.0 -1.002758000e+00 -1.079700000e-02
1004500000.0 -1.001809000e+00 -9.466000000e-03
1009000000.0 -9.981150000e-01 -8.720000000e-03
1013500000.0 -1.001697000e+00 -1.092700000e-02
1018000000.0 -1.002801000e+00 -1.146800000e-02
1022500000.0 -1.002073000e+00 -4.924000000e-03
1027000000.0 -1.004530000e+00 -7.382000000e-03
1031500000.0 -1.002153000e+00 -2.084000000e-03
1036000000.0 -1.002052000e+00 -2.837000000e-03
1040500000.0 -1.001707000e+00 -5.890000000e-03
1045000000.0 -9.976000000e-01 -1.906000000e-03
1049500000.0 -9.987490000e-01 -2.890000000e-04
1054000000.0 -1.000641000e+00 -6.489000000e-03
1058500000.0 -1.002279000e+00 -9.640000000e-03
1063000000.0 -1.003891000e+00 -4.983000000e-03
1067500000.0 -1.002659000e+00 -6.899000000e-03
1072000000.0 -1.008603000e+00 -8.146000000e-03
1076500000.0 -9.990410000e-01 -9.452000000e-03
1081000000.0 -1.007936000e+00 -9.595000000e-03
1085500000.0 -1.006108000e+00 -8.996000000e-03
1090000000.0 -1.006038000e+00 -9.353000000e-03
1094500000.0 -1.007026000e+00 -7.870000000e-03
1099000000.0 -1.009580000e+00 -9.046000000e-03
1103500000.0 -1.009610000e+00 -1.390900000e-02
1108000000.0 -1.007996000e+00 -1.157900000e-02
1112500000.0 -1.009077000e+00 -7.380000000e-03
1117000000.0 -1.003976000e+00 -1.311200000e-02
1121500000.0 -1.007801000e+00 -7.530000000e-03
1126000000.0 -1.026005000e+00 -6.071100000e-02
1130500000.0 -1.002936000e+00 -6.847000000e-03
1135000000.0 -1.006911000e+00 -1.145400000e-02
1139500000.0 -1.006191000e+00 -4.976000000e-03
1144000000.0 -9.971070000e-01 2.586300000e-02
1148500000.0 -1.005870000e+00 -7.833000000e-03
1153000000.0 -1.000134000e+00 3.960000000e-04
1157500000.0 -1.006295000e+00 -6.318000000e-03
1162000000.0 -1.002285000e+00 -6.270000000e-03
1166500000.0 -1.002791000e+00 -1.077200000e-02
1171000000.0 -1.000878000e+00 -3.685000000e-03
1175500000.0 -1.000260000e+00 -8.032000000e-03
1180000000.0 -9.976420000e-01 -6.884000000e-03
1184500000.0 -9.992510000e-01 1.414000000e-03
1189000000.0 -9.990560000e-01 -3.507000000e-03
1193500000.0 -9.923860000e-01 3.664000000e-03
1198000000.0 -9.996070000e-01 -2.052000000e-03
1202500000.0 -1.000059000e+00 -2.962000000e-03
1207000000.0 -9.969530000e-01 3.953000000e-03
1211500000.0 -9.984010000e-01 -7.480000000e-04
1216000000.0 -9.984090000e-01 -5.914000000e-03
1220500000.0 -1.000149000e+00 -1.200100000e-02
1225000000.0 -1.004725000e+00 3.284000000e-03
1229500000.0 -1.003820000e+00 -3.770000000e-04
1234000000.0 -1.002296000e+00 -5.512000000e-03
1238500000.0 -9.992680000e-01 -2.826000000e-03
1243000000.0 -1.004664000e+00 -6.201000000e-03
1247500000.0 -1.007292000e+00 -9.086000000e-03
1252000000.0 -1.003753000e+00 1.621000000e-03
1256500000.0 -1.002077000e+00 -8.888000000e-03
1261000000.0 -1.001882000e+00 -8.224000000e-03
1265500000.0 -1.008222000e+00 -7.096000000e-03
1270000000.0 -1.001729000e+00 -4.710000000e-03
1274500000.0 -1.008629000e+00 -9.745000000e-03
1279000000.0 -1.003021000e+00 -5.108000000e-03
1283500000.0 -1.003671000e+00 -6.430000000e-04
1288000000.0 -1.006291000e+00 1.142000000e-03
1292500000.0 -1.002350000e+00 7.260000000e-04
1297000000.0 -1.002527000e+00 -4.317000000e-03
1301500000.0 -1.009491000e+00 -5.585000000e-03
1306000000.0 -1.009121000e+00 -1.702700000e-02
1310500000.0 -1.006075000e+00 1.377000000e-03
1315000000.0 -1.003467000e+00 -9.948000000e-03
1319500000.0 -1.002777000e+00 -3.272000000e-03
1324000000.0 -1.000578000e+00 -2.740000000e-04
1328500000.0 -1.006677000e+00 -3.966000000e-03
1333000000.0 -9.973200000e-01 -8.194000000e-03
1337500000.0 -9.914870000e-01 -4.733000000e-03
1342000000.0 -9.977350000e-01 3.900000000e-05
1346500000.0 -9.861940000e-01 3.644000000e-03
1351000000.0 -9.890600000e-01 -6.796000000e-03
1355500000.0 -9.924510000e-01 -1.742000000e-03
1360000000.0 -9.965790000e-01 -2.326000000e-03
1364500000.0 -9.978940000e-01 -7.226000000e-03
1369000000.0 -1.002460000e+00 -1.570800000e-02
1373500000.0 -1.000163000e+00 -2.451000000e-03
1378000000.0 -1.001754000e+00 -1.998000000e-03
1382500000.0 -1.006011000e+00 -5.349000000e-03
1387000000.0 -1.006906000e+00 -4.949000000e-03
1391500000.0 -1.003061000e+00 1.511000000e-03
1396000000.0 -1.002073000e+00 1.178000000e-03
1400500000.0 -1.004727000e+00 -2.467000000e-03
1405000000.0 -1.012273000e+00 -1.652000000e-03
1409500000.0 -1.010396000e+00 2.494000000e-03
1414000000.0 -1.006512000e+00 -8.917000000e-03
1418500000.0 -1.008803000e+00 -5.533000000e-03
1423000000.0 -1.015677000e+00 2.238000000e-03
1427500000.0 -1.014569000e+00 -1.160300000e-02
1432000000.0 -1.014869000e+00 -8.888000000e-03
1436500000.0 -1.013507000e+00 -5.733000000e-03
1441000000.0 -1.008704000e+00 -4.694000000e-03
1445500000.0 -1.010431000e+00 -4.374000000e-03
1450000000.0 -1.010005000e+00 -5.143000000e-03
