! piloto_deriva / sol_carga / r02
# HZ S RI R 50
50000.0 -2.899000000e-03 -2.610000000e-02
59500.0 -2.941000000e-03 -1.752700000e-02
69000.0 2.700000000e-05 -1.186000000e-02
78500.0 -1.347000000e-03 -7.743000000e-03
88000.0 -1.459000000e-03 -3.787000000e-03
97500.0 -6.030000000e-04 -2.890000000e-04
107000.0 -6.710000000e-04 1.869000000e-03
116500.0 3.690000000e-04 3.611000000e-03
126000.0 -9.510000000e-04 5.318000000e-03
135500.0 7.900000000e-04 7.006000000e-03
145000.0 7.680000000e-04 8.307000000e-03
154500.0 1.266000000e-03 9.554000000e-03
164000.0 1.195000000e-03 1.000300000e-02
173500.0 1.374000000e-03 1.088800000e-02
183000.0 1.045000000e-03 1.220500000e-02
192500.0 1.696000000e-03 1.337500000e-02
202000.0 1.940000000e-03 1.326000000e-02
211500.0 2.613000000e-03 1.452500000e-02
221000.0 1.917000000e-03 1.455400000e-02
230500.0 1.920000000e-03 1.508700000e-02
240000.0 2.183000000e-03 1.547200000e-02
249500.0 2.828000000e-03 1.682000000e-02
259000.0 2.368000000e-03 1.696300000e-02
268500.0 2.128000000e-03 1.754800000e-02
278000.0 2.802000000e-03 1.766100000e-02
287500.0 2.586000000e-03 1.733000000e-02
297000.0 2.968000000e-03 1.825200000e-02
306500.0 2.701000000e-03 1.881000000e-02
316000.0 2.884000000e-03 1.884500000e-02
325500.0 3.636000000e-03 1.881200000e-02
335000.0 3.553000000e-03 1.965700000e-02
344500.0 3.639000000e-03 1.980700000e-02
354000.0 3.626000000e-03 1.977200000e-02
363500.0 3.617000000e-03 1.997600000e-02
373000.0 3.693000000e-03 2.068900000e-02
382500.0 3.719000000e-03 2.137300000e-02
392000.0 4.202000000e-03 2.092200000e-02
401500.0 3.494000000e-03 2.132000000e-02
411000.0 4.190000000e-03 2.202200000e-02
420500.0 4.768000000e-03 2.247300000e-02
430000.0 4.093000000e-03 2.266000000e-02
439500.0 4.207000000e-03 2.194200000e-02
449000.0 3.957000000e-03 2.214100000e-02
458500.0 4.394000000e-03 2.261400000e-02
468000.0 4.470000000e-03 2.246600000e-02
477500.0 4.037000000e-03 2.244200000e-02
487000.0 4.903000000e-03 2.225100000e-02
496500.0 4.447000000e-03 2.370900000e-02
506000.0 4.823000000e-03 2.378200000e-02
515500.0 4.828000000e-03 2.370300000e-02
525000.0 4.386000000e-03 2.309300000e-02
534500.0 4.814000000e-03 2.376600000e-02
544000.0 5.131000000e-03 2.408700000e-02
553500.0 5.431000000e-03 2.472600000e-02
563000.0 5.360000000e-03 2.459500000e-02
572500.0 6.060000000e-03 2.558200000e-02
582000.0 4.630000000e-03 2.514500000e-02
591500.0 5.895000000e-03 2.518800000e-02
601000.0 5.534000000e-03 2.493500000e-02
610500.0 5.708000000e-03 2.571400000e-02
620000.0 4.896000000e-03 2.440800000e-02
629500.0 6.429000000e-03 2.547800000e-02
639000.0 6.158000000e-03 2.605300000e-02
648500.0 6.455000000e-03 2.557800000e-02
658000.0 5.641000000e-03 2.588000000e-02
667500.0 5.532000000e-03 2.579700000e-02
677000.0 6.155000000e-03 2.559000000e-02
686500.0 6.004000000e-03 2.556200000e-02
696000.0 6.500000000e-03 2.518700000e-02
705500.0 7.328000000e-03 2.581900000e-02
715000.0 6.398000000e-03 2.602700000e-02
724500.0 6.664000000e-03 2.666200000e-02
734000.0 6.979000000e-03 2.656900000e-02
743500.0 7.247000000e-03 2.695800000e-02
753000.0 7.424000000e-03 2.733000000e-02
762500.0 6.956000000e-03 2.634600000e-02
772000.0 6.494000000e-03 2.668500000e-02
781500.0 7.038000000e-03 2.696900000e-02
791000.0 7.703000000e-03 2.719000000e-02
800500.0 7.281000000e-03 2.650000000e-02
810000.0 7.413000000e-03 2.611700000e-02
819500.0 7.283000000e-03 2.740400000e-02
829000.0 8.264000000e-03 2.800400000e-02
838500.0 8.089000000e-03 2.767700000e-02
848000.0 7.324000000e-03 2.660000000e-02
857500.0 8.135000000e-03 2.809600000e-02
867000.0 8.897000000e-03 2.671700000e-02
876500.0 9.212000000e-03 2.817000000e-02
886000.0 8.087000000e-03 2.600000000e-02
895500.0 7.864000000e-03 2.798500000e-02
905000.0 8.725000000e-03 2.782900000e-02
914500.0 8.494000000e-03 2.698000000e-02
924000.0 7.792000000e-03 2.748900000e-02
933500.0 8.353000000e-03 2.767300000e-02
943000.0 9.160000000e-03 2.748100000e-02
952500.0 9.311000000e-03 2.712400000e-02
962000.0 8.828000000e-03 2.819400000e-02
971500.0 7.965000000e-03 2.792000000e-02
981000.0 1.032900000e-02 2.767400000e-02
990500.0 8.189000000e-03 2.728200000e-02
1000000.0 9.622000000e-03 2.751900000e-02
1090000.0 9.783000000e-03 2.854500000e-02
1180000.0 1.304900000e-02 2.874600000e-02
1270000.0 1.390100000e-02 2.655300000e-02
1360000.0 1.439700000e-02 2.747100000e-02
1450000.0 1.462900000e-02 2.688100000e-02
1540000.0 1.733500000e-02 2.544200000e-02
1630000.0 1.718800000e-02 2.499600000e-02
1720000.0 1.908000000e-02 2.308300000e-02
1810000.0 1.819100000e-02 2.075400000e-02
1900000.0 1.843100000e-02 1.915500000e-02
1990000.0 1.939700000e-02 1.950900000e-02
2080000.0 1.850600000e-02 1.494400000e-02
2170000.0 1.644700000e-02 1.592000000e-02
2260000.0 1.892000000e-02 1.280600000e-02
2350000.0 1.477800000e-02 1.029200000e-02
2440000.0 1.215500000e-02 8.489000000e-03
2530000.0 1.195800000e-02 1.023000000e-02
2620000.0 1.073800000e-02 1.025700000e-02
2710000.0 1.133800000e-02 8.771000000e-03
2800000.0 8.689000000e-03 7.070000000e-03
2890000.0 7.003000000e-03 6.606000000e-03
2980000.0 6.539000000e-03 7.568000000e-03
3070000.0 5.045000000e-03 7.938000000e-03
3160000.0 4.231000000e-03 8.539000000e-03
3250000.0 2.567000000e-03 8.667000000e-03
3340000.0 2.330000000e-03 9.129000000e-03
3430000.0 2.916000000e-03 7.559000000e-03
3520000.0 1.568000000e-03 8.398000000e-03
3610000.0 5.670000000e-04 9.979000000e-03
3700000.0 1.121000000e-03 8.927000000e-03
3790000.0 -8.800000000e-04 8.813000000e-03
3880000.0 -2.960000000e-04 8.955000000e-03
3970000.0 -9.650000000e-04 9.244000000e-03
4060000.0 -8.150000000e-04 9.124000000e-03
4150000.0 -7.410000000e-04 8.337000000e-03
4240000.0 -1.055000000e-03 9.468000000e-03
4330000.0 -1.406000000e-03 9.814000000e-03
4420000.0 -2.150000000e-03 9.651000000e-03
4510000.0 -1.315000000e-03 9.841000000e-03
4600000.0 -2.146000000e-03 9.421000000e-03
4690000.0 -1.812000000e-03 9.895000000e-03
4780000.0 -1.920000000e-03 9.549000000e-03
4870000.0 -1.821000000e-03 9.610000000e-03
4960000.0 -1.757000000e-03 8.770000000e-03
5050000.0 -2.655000000e-03 9.399000000e-03
5140000.0 -3.144000000e-03 1.033800000e-02
5230000.0 -3.185000000e-03 9.620000000e-03
5320000.0 -2.954000000e-03 8.835000000e-03
5410000.0 -3.510000000e-03 9.398000000e-03
5500000.0 -2.160000000e-03 8.262000000e-03
5590000.0 -2.752000000e-03 9.478000000e-03
5680000.0 -2.231000000e-03 9.076000000e-03
5770000.0 -2.857000000e-03 9.287000000e-03
5860000.0 -2.803000000e-03 8.948000000e-03
5950000.0 -3.140000000e-03 9.493000000e-03
6040000.0 -3.188000000e-03 8.684000000e-03
6130000.0 -2.898000000e-03 8.619000000e-03
6220000.0 -3.156000000e-03 8.825000000e-03
6310000.0 -3.053000000e-03 8.383000000e-03
6400000.0 -2.232000000e-03 9.346000000e-03
6490000.0 -3.481000000e-03 8.575000000e-03
6580000.0 -3.470000000e-03 7.632000000e-03
6670000.0 -3.467000000e-03 8.317000000e-03
6760000.0 -2.902000000e-03 8.979000000e-03
6850000.0 -2.865000000e-03 8.208000000e-03
6940000.0 -3.231000000e-03 8.065000000e-03
7030000.0 -3.748000000e-03 8.759000000e-03
7120000.0 -3.815000000e-03 8.448000000e-03
7210000.0 -3.656000000e-03 8.439000000e-03
7300000.0 -3.376000000e-03 9.015000000e-03
7390000.0 -3.909000000e-03 8.651000000e-03
7480000.0 -2.809000000e-03 8.776000000e-03
7570000.0 -1.881000000e-02 4.850000000e-04
7660000.0 -1.918800000e-02 1.390000000e-03
7750000.0 -1.890000000e-02 1.110000000e-04
7840000.0 -1.835700000e-02 1.032000000e-03
7930000.0 -1.870400000e-02 7.480000000e-04
8020000.0 -1.878700000e-02 8.190000000e-04
8110000.0 -1.825400000e-02 2.040000000e-04
8200000.0 -1.797100000e-02 6.120000000e-04
8290000.0 -1.899300000e-02 9.490000000e-04
8380000.0 -1.891400000e-02 1.444000000e-03
8470000.0 -1.857300000e-02 4.880000000e-04
8560000.0 -1.775800000e-02 4.750000000e-04
8650000.0 -1.834800000e-02 2.210000000e-04
8740000.0 -1.820000000e-02 1.337000000e-03
8830000.0 -1.925700000e-02 3.410000000e-04
8920000.0 -1.878100000e-02 8.560000000e-04
9010000.0 -1.871500000e-02 3.020000000e-04
9100000.0 -1.895000000e-02 5.420000000e-04
9190000.0 -1.928100000e-02 5.040000000e-04
9280000.0 -1.834700000e-02 8.470000000e-04
9370000.0 -1.937200000e-02 1.140000000e-03
9460000.0 -1.897900000e-02 8.200000000e-04
9550000.0 -1.907500000e-02 1.112000000e-03
9640000.0 -1.820200000e-02 9.850000000e-04
9730000.0 -1.789500000e-02 9.940000000e-04
9820000.0 -1.873400000e-02 7.290000000e-04
9910000.0 -1.899600000e-02 4.430000000e-04
10000000.0 -1.909400000e-02 8.940000000e-04
10900000.0 -1.693800000e-02 6.550000000e-04
11800000.0 -1.774100000e-02 1.350000000e-04
12700000.0 -1.870000000e-02 -2.060000000e-04
13600000.0 -1.823300000e-02 -6.820000000e-04
14500000.0 -1.790500000e-02 9.000000000e-05
15400000.0 -1.854500000e-02 4.580000000e-04
16300000.0 -1.866700000e-02 -9.130000000e-04
17200000.0 -1.857000000e-02 1.740000000e-04
18100000.0 -1.904000000e-02 -1.790000000e-04
19000000.0 -1.871700000e-02 6.170000000e-04
19900000.0 -1.946900000e-02 -1.004000000e-03
20800000.0 -1.760600000e-02 -6.990000000e-04
21700000.0 -1.728300000e-02 -1.470000000e-03
22600000.0 -1.784600000e-02 -1.121000000e-03
23500000.0 -1.909000000e-02 -3.360000000e-04
24400000.0 -1.858900000e-02 -5.700000000e-04
25300000.0 -1.685400000e-02 -1.390000000e-03
26200000.0 -1.797500000e-02 -5.730000000e-04
27100000.0 -1.899500000e-02 -1.523000000e-03
28000000.0 -1.788400000e-02 -2.018000000e-03
28900000.0 -1.876600000e-02 -2.711000000e-03
29800000.0 -1.769600000e-02 -1.806000000e-03
30700000.0 -1.940600000e-02 -3.239000000e-03
31600000.0 -1.868300000e-02 -2.383000000e-03
32500000.0 -1.814600000e-02 -2.779000000e-03
33400000.0 -1.878800000e-02 -4.339000000e-03
34300000.0 -1.843900000e-02 -2.960000000e-03
35200000.0 -1.906000000e-02 -2.726000000e-03
36100000.0 -1.848700000e-02 -4.474000000e-03
37000000.0 -1.907200000e-02 -4.857000000e-03
37900000.0 -1.814300000e-02 -3.921000000e-03
38800000.0 -1.752100000e-02 -4.933000000e-03
39700000.0 -1.888800000e-02 -4.547000000e-03
40600000.0 -1.837700000e-02 -4.115000000e-03
41500000.0 -1.887500000e-02 -5.937000000e-03
42400000.0 -1.807300000e-02 -6.281000000e-03
43300000.0 -1.783100000e-02 -5.156000000e-03
44200000.0 -1.801400000e-02 -4.885000000e-03
45100000.0 -1.757300000e-02 -6.084000000e-03
46000000.0 -1.826500000e-02 -6.374000000e-03
46900000.0 -1.779700000e-02 -6.828000000e-03
47800000.0 -1.735000000e-02 -6.785000000e-03
48700000.0 -1.704000000e-02 -6.087000000e-03
49600000.0 -1.712800000e-02 -6.397000000e-03
50500000.0 -1.606000000e-02 -7.267000000e-03
51400000.0 -1.808400000e-02 -6.835000000e-03
52300000.0 -1.723000000e-02 -8.400000000e-03
53200000.0 -1.569300000e-02 -9.432000000e-03
54100000.0 -1.649600000e-02 -7.736000000e-03
55000000.0 -1.651700000e-02 -7.904000000e-03
55900000.0 -1.598900000e-02 -9.069000000e-03
56800000.0 -1.643500000e-02 -8.913000000e-03
57700000.0 -1.537500000e-02 -1.033300000e-02
58600000.0 -1.599000000e-02 -9.972000000e-03
59500000.0 -1.567000000e-02 -1.025300000e-02
60400000.0 -1.405800000e-02 -8.844000000e-03
61300000.0 -1.479000000e-02 -1.061900000e-02
62200000.0 -1.521400000e-02 -9.962000000e-03
63100000.0 -1.488100000e-02 -1.130000000e-02
64000000.0 -1.445900000e-02 -9.948000000e-03
64900000.0 -1.347300000e-02 -1.092300000e-02
65800000.0 -1.349200000e-02 -1.226500000e-02
66700000.0 -1.310700000e-02 -1.114800000e-02
67600000.0 -1.305100000e-02 -1.119800000e-02
68500000.0 -1.254100000e-02 -1.183600000e-02
69400000.0 -1.268100000e-02 -1.184000000e-02
70300000.0 -1.101100000e-02 -1.109700000e-02
71200000.0 -1.266000000e-02 -1.207900000e-02
72100000.0 -9.937000000e-03 -1.084300000e-02
73000000.0 -9.032000000e-03 -1.186100000e-02
73900000.0 -9.834000000e-03 -9.888000000e-03
74800000.0 -7.820000000e-03 -1.242700000e-02
75700000.0 -1.018200000e-02 -1.275900000e-02
76600000.0 -9.158000000e-03 -1.133900000e-02
77500000.0 -9.468000000e-03 -1.181500000e-02
78400000.0 -8.744000000e-03 -1.228800000e-02
79300000.0 -8.086000000e-03 -1.238000000e-02
80200000.0 -8.329000000e-03 -1.168300000e-02
81100000.0 -7.833000000e-03 -1.164000000e-02
82000000.0 -7.877000000e-03 -1.227100000e-02
82900000.0 -5.144000000e-03 -1.230200000e-02
83800000.0 -6.539000000e-03 -1.059300000e-02
84700000.0 -5.660000000e-03 -1.086300000e-02
85600000.0 -5.055000000e-03 -1.121400000e-02
86500000.0 -5.840000000e-03 -1.079400000e-02
87400000.0 -5.253000000e-03 -1.199300000e-02
88300000.0 -4.674000000e-03 -1.027700000e-02
89200000.0 -4.433000000e-03 -9.525000000e-03
90100000.0 -3.910000000e-03 -1.124800000e-02
91000000.0 -3.101000000e-03 -1.055400000e-02
91900000.0 -2.493000000e-03 -1.016000000e-02
92800000.0 -2.116000000e-03 -9.087000000e-03
93700000.0 -3.821000000e-03 -9.650000000e-03
94600000.0 -2.677000000e-03 -8.700000000e-03
95500000.0 -3.101000000e-03 -8.674000000e-03
96400000.0 -3.763000000e-03 -9.438000000e-03
97300000.0 -1.406000000e-03 -9.311000000e-03
98200000.0 -2.481000000e-03 -8.793000000e-03
99100000.0 -2.855000000e-03 -9.296000000e-03
100000000.0 -1.416000000e-03 -7.869000000e-03
109000000.0 -1.344000000e-03 -5.853000000e-03
118000000.0 -1.165000000e-03 -4.319000000e-03
127000000.0 -1.500000000e-03 -3.042000000e-03
136000000.0 9.600000000e-05 -2.080000000e-03
145000000.0 -5.290000000e-04 -6.460000000e-04
154000000.0 -6.070000000e-04 -3.960000000e-04
163000000.0 -2.640000000e-04 -2.900000000e-05
172000000.0 -1.850000000e-04 -5.410000000e-04
181000000.0 -7.140000000e-04 -8.500000000e-05
190000000.0 -3.170000000e-04 -4.500000000e-05
199000000.0 -5.870000000e-04 1.110000000e-04
208000000.0 -6.340000000e-04 3.100000000e-05
217000000.0 -2.600000000e-05 -2.010000000e-04
226000000.0 -8.830000000e-04 1.070000000e-04
235000000.0 -6.480000000e-04 6.780000000e-04
244000000.0 -5.780000000e-04 1.460000000e-04
253000000.0 -5.520000000e-04 9.200000000e-05
262000000.0 -5.700000000e-04 1.130000000e-04
271000000.0 -7.410000000e-04 4.600000000e-05
280000000.0 -2.330000000e-04 -7.100000000e-05
289000000.0 -1.027000000e-03 3.440000000e-04
298000000.0 -1.053000000e-03 1.920000000e-04
307000000.0 -9.500000000e-05 2.640000000e-04
316000000.0 -5.440000000e-04 3.330000000e-04
325000000.0 -6.820000000e-04 -1.700000000e-05
334000000.0 -6.930000000e-04 7.200000000e-05
343000000.0 -5.200000000e-04 3.400000000e-05
352000000.0 -6.540000000e-04 6.740000000e-04
361000000.0 -1.375000000e-03 7.320000000e-04
370000000.0 -1.460000000e-03 6.360000000e-04
379000000.0 -8.520000000e-04 3.000000000e-05
388000000.0 -7.910000000e-04 1.201000000e-03
397000000.0 -1.383000000e-03 3.820000000e-04
406000000.0 -1.379000000e-03 4.400000000e-05
415000000.0 -3.970000000e-04 -3.900000000e-04
424000000.0 -1.163000000e-03 9.890000000e-04
433000000.0 -8.240000000e-04 -8.400000000e-05
442000000.0 -7.790000000e-04 3.420000000e-04
451000000.0 -1.669000000e-03 3.800000000e-05
460000000.0 -1.738000000e-03 1.013000000e-03
469000000.0 -1.201000000e-03 3.700000000e-05
478000000.0 -1.406000000e-03 3.730000000e-04
487000000.0 -1.320000000e-03 1.027000000e-03
496000000.0 -1.243000000e-03 -2.770000000e-04
505000000.0 -1.228000000e-03 4.830000000e-04
514000000.0 -7.880000000e-04 -2.820000000e-04
523000000.0 -1.178000000e-03 4.890000000e-04
532000000.0 -8.610000000e-04 1.140000000e-04
541000000.0 -1.151000000e-03 8.400000000e-05
550000000.0 -1.197000000e-03 1.930000000e-04
559000000.0 -9.710000000e-04 -2.720000000e-04
568000000.0 -1.002000000e-03 -2.300000000e-04
577000000.0 -9.960000000e-04 -3.800000000e-05
586000000.0 -1.325000000e-03 -8.760000000e-04
595000000.0 -1.580000000e-03 -9.990000000e-04
604000000.0 -1.450000000e-03 2.480000000e-04
613000000.0 -1.586000000e-03 -4.400000000e-05
622000000.0 -1.509000000e-03 -7.750000000e-04
631000000.0 -1.283000000e-03 -3.920000000e-04
640000000.0 -1.675000000e-03 -5.570000000e-04
649000000.0 -9.750000000e-04 -3.540000000e-04
658000000.0 -6.640000000e-04 -4.200000000e-04
667000000.0 -1.118000000e-03 -9.900000000e-05
676000000.0 -1.293000000e-03 -2.700000000e-05
685000000.0 -1.033000000e-03 -5.090000000e-04
694000000.0 -5.690000000e-04 -1.820000000e-04
703000000.0 -8.190000000e-04 -1.820000000e-04
712000000.0 -1.226000000e-03 -2.030000000e-04
721000000.0 -1.012000000e-03 -6.600000000e-05
730000000.0 -1.022000000e-03 -3.610000000e-04
739000000.0 -1.042000000e-03 5.080000000e-04
748000000.0 -1.121000000e-03 4.450000000e-04
757000000.0 -1.141000000e-03 1.280000000e-04
766000000.0 -9.960000000e-04 -4.630000000e-04
775000000.0 -7.550000000e-04 3.780000000e-04
784000000.0 -1.387000000e-03 4.790000000e-04
793000000.0 -1.099000000e-03 8.130000000e-04
802000000.0 -1.259000000e-03 1.620000000e-04
811000000.0 -1.092000000e-03 5.520000000e-04
820000000.0 -1.651000000e-03 8.270000000e-04
829000000.0 -6.490000000e-04 3.160000000e-04
838000000.0 -7.470000000e-04 5.150000000e-04
847000000.0 -8.110000000e-04 4.540000000e-04
856000000.0 -6.970000000e-04 6.250000000e-04
865000000.0 -1.210000000e-03 2.960000000e-04
874000000.0 -1.179000000e-03 2.410000000e-04
883000000.0 -1.240000000e-03 4.320000000e-04
892000000.0 -9.200000000e-04 4.220000000e-04
901000000.0 -9.250000000e-04 7.360000000e-04
910000000.0 -1.354000000e-03 5.620000000e-04
919000000.0 -1.207000000e-03 9.410000000e-04
928000000.0 -1.608000000e-03 5.700000000e-04
937000000.0 -1.492000000e-03 5.970000000e-04
946000000.0 -1.317000000e-03 1.087000000e-03
955000000.0 -1.520000000e-03 1.045000000e-03
964000000.0 -1.040000000e-03 8.470000000e-04
973000000.0 -1.691000000e-03 7.700000000e-04
982000000.0 -6.590000000e-04 4.110000000e-04
991000000.0 -1.696000000e-03 8.220000000e-04
1000000000.0 -1.148000000e-03 6.750000000e-04
1004500000.0 -1.478000000e-03 9.200000000e-04
1009000000.0 -1.425000000e-03 1.170000000e-03
1013500000.0 -8.560000000e-04 7.450000000e-04
1018000000.0 -1.693000000e-03 7.450000000e-04
1022500000.0 -1.232000000e-03 1.331000000e-03
1027000000.0 -1.385000000e-03 6.860000000e-04
1031500000.0 -1.175000000e-03 5.250000000e-04
1036000000.0 -1.344000000e-03 4.430000000e-04
1040500000.0 -1.251000000e-03 4.380000000e-04
1045000000.0 -1.568000000e-03 7.390000000e-04
1049500000.0 -9.870000000e-04 4.220000000e-04
1054000000.0 -7.350000000e-04 1.238000000e-03
1058500000.0 -1.432000000e-03 9.840000000e-04
1063000000.0 -1.431000000e-03 8.630000000e-04
1067500000.0 -1.777000000e-03 4.550000000e-04
1072000000.0 -1.467000000e-03 9.050000000e-04
1076500000.0 -1.424000000e-03 2.110000000e-04
1081000000.0 -1.152000000e-03 1.840000000e-04
1085500000.0 -2.054000000e-03 9.840000000e-04
1090000000.0 -1.868000000e-03 1.300000000e-03
1094500000.0 -1.031000000e-03 1.266000000e-03
1099000000.0 -9.660000000e-04 4.370000000e-04
1103500000.0 -1.061000000e-03 7.230000000e-04
1108000000.0 -1.499000000e-03 5.970000000e-04
1112500000.0 -8.320000000e-04 6.840000000e-04
1117000000.0 -1.021000000e-03 1.398000000e-03
1121500000.0 -9.920000000e-04 1.335000000e-03
1126000000.0 -6.720000000e-04 1.109000000e-03
1130500000.0 -1.501000000e-03 1.067000000e-03
1135000000.0 -1.144000000e-03 1.177000000e-03
1139500000.0 -8.920000000e-04 1.273000000e-03
1144000000.0 -1.041000000e-03 1.463000000e-03
1148500000.0 -5.050000000e-04 1.489000000e-03
1153000000.0 -2.924000000e-03 -5.200000000e-04
1157500000.0 -9.100000000e-04 9.440000000e-04
1162000000.0 -1.084000000e-03 1.767000000e-03
1166500000.0 -1.964000000e-03 1.115000000e-03
1171000000.0 -8.220000000e-04 1.310000000e-03
1175500000.0 -1.058000000e-03 1.351000000e-03
1180000000.0 -1.470000000e-03 1.152000000e-03
1184500000.0 -2.203000000e-03 1.130000000e-03
1189000000.0 -1.025000000e-03 8.690000000e-04
1193500000.0 -1.368000000e-03 1.244000000e-03
1198000000.0 -5.870000000e-04 1.137000000e-03
1202500000.0 -1.763000000e-03 8.380000000e-04
1207000000.0 -1.461000000e-03 1.387000000e-03
1211500000.0 -1.546000000e-03 3.310000000e-04
1216000000.0 -1.424000000e-03 7.390000000e-04
1220500000.0 -1.214000000e-03 1.064000000e-03
1225000000.0 -8.660000000e-04 1.128000000e-03
1229500000.0 -1.434000000e-03 5.780000000e-04
1234000000.0 -7.950000000e-04 3.930000000e-04
1238500000.0 -1.687000000e-03 9.300000000e-05
1243000000.0 -1.583000000e-03 8.150000000e-04
1247500000.0 -2.321000000e-03 6.650000000e-04
1252000000.0 -1.131000000e-03 5.480000000e-04
1256500000.0 -1.179000000e-03 1.300000000e-03
1261000000.0 -1.418000000e-03 8.880000000e-04
1265500000.0 -1.207000000e-03 9.910000000e-04
1270000000.0 -1.447000000e-03 7.380000000e-04
1274500000.0 -1.914000000e-03 9.430000000e-04
1279000000.0 -1.307000000e-03 8.840000000e-04
1283500000.0 -2.001000000e-03 9.590000000e-04
1288000000.0 -1.347000000e-03 -4.930000000e-04
1292500000.0 -2.181000000e-03 9.490000000e-04
1297000000.0 -1.027000000e-03 1.991000000e-03
1301500000.0 -2.226000000e-03 7.600000000e-04
1306000000.0 -2.268000000e-03 1.255000000e-03
1310500000.0 -1.987000000e-03 1.900000000e-05
1315000000.0 -1.771000000e-03 3.610000000e-04
1319500000.0 -1.504000000e-03 3.610000000e-04
1324000000.0 -1.751000000e-03 7.900000000e-04
1328500000.0 -1.827000000e-03 1.088000000e-03
1333000000.0 -1.629000000e-03 9.340000000e-04
1337500000.0 -2.182000000e-03 1.700000000e-05
1342000000.0 -1.541000000e-03 -2.890000000e-04
1346500000.0 -2.170000000e-03 -5.080000000e-04
1351000000.0 -1.254000000e-03 -2.760000000e-04
1355500000.0 -1.934000000e-03 -2.120000000e-04
1360000000.0 -1.354000000e-03 -3.780000000e-04
1364500000.0 -1.964000000e-03 1.100000000e-04
1369000000.0 -1.596000000e-03 -4.650000000e-04
1373500000.0 -1.618000000e-03 1.360000000e-04
1378000000.0 -1.323000000e-03 -3.050000000e-04
1382500000.0 -1.196000000e-03 5.430000000e-04
1387000000.0 -8.940000000e-04 -7.220000000e-04
1391500000.0 -2.059000000e-03 -7.500000000e-05
1396000000.0 -1.074000000e-03 -4.360000000e-04
1400500000.0 -1.392000000e-03 3.000000000e-04
1405000000.0 -1.740000000e-03 3.020000000e-04
1409500000.0 -1.409000000e-03 -1.970000000e-04
1414000000.0 -1.346000000e-03 -6.670000000e-04
1418500000.0 -1.231000000e-03 3.160000000e-04
1423000000.0 -1.201000000e-03 3.090000000e-04
1427500000.0 -2.311000000e-03 3.220000000e-04
1432000000.0 -1.377000000e-03 -7.200000000e-04
1436500000.0 -1.828000000e-03 -3.650000000e-04
1441000000.0 -1.161000000e-03 4.400000000e-04
1445500000.0 -1.383000000e-03 4.400000000e-05
1450000000.0 -1.407000000e-03 -4.660000000e-04
