! piloto_deriva / corto_deriva / r36
# HZ S RI R 50
50000.0 -9.971630000e-01 -3.846800000e-02
59500.0 -9.982870000e-01 -1.840700000e-02
69000.0 -9.976180000e-01 -9.621000000e-03
78500.0 -9.985840000e-01 -1.877000000e-03
88000.0 -9.986170000e-01 -2.540000000e-04
97500.0 -9.993110000e-01 -1.410000000e-04
107000.0 -9.995200000e-01 -2.242000000e-03
116500.0 -1.000029000e+00 -6.170000000e-03
126000.0 -1.000974000e+00 -9.882000000e-03
135500.0 -9.999000000e-01 -1.648100000e-02
145000.0 -9.993420000e-01 -2.339100000e-02
154500.0 -9.996900000e-01 -2.919200000e-02
164000.0 -9.998710000e-01 -3.650700000e-02
173500.0 -1.000409000e+00 -4.388200000e-02
183000.0 -1.000275000e+00 -5.174300000e-02
192500.0 -9.996400000e-01 -6.013800000e-02
202000.0 -9.997460000e-01 -6.831400000e-02
211500.0 -1.000937000e+00 -7.732200000e-02
221000.0 -1.000592000e+00 -8.693100000e-02
230500.0 -1.000235000e+00 -9.472300000e-02
240000.0 -1.000630000e+00 -1.044770000e-01
249500.0 -1.001569000e+00 -1.138340000e-01
259000.0 -1.000419000e+00 -1.216280000e-01
268500.0 -1.001312000e+00 -1.314730000e-01
278000.0 -1.002336000e+00 -1.412090000e-01
287500.0 -1.001890000e+00 -1.503630000e-01
297000.0 -1.002604000e+00 -1.601520000e-01
306500.0 -1.002121000e+00 -1.686760000e-01
316000.0 -1.002200000e+00 -1.774230000e-01
325500.0 -1.002185000e+00 -1.863650000e-01
335000.0 -1.003494000e+00 -1.964060000e-01
344500.0 -1.002723000e+00 -2.064780000e-01
354000.0 -1.003875000e+00 -2.148450000e-01
363500.0 -1.002815000e+00 -2.242480000e-01
373000.0 -1.004277000e+00 -2.335950000e-01
382500.0 -1.003701000e+00 -2.427450000e-01
392000.0 -1.004782000e+00 -2.525420000e-01
401500.0 -1.005582000e+00 -2.612430000e-01
411000.0 -1.004936000e+00 -2.707700000e-01
420500.0 -1.004984000e+00 -2.802420000e-01
430000.0 -1.005841000e+00 -2.898960000e-01
439500.0 -1.005926000e+00 -2.983350000e-01
449000.0 -1.004563000e+00 -3.088810000e-01
458500.0 -1.005620000e+00 -3.183290000e-01
468000.0 -1.005273000e+00 -3.261450000e-01
477500.0 -1.006319000e+00 -3.367710000e-01
487000.0 -1.006686000e+00 -3.459180000e-01
496500.0 -1.006163000e+00 -3.555350000e-01
506000.0 -1.007227000e+00 -3.645800000e-01
515500.0 -1.007715000e+00 -3.742420000e-01
525000.0 -1.008382000e+00 -3.830260000e-01
534500.0 -1.008655000e+00 -3.922110000e-01
544000.0 -1.007980000e+00 -4.012880000e-01
553500.0 -1.008976000e+00 -4.113100000e-01
563000.0 -1.009691000e+00 -4.193450000e-01
572500.0 -1.010083000e+00 -4.288810000e-01
582000.0 -1.010509000e+00 -4.387950000e-01
591500.0 -1.010192000e+00 -4.471510000e-01
601000.0 -1.011692000e+00 -4.558680000e-01
610500.0 -1.012267000e+00 -4.650990000e-01
620000.0 -1.012027000e+00 -4.751060000e-01
629500.0 -1.012009000e+00 -4.840150000e-01
639000.0 -1.012258000e+00 -4.925710000e-01
648500.0 -1.015040000e+00 -5.018260000e-01
658000.0 -1.014277000e+00 -5.107320000e-01
667500.0 -1.015314000e+00 -5.198630000e-01
677000.0 -1.015442000e+00 -5.293620000e-01
686500.0 -1.015096000e+00 -5.374340000e-01
696000.0 -1.017489000e+00 -5.460390000e-01
705500.0 -1.017961000e+00 -5.554700000e-01
715000.0 -1.019400000e+00 -5.650150000e-01
724500.0 -1.018358000e+00 -5.730920000e-01
734000.0 -1.019829000e+00 -5.836740000e-01
743500.0 -1.021596000e+00 -5.920490000e-01
753000.0 -1.021855000e+00 -6.001400000e-01
762500.0 -1.023003000e+00 -6.089220000e-01
772000.0 -1.024836000e+00 -6.189270000e-01
781500.0 -1.025670000e+00 -6.276520000e-01
791000.0 -1.026685000e+00 -6.360260000e-01
800500.0 -1.028027000e+00 -6.454050000e-01
810000.0 -1.029604000e+00 -6.540190000e-01
819500.0 -1.031297000e+00 -6.635520000e-01
829000.0 -1.031364000e+00 -6.719930000e-01
838500.0 -1.034598000e+00 -6.815010000e-01
848000.0 -1.033481000e+00 -6.882640000e-01
857500.0 -1.037102000e+00 -6.972430000e-01
867000.0 -1.037932000e+00 -7.055900000e-01
876500.0 -1.039935000e+00 -7.153530000e-01
886000.0 -1.040570000e+00 -7.243790000e-01
895500.0 -1.043380000e+00 -7.321150000e-01
905000.0 -1.043684000e+00 -7.407610000e-01
914500.0 -1.046906000e+00 -7.502690000e-01
924000.0 -1.048323000e+00 -7.575200000e-01
933500.0 -1.051041000e+00 -7.661970000e-01
943000.0 -1.052609000e+00 -7.757500000e-01
952500.0 -1.056417000e+00 -7.840000000e-01
962000.0 -1.058244000e+00 -7.918820000e-01
971500.0 -1.060640000e+00 -8.015730000e-01
981000.0 -1.063130000e+00 -8.082520000e-01
990500.0 -1.065753000e+00 -8.183390000e-01
1000000.0 -1.068737000e+00 -8.260900000e-01
1090000.0 -1.096961000e+00 -9.019460000e-01
1180000.0 -1.135166000e+00 -9.758200000e-01
1270000.0 -1.182758000e+00 -1.045125000e+00
1360000.0 -1.241495000e+00 -1.106521000e+00
1450000.0 -1.309217000e+00 -1.156077000e+00
1540000.0 -1.384655000e+00 -1.192356000e+00
1630000.0 -1.469723000e+00 -1.212103000e+00
1720000.0 -1.561812000e+00 -1.209443000e+00
1810000.0 -1.650731000e+00 -1.190775000e+00
1900000.0 -1.735791000e+00 -1.143699000e+00
1990000.0 -1.809245000e+00 -1.081352000e+00
2080000.0 -1.861813000e+00 -1.001005000e+00
2170000.0 -1.897829000e+00 -9.153040000e-01
2260000.0 -1.914083000e+00 -8.237300000e-01
2350000.0 -1.917450000e+00 -7.297580000e-01
2440000.0 -1.900678000e+00 -6.447580000e-01
2530000.0 -1.873928000e+00 -5.643390000e-01
2620000.0 -1.839780000e+00 -4.954840000e-01
2710000.0 -1.801311000e+00 -4.382090000e-01
2800000.0 -1.758917000e+00 -3.863680000e-01
2890000.0 -1.715701000e+00 -3.395350000e-01
2980000.0 -1.672583000e+00 -3.020360000e-01
3070000.0 -1.632024000e+00 -2.710120000e-01
3160000.0 -1.592148000e+00 -2.409710000e-01
3250000.0 -1.556821000e+00 -2.146460000e-01
3340000.0 -1.520433000e+00 -1.926870000e-01
3430000.0 -1.489761000e+00 -1.735800000e-01
3520000.0 -1.456839000e+00 -1.546470000e-01
3610000.0 -1.428838000e+00 -1.387810000e-01
3700000.0 -1.401520000e+00 -1.219420000e-01
3790000.0 -1.378247000e+00 -1.073130000e-01
3880000.0 -1.354723000e+00 -9.246000000e-02
3970000.0 -1.333409000e+00 -8.002100000e-02
4060000.0 -1.313899000e+00 -6.874100000e-02
4150000.0 -1.295679000e+00 -5.528600000e-02
4240000.0 -1.278209000e+00 -4.171500000e-02
4330000.0 -1.262342000e+00 -2.970100000e-02
4420000.0 -1.248473000e+00 -1.869500000e-02
4510000.0 -1.236320000e+00 -7.280000000e-03
4600000.0 -1.224800000e+00 2.936000000e-03
4690000.0 -1.212727000e+00 1.574700000e-02
4780000.0 -1.202475000e+00 2.705300000e-02
4870000.0 -1.194540000e+00 3.749700000e-02
4960000.0 -1.186729000e+00 4.800600000e-02
5050000.0 -1.172515000e+00 5.914200000e-02
5140000.0 -1.167351000e+00 6.940100000e-02
5230000.0 -1.161711000e+00 8.021000000e-02
5320000.0 -1.155944000e+00 9.084600000e-02
5410000.0 -1.151740000e+00 1.013050000e-01
5500000.0 -1.146949000e+00 1.125310000e-01
5590000.0 -1.144022000e+00 1.212720000e-01
5680000.0 -1.138705000e+00 1.312120000e-01
5770000.0 -1.134086000e+00 1.404900000e-01
5860000.0 -1.131925000e+00 1.499300000e-01
5950000.0 -1.128855000e+00 1.592130000e-01
6040000.0 -1.124857000e+00 1.687950000e-01
6130000.0 -1.122815000e+00 1.759770000e-01
6220000.0 -1.119542000e+00 1.840620000e-01
6310000.0 -1.116796000e+00 1.921110000e-01
6400000.0 -1.114587000e+00 2.006080000e-01
6490000.0 -1.112921000e+00 2.064260000e-01
6580000.0 -1.111120000e+00 2.129660000e-01
6670000.0 -1.108303000e+00 2.188710000e-01
6760000.0 -1.108019000e+00 2.239170000e-01
6850000.0 -1.105923000e+00 2.277850000e-01
6940000.0 -1.104872000e+00 2.323650000e-01
7030000.0 -1.103547000e+00 2.358220000e-01
7120000.0 -1.103667000e+00 2.386540000e-01
7210000.0 -1.102906000e+00 2.410680000e-01
7300000.0 -1.102165000e+00 2.417210000e-01
7390000.0 -1.101931000e+00 2.427690000e-01
7480000.0 -1.100933000e+00 2.435030000e-01
7570000.0 1.954280000e-01 1.074640000e+00
7660000.0 1.952200000e-01 1.074333000e+00
7750000.0 1.940590000e-01 1.074805000e+00
7840000.0 1.935410000e-01 1.074978000e+00
7930000.0 1.918960000e-01 1.075405000e+00
8020000.0 1.922820000e-01 1.075379000e+00
8110000.0 1.909440000e-01 1.075204000e+00
8200000.0 1.905230000e-01 1.076126000e+00
8290000.0 1.893630000e-01 1.077000000e+00
8380000.0 1.881480000e-01 1.075420000e+00
8470000.0 1.884990000e-01 1.078030000e+00
8560000.0 1.870290000e-01 1.078302000e+00
8650000.0 1.869360000e-01 1.078574000e+00
8740000.0 1.861610000e-01 1.080444000e+00
8830000.0 1.854120000e-01 1.079778000e+00
8920000.0 1.833800000e-01 1.080185000e+00
9010000.0 1.832930000e-01 1.080825000e+00
9100000.0 1.839210000e-01 1.080626000e+00
9190000.0 1.819440000e-01 1.080722000e+00
9280000.0 1.823550000e-01 1.081989000e+00
9370000.0 1.812620000e-01 1.081930000e+00
9460000.0 1.807190000e-01 1.082425000e+00
9550000.0 1.788860000e-01 1.084330000e+00
9640000.0 1.786770000e-01 1.083930000e+00
9730000.0 1.778540000e-01 1.085467000e+00
9820000.0 1.775020000e-01 1.085983000e+00
9910000.0 1.769050000e-01 1.086866000e+00
10000000.0 1.759590000e-01 1.087703000e+00
10900000.0 1.699150000e-01 1.094795000e+00
11800000.0 1.630720000e-01 1.102928000e+00
12700000.0 1.570000000e-01 1.110275000e+00
13600000.0 1.504670000e-01 1.118528000e+00
14500000.0 1.446600000e-01 1.127050000e+00
15400000.0 1.369500000e-01 1.136481000e+00
16300000.0 1.305220000e-01 1.144936000e+00
17200000.0 1.245130000e-01 1.155419000e+00
18100000.0 1.161630000e-01 1.163362000e+00
19000000.0 1.097230000e-01 1.173372000e+00
19900000.0 1.017040000e-01 1.181522000e+00
20800000.0 9.360600000e-02 1.191440000e+00
21700000.0 8.466300000e-02 1.202580000e+00
22600000.0 7.531300000e-02 1.212269000e+00
23500000.0 6.603100000e-02 1.221035000e+00
24400000.0 5.728200000e-02 1.230830000e+00
25300000.0 4.568700000e-02 1.242922000e+00
26200000.0 3.614400000e-02 1.250946000e+00
27100000.0 2.558200000e-02 1.262010000e+00
28000000.0 1.424200000e-02 1.272256000e+00
28900000.0 2.909000000e-03 1.282394000e+00
29800000.0 -9.773000000e-03 1.291737000e+00
30700000.0 -2.319800000e-02 1.302838000e+00
31600000.0 -3.471500000e-02 1.312525000e+00
32500000.0 -4.782100000e-02 1.321761000e+00
33400000.0 -6.172800000e-02 1.332963000e+00
34300000.0 -7.600300000e-02 1.341853000e+00
35200000.0 -9.137700000e-02 1.352490000e+00
36100000.0 -1.064160000e-01 1.361679000e+00
37000000.0 -1.211530000e-01 1.369852000e+00
37900000.0 -1.380990000e-01 1.379930000e+00
38800000.0 -1.550500000e-01 1.388049000e+00
39700000.0 -1.704560000e-01 1.397162000e+00
40600000.0 -1.882090000e-01 1.405471000e+00
41500000.0 -2.063580000e-01 1.412549000e+00
42400000.0 -2.255130000e-01 1.419265000e+00
43300000.0 -2.431440000e-01 1.427861000e+00
44200000.0 -2.632070000e-01 1.436046000e+00
45100000.0 -2.825860000e-01 1.440656000e+00
46000000.0 -3.020950000e-01 1.448239000e+00
46900000.0 -3.225790000e-01 1.452696000e+00
47800000.0 -3.445900000e-01 1.460400000e+00
48700000.0 -3.648610000e-01 1.463902000e+00
49600000.0 -3.877080000e-01 1.468408000e+00
50500000.0 -4.085780000e-01 1.471227000e+00
51400000.0 -4.298550000e-01 1.474502000e+00
52300000.0 -4.521880000e-01 1.478443000e+00
53200000.0 -4.768250000e-01 1.479522000e+00
54100000.0 -5.005640000e-01 1.480909000e+00
55000000.0 -5.239310000e-01 1.481422000e+00
55900000.0 -5.468070000e-01 1.480911000e+00
56800000.0 -5.705180000e-01 1.481044000e+00
57700000.0 -5.947340000e-01 1.480682000e+00
58600000.0 -6.184520000e-01 1.478701000e+00
59500000.0 -6.428250000e-01 1.474652000e+00
60400000.0 -6.680400000e-01 1.471348000e+00
61300000.0 -6.922460000e-01 1.466865000e+00
62200000.0 -7.156570000e-01 1.461828000e+00
63100000.0 -7.398300000e-01 1.457300000e+00
64000000.0 -7.641610000e-01 1.450910000e+00
64900000.0 -7.885910000e-01 1.443215000e+00
65800000.0 -8.134440000e-01 1.436336000e+00
66700000.0 -8.353360000e-01 1.427266000e+00
67600000.0 -8.596670000e-01 1.419534000e+00
68500000.0 -8.830280000e-01 1.406879000e+00
69400000.0 -9.078710000e-01 1.398170000e+00
70300000.0 -9.299710000e-01 1.385998000e+00
71200000.0 -9.526990000e-01 1.375022000e+00
72100000.0 -9.766120000e-01 1.362014000e+00
73000000.0 -9.977510000e-01 1.348784000e+00
73900000.0 -1.018582000e+00 1.335336000e+00
74800000.0 -1.040358000e+00 1.319465000e+00
75700000.0 -1.060255000e+00 1.305012000e+00
76600000.0 -1.081905000e+00 1.289630000e+00
77500000.0 -1.099704000e+00 1.271966000e+00
78400000.0 -1.120371000e+00 1.254887000e+00
79300000.0 -1.138566000e+00 1.238109000e+00
80200000.0 -1.157819000e+00 1.219086000e+00
81100000.0 -1.175138000e+00 1.201012000e+00
82000000.0 -1.193191000e+00 1.182035000e+00
82900000.0 -1.209347000e+00 1.162075000e+00
83800000.0 -1.224836000e+00 1.142713000e+00
84700000.0 -1.240154000e+00 1.121755000e+00
85600000.0 -1.255628000e+00 1.100117000e+00
86500000.0 -1.267914000e+00 1.079417000e+00
87400000.0 -1.282439000e+00 1.057446000e+00
88300000.0 -1.295396000e+00 1.035817000e+00
89200000.0 -1.304760000e+00 1.013520000e+00
90100000.0 -1.317778000e+00 9.902170000e-01
91000000.0 -1.329784000e+00 9.694540000e-01
91900000.0 -1.336869000e+00 9.436010000e-01
92800000.0 -1.347667000e+00 9.231450000e-01
93700000.0 -1.354706000e+00 9.011630000e-01
94600000.0 -1.364218000e+00 8.768900000e-01
95500000.0 -1.369226000e+00 8.530730000e-01
96400000.0 -1.375690000e+00 8.298470000e-01
97300000.0 -1.379257000e+00 8.069300000e-01
98200000.0 -1.383409000e+00 7.819390000e-01
99100000.0 -1.388414000e+00 7.603840000e-01
100000000.0 -1.392119000e+00 7.387720000e-01
109000000.0 -1.386538000e+00 5.199880000e-01
118000000.0 -1.331035000e+00 3.398580000e-01
127000000.0 -1.250574000e+00 1.993090000e-01
136000000.0 -1.135333000e+00 1.002790000e-01
145000000.0 -1.046808000e+00 2.961900000e-02
154000000.0 -1.000429000e+00 -9.940000000e-04
163000000.0 -1.002940000e+00 -4.363000000e-03
172000000.0 -1.004450000e+00 -6.164000000e-03
181000000.0 -1.005808000e+00 -8.753000000e-03
190000000.0 -1.007716000e+00 -9.626000000e-03
199000000.0 -1.008902000e+00 -1.031100000e-02
208000000.0 -1.010050000e+00 -1.129000000e-02
217000000.0 -1.010203000e+00 -1.201600000e-02
226000000.0 -1.009768000e+00 -1.133800000e-02
235000000.0 -1.010097000e+00 -1.132300000e-02
244000000.0 -1.010604000e+00 -1.175300000e-02
253000000.0 -1.009073000e+00 -1.065400000e-02
262000000.0 -1.007935000e+00 -7.791000000e-03
271000000.0 -1.006135000e+00 -6.541000000e-03
280000000.0 -1.003588000e+00 -5.645000000e-03
289000000.0 -1.003460000e+00 -3.702000000e-03
298000000.0 -1.001129000e+00 -1.378000000e-03
307000000.0 -1.001560000e+00 -1.440000000e-04
316000000.0 -1.005076000e+00 -5.270000000e-04
325000000.0 -1.007040000e+00 -2.861000000e-03
334000000.0 -1.010281000e+00 -2.295000000e-03
343000000.0 -1.010587000e+00 -2.077000000e-03
352000000.0 -1.014471000e+00 -3.114000000e-03
361000000.0 -1.014306000e+00 -4.214000000e-03
370000000.0 -1.014756000e+00 -3.904000000e-03
379000000.0 -1.013999000e+00 -4.203000000e-03
388000000.0 -1.005074000e+00 3.026400000e-02
397000000.0 -1.016679000e+00 -2.191600000e-02
406000000.0 -1.012509000e+00 -2.773000000e-03
415000000.0 -1.009622000e+00 -2.452000000e-03
424000000.0 -1.009523000e+00 -3.180000000e-03
433000000.0 -1.006269000e+00 -1.213000000e-03
442000000.0 -1.003844000e+00 -2.569000000e-03
451000000.0 -1.000055000e+00 -1.178000000e-03
460000000.0 -1.004612000e+00 1.800000000e-05
469000000.0 -1.007123000e+00 1.876000000e-03
478000000.0 -1.009755000e+00 1.283000000e-03
487000000.0 -1.012930000e+00 1.203000000e-03
496000000.0 -1.013207000e+00 -1.970000000e-04
505000000.0 -1.016033000e+00 2.950000000e-03
514000000.0 -1.017102000e+00 2.127000000e-03
523000000.0 -1.017553000e+00 3.499000000e-03
532000000.0 -1.017349000e+00 7.590000000e-04
541000000.0 -1.013918000e+00 3.926000000e-03
550000000.0 -1.010498000e+00 1.387000000e-03
559000000.0 -1.012035000e+00 2.436000000e-03
568000000.0 -1.012982000e+00 2.314000000e-03
577000000.0 -1.009321000e+00 4.703000000e-03
586000000.0 -1.006123000e+00 1.915000000e-03
595000000.0 -9.989270000e-01 1.359000000e-03
604000000.0 -1.001861000e+00 2.232000000e-03
613000000.0 -1.004323000e+00 3.557000000e-03
622000000.0 -1.004630000e+00 3.793000000e-03
631000000.0 -1.007111000e+00 5.945000000e-03
640000000.0 -1.009731000e+00 1.057700000e-02
649000000.0 -1.012647000e+00 8.652000000e-03
658000000.0 -1.009908000e+00 9.354000000e-03
667000000.0 -1.011729000e+00 9.885000000e-03
676000000.0 -1.011819000e+00 1.049100000e-02
685000000.0 -1.006374000e+00 1.517000000e-02
694000000.0 -1.010776000e+00 1.272300000e-02
703000000.0 -1.007710000e+00 1.382800000e-02
712000000.0 -1.008728000e+00 1.597400000e-02
721000000.0 -1.006450000e+00 8.424000000e-03
730000000.0 -1.003003000e+00 6.680000000e-03
739000000.0 -9.994070000e-01 8.010000000e-04
748000000.0 -9.979760000e-01 2.418000000e-03
757000000.0 -1.001660000e+00 1.992000000e-03
766000000.0 -1.000811000e+00 2.801000000e-03
775000000.0 -1.001004000e+00 3.161000000e-03
784000000.0 -9.975730000e-01 9.584000000e-03
793000000.0 -9.986560000e-01 3.624000000e-03
802000000.0 -9.992820000e-01 1.111700000e-02
811000000.0 -9.971570000e-01 7.445000000e-03
820000000.0 -9.959570000e-01 8.024000000e-03
829000000.0 -9.991910000e-01 1.039400000e-02
838000000.0 -9.981940000e-01 8.042000000e-03
847000000.0 -9.971830000e-01 6.351000000e-03
856000000.0 -9.996280000e-01 2.778000000e-03
865000000.0 -9.991860000e-01 3.928000000e-03
874000000.0 -9.961260000e-01 -2.081000000e-03
883000000.0 -1.000355000e+00 -2.950000000e-04
892000000.0 -9.991570000e-01 3.110000000e-04
901000000.0 -9.987370000e-01 -8.246000000e-03
910000000.0 -1.000550000e+00 2.565000000e-03
919000000.0 -1.000862000e+00 -2.277000000e-03
928000000.0 -9.978370000e-01 -1.147000000e-03
937000000.0 -1.000533000e+00 -5.096000000e-03
946000000.0 -9.995530000e-01 -7.942000000e-03
955000000.0 -9.982790000e-01 -7.663000000e-03
964000000.0 -9.989780000e-01 -5.449000000e-03
973000000.0 -1.002718000e+00 -4.842000000e-03
982000000.0 -1.001625000e+00 -4.511000000e-03
991000000.0 -1.001093000e+00 -5.558000000e-03
1000000000.0 -1.003158000e+00 -3.584000000e-03
1004500000.0 -1.002672000e+00 -7.882000000e-03
1009000000.0 -9.996170000e-01 -8.042000000e-03
1013500000.0 -1.001313000e+00 -8.660000000e-03
1018000000.0 -1.001681000e+00 -6.865000000e-03
1022500000.0 -1.002179000e+00 -4.110000000e-03
1027000000.0 -1.001397000e+00 -6.452000000e-03
1031500000.0 -1.000015000e+00 -4.929000000e-03
1036000000.0 -1.002102000e+00 -5.470000000e-03
1040500000.0 -1.000685000e+00 -5.239000000e-03
1045000000.0 -1.000083000e+00 -5.953000000e-03
1049500000.0 -9.977280000e-01 -2.024000000e-03
1054000000.0 -1.001775000e+00 -2.629000000e-03
1058500000.0 -1.000995000e+00 -4.736000000e-03
1063000000.0 -1.000896000e+00 -4.892000000e-03
1067500000.0 -1.001669000e+00 -7.745000000e-03
1072000000.0 -1.006011000e+00 -3.729000000e-03
1076500000.0 -1.004789000e+00 -1.265000000e-02
1081000000.0 -1.004272000e+00 -1.388200000e-02
1085500000.0 -1.006565000e+00 -7.367000000e-03
1090000000.0 -1.002564000e+00 -1.230300000e-02
1094500000.0 -1.006608000e+00 -9.876000000e-03
1099000000.0 -1.004124000e+00 -1.177300000e-02
1103500000.0 -1.009107000e+00 -1.293300000e-02
1108000000.0 -1.005590000e+00 -9.973000000e-03
1112500000.0 -1.006392000e+00 -9.336000000e-03
1117000000.0 -1.004393000e+00 -8.095000000e-03
1121500000.0 -1.004938000e+00 -1.376200000e-02
1126000000.0 -1.027858000e+00 -1.299110000e-01
1130500000.0 -1.010578000e+00 -1.453800000e-02
1135000000.0 -1.017826000e+00 -6.169800000e-02
1139500000.0 -1.009558000e+00 -2.538500000e-02
1144000000.0 -1.007161000e+00 -1.105000000e-02
1148500000.0 -1.006975000e+00 -8.001000000e-03
1153000000.0 -1.000347000e+00 -7.209000000e-03
1157500000.0 -1.008410000e+00 -1.011600000e-02
1162000000.0 -1.013302000e+00 -4.102600000e-02
1166500000.0 -1.008648000e+00 -9.683000000e-03
1171000000.0 -1.005842000e+00 -9.964000000e-03
1175500000.0 -1.001082000e+00 -8.309000000e-03
1180000000.0 -9.962610000e-01 5.710000000e-03
1184500000.0 -9.970500000e-01 -4.981000000e-03
1189000000.0 -1.001499000e+00 -8.205000000e-03
1193500000.0 -9.928110000e-01 -2.459000000e-03
1198000000.0 -9.990920000e-01 -8.757000000e-03
1202500000.0 -1.001030000e+00 -1.470000000e-04
1207000000.0 -1.001294000e+00 -4.010000000e-04
1211500000.0 -9.979350000e-01 -1.718000000e-03
1216000000.0 -1.005120000e+00 2.592000000e-03
1220500000.0 -9.978030000e-01 1.581900000e-02
1225000000.0 -9.992680000e-01 -4.657000000e-03
1229500000.0 -1.004921000e+00 -1.672900000e-02
1234000000.0 -1.001878000e+00 8.130000000e-04
1238500000.0 -9.979220000e-01 9.255000000e-03
1243000000.0 -1.005844000e+00 -3.287000000e-03
1247500000.0 -1.005912000e+00 -2.508100000e-02
1252000000.0 -1.007237000e+00 -1.137300000e-02
1256500000.0 -1.003099000e+00 1.697100000e-02
1261000000.0 -1.010654000e+00 -8.681000000e-03
1265500000.0 -9.998730000e-01 -8.809000000e-03
1270000000.0 -1.005138000e+00 -2.166000000e-03
1274500000.0 -1.005672000e+00 -9.991000000e-03
1279000000.0 -1.003682000e+00 -8.564000000e-03
1283500000.0 -1.003647000e+00 -2.411000000e-03
1288000000.0 -1.002690000e+00 -6.509000000e-03
1292500000.0 -1.003305000e+00 2.998000000e-03
1297000000.0 -1.008363000e+00 -9.980000000e-03
1301500000.0 -1.002099000e+00 -3.477000000e-03
1306000000.0 -9.996370000e-01 -1.100600000e-02
1310500000.0 -9.970720000e-01 -3.771000000e-03
1315000000.0 -1.002857000e+00 -2.817000000e-03
1319500000.0 -9.986950000e-01 -4.049000000e-03
1324000000.0 -1.003768000e+00 -5.582000000e-03
1328500000.0 -9.957470000e-01 -4.891000000e-03
1333000000.0 -9.923320000e-01 -6.645000000e-03
1337500000.0 -9.973430000e-01 -6.649000000e-03
1342000000.0 -9.974900000e-01 -1.978000000e-03
1346500000.0 -9.973810000e-01 -5.590000000e-03
1351000000.0 -9.917830000e-01 -8.550000000e-04
1355500000.0 -9.906070000e-01 -4.287000000e-03
1360000000.0 -1.000676000e+00 1.930000000e-04
1364500000.0 -9.922920000e-01 -3.187000000e-03
1369000000.0 -9.968250000e-01 1.969000000e-03
1373500000.0 -1.002490000e+00 2.313000000e-03
1378000000.0 -1.002814000e+00 -7.034000000e-03
1382500000.0 -1.008503000e+00 -3.865000000e-03
1387000000.0 -1.003359000e+00 -6.995000000e-03
1391500000.0 -1.006407000e+00 -7.893000000e-03
1396000000.0 -1.004401000e+00 -3.954000000e-03
1400500000.0 -1.009884000e+00 1.469000000e-03
1405000000.0 -1.004113000e+00 -5.366000000e-03
1409500000.0 -1.007505000e+00 8.870000000e-04
1414000000.0 -1.005627000e+00 -3.005000000e-03
1418500000.0 -1.007776000e+00 -1.457600000e-02
1423000000.0 -1.009200000e+00 -1.269400000e-02
1427500000.0 -1.015609000e+00 -1.558700000e-02
1432000000.0 -1.008882000e+00 -1.365600000e-02
1436500000.0 -1.012994000e+00 -3.962000000e-03
1441000000.0 -1.012439000e+00 -5.059000000e-03
1445500000.0 -1.011279000e+00 -6.916000000e-03
1450000000.0 -1.010763000e+00 -2.661000000e-03
