! piloto_deriva / corto_deriva / r18
# HZ S RI R 50
50000.0 -9.964630000e-01 -3.630000000e-02
59500.0 -9.985320000e-01 -1.739000000e-02
69000.0 -9.975970000e-01 -6.111000000e-03
78500.0 -9.991990000e-01 -1.738000000e-03
88000.0 -9.988690000e-01 -1.140000000e-04
97500.0 -1.000172000e+00 -4.020000000e-04
107000.0 -9.997250000e-01 -2.526000000e-03
116500.0 -9.999340000e-01 -6.068000000e-03
126000.0 -1.000850000e+00 -1.144000000e-02
135500.0 -9.998940000e-01 -1.564700000e-02
145000.0 -1.001019000e+00 -2.211100000e-02
154500.0 -1.000733000e+00 -2.935500000e-02
164000.0 -9.995220000e-01 -3.646300000e-02
173500.0 -1.000204000e+00 -4.425200000e-02
183000.0 -9.998760000e-01 -5.187900000e-02
192500.0 -9.999940000e-01 -6.004100000e-02
202000.0 -1.000464000e+00 -6.760300000e-02
211500.0 -1.000496000e+00 -7.727800000e-02
221000.0 -1.008661000e+00 -8.544900000e-02
230500.0 -1.000527000e+00 -9.477600000e-02
240000.0 -1.000011000e+00 -1.048330000e-01
249500.0 -1.000808000e+00 -1.130150000e-01
259000.0 -1.001880000e+00 -1.765620000e-01
268500.0 -1.001864000e+00 -1.315860000e-01
278000.0 -1.001507000e+00 -1.410430000e-01
287500.0 -1.002474000e+00 -1.499740000e-01
297000.0 -1.001389000e+00 -1.589630000e-01
306500.0 -1.002077000e+00 -1.683480000e-01
316000.0 -1.001954000e+00 -1.783040000e-01
325500.0 -1.002343000e+00 -1.873430000e-01
335000.0 -1.003174000e+00 -1.955450000e-01
344500.0 -1.003430000e+00 -2.055490000e-01
354000.0 -1.003492000e+00 -2.146220000e-01
363500.0 -1.003646000e+00 -2.237810000e-01
373000.0 -1.004241000e+00 -2.328640000e-01
382500.0 -1.003839000e+00 -2.432200000e-01
392000.0 -1.004220000e+00 -2.516800000e-01
401500.0 -1.004291000e+00 -2.610130000e-01
411000.0 -1.004428000e+00 -2.704010000e-01
420500.0 -1.003862000e+00 -2.796100000e-01
430000.0 -1.005412000e+00 -2.885160000e-01
439500.0 -1.005102000e+00 -2.986050000e-01
449000.0 -1.005291000e+00 -3.086660000e-01
458500.0 -1.005825000e+00 -3.171230000e-01
468000.0 -1.005236000e+00 -3.268580000e-01
477500.0 -1.006804000e+00 -3.356750000e-01
487000.0 -1.006427000e+00 -3.451750000e-01
496500.0 -1.006267000e+00 -3.545930000e-01
506000.0 -1.007101000e+00 -3.637360000e-01
515500.0 -1.007419000e+00 -3.722540000e-01
525000.0 -1.007821000e+00 -3.822780000e-01
534500.0 -1.007890000e+00 -3.918130000e-01
544000.0 -1.007728000e+00 -4.012200000e-01
553500.0 -1.009224000e+00 -4.095960000e-01
563000.0 -1.008814000e+00 -4.191280000e-01
572500.0 -1.009768000e+00 -4.283310000e-01
582000.0 -1.010129000e+00 -4.374360000e-01
591500.0 -1.009676000e+00 -4.468840000e-01
601000.0 -1.010947000e+00 -4.560630000e-01
610500.0 -1.011349000e+00 -4.651220000e-01
620000.0 -1.012058000e+00 -4.741660000e-01
629500.0 -1.012747000e+00 -4.839350000e-01
639000.0 -1.011814000e+00 -4.924620000e-01
648500.0 -1.013481000e+00 -5.013470000e-01
658000.0 -1.014469000e+00 -5.098040000e-01
667500.0 -1.014682000e+00 -5.192370000e-01
677000.0 -1.014750000e+00 -5.275610000e-01
686500.0 -1.016561000e+00 -5.373380000e-01
696000.0 -1.015558000e+00 -5.455740000e-01
705500.0 -1.018249000e+00 -5.564280000e-01
715000.0 -1.018301000e+00 -5.645580000e-01
724500.0 -1.018152000e+00 -5.732240000e-01
734000.0 -1.020985000e+00 -5.823530000e-01
743500.0 -1.020625000e+00 -5.906130000e-01
753000.0 -1.021973000e+00 -6.007520000e-01
762500.0 -1.022728000e+00 -6.088510000e-01
772000.0 -1.022766000e+00 -6.177450000e-01
781500.0 -1.025647000e+00 -6.264100000e-01
791000.0 -1.026917000e+00 -6.360320000e-01
800500.0 -1.028244000e+00 -6.436140000e-01
810000.0 -1.028512000e+00 -6.533880000e-01
819500.0 -1.030116000e+00 -6.610390000e-01
829000.0 -1.031766000e+00 -6.700700000e-01
838500.0 -1.033044000e+00 -6.801550000e-01
848000.0 -1.034439000e+00 -6.888450000e-01
857500.0 -1.035738000e+00 -6.976590000e-01
867000.0 -1.036631000e+00 -7.048720000e-01
876500.0 -1.039075000e+00 -7.138750000e-01
886000.0 -1.041823000e+00 -7.220180000e-01
895500.0 -1.042210000e+00 -7.313480000e-01
905000.0 -1.045334000e+00 -7.403940000e-01
914500.0 -1.047817000e+00 -7.471240000e-01
924000.0 -1.050045000e+00 -7.582750000e-01
933500.0 -1.051387000e+00 -7.662230000e-01
943000.0 -1.053109000e+00 -7.747380000e-01
952500.0 -1.056535000e+00 -7.827330000e-01
962000.0 -1.057231000e+00 -7.905860000e-01
971500.0 -1.059415000e+00 -7.998010000e-01
981000.0 -1.063664000e+00 -8.091190000e-01
990500.0 -1.064726000e+00 -8.176320000e-01
1000000.0 -1.068521000e+00 -8.252870000e-01
1090000.0 -1.095369000e+00 -9.030130000e-01
1180000.0 -1.131987000e+00 -9.754060000e-01
1270000.0 -1.179752000e+00 -1.043754000e+00
1360000.0 -1.239048000e+00 -1.105470000e+00
1450000.0 -1.303675000e+00 -1.155999000e+00
1540000.0 -1.382511000e+00 -1.190655000e+00
1630000.0 -1.468465000e+00 -1.209851000e+00
1720000.0 -1.560279000e+00 -1.209607000e+00
1810000.0 -1.650576000e+00 -1.189160000e+00
1900000.0 -1.733305000e+00 -1.144497000e+00
1990000.0 -1.808197000e+00 -1.083376000e+00
2080000.0 -1.861315000e+00 -1.001242000e+00
2170000.0 -1.899410000e+00 -9.113800000e-01
2260000.0 -1.914367000e+00 -8.214620000e-01
2350000.0 -1.915190000e+00 -7.326010000e-01
2440000.0 -1.900483000e+00 -6.438930000e-01
2530000.0 -1.872356000e+00 -5.661930000e-01
2620000.0 -1.838573000e+00 -5.001480000e-01
2710000.0 -1.801237000e+00 -4.366710000e-01
2800000.0 -1.758877000e+00 -3.888260000e-01
2890000.0 -1.718727000e+00 -3.429660000e-01
2980000.0 -1.674931000e+00 -3.030630000e-01
3070000.0 -1.634665000e+00 -2.698960000e-01
3160000.0 -1.592724000e+00 -2.422020000e-01
3250000.0 -1.558323000e+00 -2.150520000e-01
3340000.0 -1.522762000e+00 -1.925490000e-01
3430000.0 -1.487979000e+00 -1.723060000e-01
3520000.0 -1.459291000e+00 -1.551730000e-01
3610000.0 -1.430129000e+00 -1.378980000e-01
3700000.0 -1.402232000e+00 -1.225300000e-01
3790000.0 -1.379390000e+00 -1.069360000e-01
3880000.0 -1.355548000e+00 -9.342200000e-02
3970000.0 -1.334342000e+00 -8.017200000e-02
4060000.0 -1.313758000e+00 -6.637100000e-02
4150000.0 -1.296816000e+00 -5.451400000e-02
4240000.0 -1.279024000e+00 -4.309300000e-02
4330000.0 -1.263855000e+00 -3.079600000e-02
4420000.0 -1.249449000e+00 -1.840700000e-02
4510000.0 -1.235325000e+00 -7.794000000e-03
4600000.0 -1.224367000e+00 3.534000000e-03
4690000.0 -1.213378000e+00 1.774800000e-02
4780000.0 -1.203553000e+00 2.641900000e-02
4870000.0 -1.195421000e+00 3.732000000e-02
4960000.0 -1.187015000e+00 4.885500000e-02
5050000.0 -1.172968000e+00 5.857900000e-02
5140000.0 -1.166888000e+00 6.993800000e-02
5230000.0 -1.162525000e+00 8.017100000e-02
5320000.0 -1.157287000e+00 9.126800000e-02
5410000.0 -1.152295000e+00 1.012240000e-01
5500000.0 -1.148493000e+00 1.119020000e-01
5590000.0 -1.143183000e+00 1.221820000e-01
5680000.0 -1.139408000e+00 1.314610000e-01
5770000.0 -1.136383000e+00 1.414320000e-01
5860000.0 -1.132335000e+00 1.509650000e-01
5950000.0 -1.129410000e+00 1.586500000e-01
6040000.0 -1.125051000e+00 1.684180000e-01
6130000.0 -1.121880000e+00 1.764430000e-01
6220000.0 -1.119339000e+00 1.865590000e-01
6310000.0 -1.116305000e+00 1.927190000e-01
6400000.0 -1.114195000e+00 1.992160000e-01
6490000.0 -1.112242000e+00 2.065760000e-01
6580000.0 -1.111630000e+00 2.128080000e-01
6670000.0 -1.108237000e+00 2.181450000e-01
6760000.0 -1.106855000e+00 2.246250000e-01
6850000.0 -1.105702000e+00 2.303580000e-01
6940000.0 -1.104890000e+00 2.320140000e-01
7030000.0 -1.103316000e+00 2.361500000e-01
7120000.0 -1.102158000e+00 2.382130000e-01
7210000.0 -1.102678000e+00 2.410230000e-01
7300000.0 -1.101952000e+00 2.418990000e-01
7390000.0 -1.102220000e+00 2.425270000e-01
7480000.0 -1.102717000e+00 2.421320000e-01
7570000.0 1.971640000e-01 1.073719000e+00
7660000.0 1.952960000e-01 1.073146000e+00
7750000.0 1.939620000e-01 1.073754000e+00
7840000.0 1.933960000e-01 1.074779000e+00
7930000.0 1.931280000e-01 1.075495000e+00
8020000.0 1.913000000e-01 1.075281000e+00
8110000.0 1.905870000e-01 1.077086000e+00
8200000.0 1.904640000e-01 1.075676000e+00
8290000.0 1.904640000e-01 1.076262000e+00
8380000.0 1.881910000e-01 1.076490000e+00
8470000.0 1.880800000e-01 1.077830000e+00
8560000.0 1.878310000e-01 1.079181000e+00
8650000.0 1.871100000e-01 1.079202000e+00
8740000.0 1.865630000e-01 1.078660000e+00
8830000.0 1.848290000e-01 1.079575000e+00
8920000.0 1.844500000e-01 1.080158000e+00
9010000.0 1.846730000e-01 1.080507000e+00
9100000.0 1.830400000e-01 1.080712000e+00
9190000.0 1.822980000e-01 1.082138000e+00
9280000.0 1.817100000e-01 1.081992000e+00
9370000.0 1.804970000e-01 1.082387000e+00
9460000.0 1.803500000e-01 1.083414000e+00
9550000.0 1.793270000e-01 1.083392000e+00
9640000.0 1.783590000e-01 1.084779000e+00
9730000.0 1.783800000e-01 1.086076000e+00
9820000.0 1.768220000e-01 1.085636000e+00
9910000.0 1.775570000e-01 1.086653000e+00
10000000.0 1.768830000e-01 1.087770000e+00
10900000.0 1.700930000e-01 1.095095000e+00
11800000.0 1.644520000e-01 1.101831000e+00
12700000.0 1.570810000e-01 1.110087000e+00
13600000.0 1.508020000e-01 1.117621000e+00
14500000.0 1.444220000e-01 1.127598000e+00
15400000.0 1.375420000e-01 1.136339000e+00
16300000.0 1.317250000e-01 1.144897000e+00
17200000.0 1.232490000e-01 1.153819000e+00
18100000.0 1.168770000e-01 1.163087000e+00
19000000.0 1.105930000e-01 1.172388000e+00
19900000.0 1.009120000e-01 1.182401000e+00
20800000.0 9.290600000e-02 1.192369000e+00
21700000.0 8.429400000e-02 1.201582000e+00
22600000.0 7.648600000e-02 1.211802000e+00
23500000.0 6.733100000e-02 1.221578000e+00
24400000.0 5.663400000e-02 1.231179000e+00
25300000.0 4.606900000e-02 1.242777000e+00
26200000.0 3.682600000e-02 1.252535000e+00
27100000.0 2.628300000e-02 1.261344000e+00
28000000.0 1.468300000e-02 1.271919000e+00
28900000.0 2.161000000e-03 1.281893000e+00
29800000.0 -9.332000000e-03 1.291408000e+00
30700000.0 -2.259300000e-02 1.302491000e+00
31600000.0 -3.427500000e-02 1.312310000e+00
32500000.0 -4.841400000e-02 1.322276000e+00
33400000.0 -6.128600000e-02 1.332581000e+00
34300000.0 -7.700100000e-02 1.341852000e+00
35200000.0 -9.017800000e-02 1.351505000e+00
36100000.0 -1.062170000e-01 1.360722000e+00
37000000.0 -1.224870000e-01 1.369752000e+00
37900000.0 -1.381580000e-01 1.379959000e+00
38800000.0 -1.540600000e-01 1.387830000e+00
39700000.0 -1.718740000e-01 1.397018000e+00
40600000.0 -1.886340000e-01 1.405412000e+00
41500000.0 -2.064470000e-01 1.411428000e+00
42400000.0 -2.247070000e-01 1.420291000e+00
43300000.0 -2.437620000e-01 1.429164000e+00
44200000.0 -2.641930000e-01 1.435264000e+00
45100000.0 -2.822550000e-01 1.441938000e+00
46000000.0 -3.022320000e-01 1.447926000e+00
46900000.0 -3.238940000e-01 1.453827000e+00
47800000.0 -3.446700000e-01 1.459335000e+00
48700000.0 -3.658430000e-01 1.464034000e+00
49600000.0 -3.881840000e-01 1.467348000e+00
50500000.0 -4.091280000e-01 1.472911000e+00
51400000.0 -4.308680000e-01 1.475222000e+00
52300000.0 -4.547040000e-01 1.478952000e+00
53200000.0 -4.774400000e-01 1.479315000e+00
54100000.0 -5.005710000e-01 1.480269000e+00
55000000.0 -5.246150000e-01 1.481464000e+00
55900000.0 -5.479050000e-01 1.480981000e+00
56800000.0 -5.720160000e-01 1.480852000e+00
57700000.0 -5.943140000e-01 1.478749000e+00
58600000.0 -6.183820000e-01 1.478858000e+00
59500000.0 -6.423210000e-01 1.474456000e+00
60400000.0 -6.679300000e-01 1.471969000e+00
61300000.0 -6.921200000e-01 1.466694000e+00
62200000.0 -7.171210000e-01 1.461711000e+00
63100000.0 -7.398080000e-01 1.456682000e+00
64000000.0 -7.636310000e-01 1.451172000e+00
64900000.0 -7.880010000e-01 1.443230000e+00
65800000.0 -8.125170000e-01 1.435241000e+00
66700000.0 -8.367890000e-01 1.427590000e+00
67600000.0 -8.597640000e-01 1.419302000e+00
68500000.0 -8.847900000e-01 1.409322000e+00
69400000.0 -9.067810000e-01 1.397032000e+00
70300000.0 -9.293590000e-01 1.386441000e+00
71200000.0 -9.520730000e-01 1.374531000e+00
72100000.0 -9.760540000e-01 1.362221000e+00
73000000.0 -9.985110000e-01 1.348854000e+00
73900000.0 -1.020354000e+00 1.334610000e+00
74800000.0 -1.040397000e+00 1.320496000e+00
75700000.0 -1.060955000e+00 1.302693000e+00
76600000.0 -1.080100000e+00 1.288799000e+00
77500000.0 -1.100018000e+00 1.272066000e+00
78400000.0 -1.120375000e+00 1.255795000e+00
79300000.0 -1.140815000e+00 1.237422000e+00
80200000.0 -1.156194000e+00 1.219386000e+00
81100000.0 -1.174797000e+00 1.201055000e+00
82000000.0 -1.216105000e+00 1.165410000e+00
82900000.0 -1.210631000e+00 1.161539000e+00
83800000.0 -1.225058000e+00 1.142108000e+00
84700000.0 -1.242675000e+00 1.120413000e+00
85600000.0 -1.255827000e+00 1.099412000e+00
86500000.0 -1.267423000e+00 1.080080000e+00
87400000.0 -1.282761000e+00 1.057176000e+00
88300000.0 -1.294170000e+00 1.035635000e+00
89200000.0 -1.306712000e+00 1.014498000e+00
90100000.0 -1.319126000e+00 9.915410000e-01
91000000.0 -1.329898000e+00 9.698500000e-01
91900000.0 -1.337421000e+00 9.461160000e-01
92800000.0 -1.347165000e+00 9.233130000e-01
93700000.0 -1.356741000e+00 9.002260000e-01
94600000.0 -1.361368000e+00 8.764270000e-01
95500000.0 -1.369749000e+00 8.541650000e-01
96400000.0 -1.374599000e+00 8.307990000e-01
97300000.0 -1.379592000e+00 8.078380000e-01
98200000.0 -1.385090000e+00 7.833990000e-01
99100000.0 -1.389074000e+00 7.610260000e-01
100000000.0 -1.390364000e+00 7.366600000e-01
109000000.0 -1.385382000e+00 5.211730000e-01
118000000.0 -1.330865000e+00 3.389010000e-01
127000000.0 -1.250381000e+00 1.991000000e-01
136000000.0 -1.134183000e+00 1.004780000e-01
145000000.0 -1.046510000e+00 2.849100000e-02
154000000.0 -1.000637000e+00 -3.030000000e-04
163000000.0 -1.002625000e+00 -3.540000000e-03
172000000.0 -1.002177000e+00 1.249800000e-02
181000000.0 -1.006326000e+00 -7.795000000e-03
190000000.0 -1.009178000e+00 -2.809500000e-02
199000000.0 -1.008021000e+00 -1.013400000e-02
208000000.0 -1.007052000e+00 8.054000000e-03
217000000.0 -1.009737000e+00 -1.069600000e-02
226000000.0 -1.012284000e+00 -3.046100000e-02
235000000.0 -1.010220000e+00 -1.121500000e-02
244000000.0 -1.006594000e+00 7.955000000e-03
253000000.0 -1.011311000e+00 -2.842100000e-02
262000000.0 -1.008155000e+00 -8.045000000e-03
271000000.0 -1.006912000e+00 -7.758000000e-03
280000000.0 -1.005333000e+00 -4.647000000e-03
289000000.0 -1.003000000e+00 -3.356000000e-03
298000000.0 -1.000055000e+00 -5.640000000e-04
307000000.0 -1.001392000e+00 -4.800000000e-05
316000000.0 -1.006383000e+00 -2.366000000e-03
325000000.0 -1.008018000e+00 -8.130000000e-04
334000000.0 -1.012099000e+00 -1.902000000e-03
343000000.0 -1.012596000e+00 -2.504000000e-03
352000000.0 -1.015545000e+00 -1.703000000e-03
361000000.0 -1.013704000e+00 -4.070000000e-03
370000000.0 -1.014291000e+00 -3.613000000e-03
379000000.0 -1.021014000e+00 -2.175600000e-02
388000000.0 -1.013851000e+00 -4.066000000e-03
397000000.0 -1.020272000e+00 -2.186900000e-02
406000000.0 -1.011448000e+00 -4.067000000e-03
415000000.0 -1.009825000e+00 -2.718000000e-03
424000000.0 -1.008999000e+00 -3.822000000e-03
433000000.0 -1.005992000e+00 -1.430000000e-04
442000000.0 -1.004142000e+00 -1.910000000e-03
451000000.0 -1.001828000e+00 -1.972000000e-03
460000000.0 -1.004878000e+00 1.049000000e-03
469000000.0 -1.006617000e+00 2.298000000e-03
478000000.0 -1.009809000e+00 -2.510000000e-04
487000000.0 -1.013085000e+00 1.930000000e-03
496000000.0 -1.013817000e+00 2.878000000e-03
505000000.0 -1.016490000e+00 1.965000000e-03
514000000.0 -1.016629000e+00 2.259000000e-03
523000000.0 -1.017896000e+00 1.759000000e-03
532000000.0 -1.017228000e+00 7.650000000e-04
541000000.0 -1.014709000e+00 1.668000000e-03
550000000.0 -1.015624000e+00 2.237000000e-03
559000000.0 -1.011148000e+00 4.410000000e-04
568000000.0 -1.011922000e+00 -1.120000000e-04
577000000.0 -1.008820000e+00 1.460000000e-04
586000000.0 -1.006217000e+00 3.834000000e-03
595000000.0 -1.001377000e+00 1.877000000e-03
604000000.0 -1.001228000e+00 -1.560000000e-04
613000000.0 -1.005370000e+00 8.480000000e-04
622000000.0 -1.007243000e+00 5.279000000e-03
631000000.0 -1.004957000e+00 1.033100000e-02
640000000.0 -1.008287000e+00 9.193000000e-03
649000000.0 -1.008357000e+00 1.042400000e-02
658000000.0 -1.009018000e+00 1.163200000e-02
667000000.0 -1.012286000e+00 1.293400000e-02
676000000.0 -1.011345000e+00 1.335100000e-02
685000000.0 -1.009919000e+00 9.619000000e-03
694000000.0 -1.013078000e+00 1.358400000e-02
703000000.0 -1.008060000e+00 8.427000000e-03
712000000.0 -1.011818000e+00 9.510000000e-03
721000000.0 -1.003958000e+00 8.314000000e-03
730000000.0 -1.004434000e+00 5.666000000e-03
739000000.0 -1.002751000e+00 4.827000000e-03
748000000.0 -1.000387000e+00 4.083000000e-03
757000000.0 -9.958580000e-01 2.624000000e-03
766000000.0 -9.976410000e-01 6.578000000e-03
775000000.0 -1.001678000e+00 4.474000000e-03
784000000.0 -9.992360000e-01 4.760000000e-03
793000000.0 -9.978660000e-01 9.616000000e-03
802000000.0 -9.997160000e-01 7.381000000e-03
811000000.0 -9.974310000e-01 1.106000000e-02
820000000.0 -9.983630000e-01 5.550000000e-03
829000000.0 -9.985060000e-01 9.454000000e-03
838000000.0 -9.982080000e-01 9.133000000e-03
847000000.0 -9.976130000e-01 6.200000000e-03
856000000.0 -9.937610000e-01 8.205000000e-03
865000000.0 -9.950820000e-01 -1.644000000e-03
874000000.0 -9.985040000e-01 3.336000000e-03
883000000.0 -9.968230000e-01 2.599000000e-03
892000000.0 -9.983190000e-01 3.424000000e-03
901000000.0 -9.998860000e-01 3.171000000e-03
910000000.0 -9.967900000e-01 -4.398000000e-03
919000000.0 -9.996660000e-01 -3.833000000e-03
928000000.0 -9.995170000e-01 -2.721000000e-03
937000000.0 -9.983230000e-01 -2.680000000e-03
946000000.0 -1.000941000e+00 -4.570000000e-03
955000000.0 -1.001433000e+00 -8.160000000e-03
964000000.0 -1.002811000e+00 -6.431000000e-03
973000000.0 -1.001648000e+00 -3.150000000e-03
982000000.0 -9.992030000e-01 -6.025000000e-03
991000000.0 -1.005173000e+00 -1.056700000e-02
1000000000.0 -1.001395000e+00 -5.676000000e-03
1004500000.0 -9.997300000e-01 -3.758000000e-03
1009000000.0 -1.001134000e+00 -9.092000000e-03
1013500000.0 -1.000682000e+00 -4.119000000e-03
1018000000.0 -1.002158000e+00 -8.624000000e-03
1022500000.0 -1.002661000e+00 -8.474000000e-03
1027000000.0 -1.001502000e+00 -7.850000000e-03
1031500000.0 -1.003415000e+00 -1.171100000e-02
1036000000.0 -1.003062000e+00 -5.953000000e-03
1040500000.0 -1.001693000e+00 -4.887000000e-03
1045000000.0 -1.001184000e+00 -3.350000000e-03
1049500000.0 -9.992730000e-01 -3.495000000e-03
1054000000.0 -1.003219000e+00 -1.245900000e-02
1058500000.0 -1.003264000e+00 -7.864000000e-03
1063000000.0 -1.002943000e+00 -1.009000000e-02
1067500000.0 -1.002161000e+00 -8.621000000e-03
1072000000.0 -1.002186000e+00 -6.859000000e-03
1076500000.0 -1.007447000e+00 -5.997000000e-03
1081000000.0 -1.003839000e+00 -8.003000000e-03
1085500000.0 -1.007135000e+00 -6.814000000e-03
1090000000.0 -1.008832000e+00 -1.284400000e-02
1094500000.0 -1.002562000e+00 -8.323000000e-03
1099000000.0 -1.010019000e+00 -1.050200000e-02
1103500000.0 -1.007993000e+00 -1.077600000e-02
1108000000.0 -1.009248000e+00 -8.716000000e-03
1112500000.0 -1.007973000e+00 -1.477300000e-02
1117000000.0 -1.006190000e+00 -5.543000000e-03
1121500000.0 -1.012024000e+00 -1.457900000e-02
1126000000.0 -1.007132000e+00 -9.221000000e-03
1130500000.0 -1.006692000e+00 -8.874000000e-03
1135000000.0 -1.008051000e+00 -1.274500000e-02
1139500000.0 -1.009139000e+00 -9.956000000e-03
1144000000.0 -1.007622000e+00 -1.115800000e-02
1148500000.0 -9.990240000e-01 -8.392000000e-03
1153000000.0 -1.010183000e+00 -9.440000000e-03
1157500000.0 -1.016941000e+00 -4.354600000e-02
1162000000.0 -1.006024000e+00 -8.858000000e-03
1166500000.0 -1.002844000e+00 -8.665000000e-03
1171000000.0 -9.995900000e-01 -7.759000000e-03
1175500000.0 -1.005785000e+00 -9.028000000e-03
1180000000.0 -9.988110000e-01 -4.338000000e-03
1184500000.0 -9.993000000e-01 -4.122000000e-03
1189000000.0 -9.984160000e-01 -9.728000000e-03
1193500000.0 -9.941790000e-01 -7.641000000e-03
1198000000.0 -9.981080000e-01 -1.644000000e-03
1202500000.0 -9.925480000e-01 -5.380000000e-04
1207000000.0 -9.955730000e-01 3.953000000e-03
1211500000.0 -9.968740000e-01 -2.441000000e-03
1216000000.0 -9.992230000e-01 1.223000000e-03
1220500000.0 -9.974170000e-01 -5.446000000e-03
1225000000.0 -1.006852000e+00 -2.122000000e-03
1229500000.0 -1.002363000e+00 -7.825000000e-03
1234000000.0 -1.005479000e+00 -1.048200000e-02
1238500000.0 -1.006337000e+00 -2.940000000e-03
1243000000.0 -1.002211000e+00 -8.505000000e-03
1247500000.0 -1.005623000e+00 -3.618000000e-03
1252000000.0 -1.000641000e+00 -3.358000000e-03
1256500000.0 -1.005215000e+00 -6.887000000e-03
1261000000.0 -1.002119000e+00 -3.441000000e-03
1265500000.0 -1.003415000e+00 -6.667000000e-03
1270000000.0 -1.003812000e+00 -5.644000000e-03
1274500000.0 -1.006699000e+00 -1.215900000e-02
1279000000.0 -1.005840000e+00 1.340000000e-03
1283500000.0 -1.005321000e+00 -5.553000000e-03
1288000000.0 -1.002042000e+00 -9.612000000e-03
1292500000.0 -1.009136000e+00 -8.823000000e-03
1297000000.0 -1.003442000e+00 5.835000000e-03
1301500000.0 -9.952910000e-01 -3.088000000e-03
1306000000.0 -9.993570000e-01 -1.167700000e-02
1310500000.0 -1.002611000e+00 -7.062000000e-03
1315000000.0 -1.003644000e+00 -1.094500000e-02
1319500000.0 -1.004532000e+00 1.800000000e-04
1324000000.0 -1.001982000e+00 -5.008000000e-03
1328500000.0 -9.930170000e-01 -6.628000000e-03
1333000000.0 -1.000689000e+00 -8.719000000e-03
1337500000.0 -9.968940000e-01 -3.831000000e-03
1342000000.0 -9.953770000e-01 -1.443000000e-03
1346500000.0 -9.987240000e-01 -4.817000000e-03
1351000000.0 -9.869060000e-01 9.990000000e-04
1355500000.0 -9.895970000e-01 1.080000000e-04
1360000000.0 -9.914400000e-01 -9.466000000e-03
1364500000.0 -9.943500000e-01 -1.969000000e-03
1369000000.0 -9.962420000e-01 -1.060000000e-02
1373500000.0 -1.001987000e+00 -8.714000000e-03
1378000000.0 -1.001799000e+00 -5.452000000e-03
1382500000.0 -1.007131000e+00 3.994000000e-03
1387000000.0 -9.962820000e-01 1.376000000e-03
1391500000.0 -1.005078000e+00 5.177000000e-03
1396000000.0 -1.008472000e+00 -1.260600000e-02
1400500000.0 -1.006454000e+00 -1.339400000e-02
1405000000.0 -1.004675000e+00 -4.468000000e-03
1409500000.0 -1.004204000e+00 -1.033000000e-03
1414000000.0 -1.007208000e+00 4.420000000e-03
1418500000.0 -1.010949000e+00 -8.017000000e-03
1423000000.0 -1.009687000e+00 -8.650000000e-03
1427500000.0 -1.008345000e+00 -7.500000000e-05
1432000000.0 -1.010078000e+00 -6.884000000e-03
1436500000.0 -1.010319000e+00 -3.831000000e-03
1441000000.0 -1.007560000e+00 -5.345000000e-03
1445500000.0 -1.012601000e+00 2.543000000e-03
1450000000.0 -1.008606000e+00 -5.796000000e-03
