! piloto_deriva / corto_deriva / r25
# HZ S RI R 50
50000.0 -9.985420000e-01 -3.796600000e-02
59500.0 -1.000400000e+00 -1.749400000e-02
69000.0 -9.984780000e-01 -4.581000000e-03
78500.0 -9.986530000e-01 -1.798000000e-03
88000.0 -9.985390000e-01 6.660000000e-04
97500.0 -1.000451000e+00 1.090000000e-04
107000.0 -9.993960000e-01 -2.553000000e-03
116500.0 -1.000686000e+00 -6.287000000e-03
126000.0 -9.999590000e-01 -1.156400000e-02
135500.0 -9.999220000e-01 -1.586900000e-02
145000.0 -9.999400000e-01 -2.299700000e-02
154500.0 -9.998810000e-01 -2.908800000e-02
164000.0 -1.000717000e+00 -3.602400000e-02
173500.0 -9.998190000e-01 -4.404800000e-02
183000.0 -9.993890000e-01 -5.245300000e-02
192500.0 -9.998890000e-01 -6.017600000e-02
202000.0 -1.000166000e+00 -6.895600000e-02
211500.0 -1.000677000e+00 -7.706100000e-02
221000.0 -1.000315000e+00 -8.604600000e-02
230500.0 -1.000843000e+00 -9.539800000e-02
240000.0 -1.000254000e+00 -1.039200000e-01
249500.0 -1.000504000e+00 -1.131100000e-01
259000.0 -1.001121000e+00 -1.213640000e-01
268500.0 -1.001256000e+00 -1.314460000e-01
278000.0 -1.001457000e+00 -1.404770000e-01
287500.0 -1.002170000e+00 -1.489480000e-01
297000.0 -1.001421000e+00 -1.589470000e-01
306500.0 -1.001621000e+00 -1.687300000e-01
316000.0 -1.002587000e+00 -1.783410000e-01
325500.0 -1.002508000e+00 -1.873590000e-01
335000.0 -1.002216000e+00 -1.967230000e-01
344500.0 -1.003047000e+00 -2.054700000e-01
354000.0 -1.003592000e+00 -2.154610000e-01
363500.0 -1.003530000e+00 -2.249590000e-01
373000.0 -1.003902000e+00 -2.344090000e-01
382500.0 -1.004553000e+00 -2.426180000e-01
392000.0 -1.003877000e+00 -2.520820000e-01
401500.0 -1.003741000e+00 -2.618710000e-01
411000.0 -1.005671000e+00 -2.714770000e-01
420500.0 -1.004689000e+00 -2.814980000e-01
430000.0 -1.004608000e+00 -2.898570000e-01
439500.0 -1.005079000e+00 -2.984780000e-01
449000.0 -1.004603000e+00 -3.077200000e-01
458500.0 -1.005955000e+00 -3.182150000e-01
468000.0 -1.005522000e+00 -3.260990000e-01
477500.0 -1.005917000e+00 -3.361850000e-01
487000.0 -1.006166000e+00 -3.450450000e-01
496500.0 -1.006287000e+00 -3.560930000e-01
506000.0 -1.007194000e+00 -3.644560000e-01
515500.0 -1.006937000e+00 -3.737590000e-01
525000.0 -1.007294000e+00 -3.829390000e-01
534500.0 -1.007932000e+00 -3.912650000e-01
544000.0 -1.007714000e+00 -4.012140000e-01
553500.0 -1.008558000e+00 -4.109490000e-01
563000.0 -1.009550000e+00 -4.188570000e-01
572500.0 -1.010036000e+00 -4.284810000e-01
582000.0 -1.010881000e+00 -4.378130000e-01
591500.0 -1.010417000e+00 -4.460910000e-01
601000.0 -1.010369000e+00 -4.558850000e-01
610500.0 -1.011909000e+00 -4.640930000e-01
620000.0 -1.011316000e+00 -4.750830000e-01
629500.0 -1.012788000e+00 -4.829510000e-01
639000.0 -1.012594000e+00 -4.933000000e-01
648500.0 -1.013169000e+00 -5.013480000e-01
658000.0 -1.013656000e+00 -5.099110000e-01
667500.0 -1.014104000e+00 -5.196930000e-01
677000.0 -1.015301000e+00 -5.286700000e-01
686500.0 -1.017382000e+00 -5.373880000e-01
696000.0 -1.016794000e+00 -5.461130000e-01
705500.0 -1.016228000e+00 -5.556190000e-01
715000.0 -1.018349000e+00 -5.638550000e-01
724500.0 -1.019249000e+00 -5.734400000e-01
734000.0 -1.020657000e+00 -5.824810000e-01
743500.0 -1.021511000e+00 -5.902590000e-01
753000.0 -1.022083000e+00 -5.996570000e-01
762500.0 -1.023076000e+00 -6.088630000e-01
772000.0 -1.024125000e+00 -6.177190000e-01
781500.0 -1.025138000e+00 -6.279420000e-01
791000.0 -1.026041000e+00 -6.349580000e-01
800500.0 -1.028483000e+00 -6.442920000e-01
810000.0 -1.028705000e+00 -6.549390000e-01
819500.0 -1.029834000e+00 -6.616770000e-01
829000.0 -1.031011000e+00 -6.710170000e-01
838500.0 -1.033665000e+00 -6.803050000e-01
848000.0 -1.034110000e+00 -6.887290000e-01
857500.0 -1.035866000e+00 -6.964560000e-01
867000.0 -1.038035000e+00 -7.055770000e-01
876500.0 -1.039259000e+00 -7.135680000e-01
886000.0 -1.040252000e+00 -7.227930000e-01
895500.0 -1.043095000e+00 -7.305150000e-01
905000.0 -1.044532000e+00 -7.401430000e-01
914500.0 -1.046722000e+00 -7.500730000e-01
924000.0 -1.048747000e+00 -7.586310000e-01
933500.0 -1.050078000e+00 -7.680500000e-01
943000.0 -1.053452000e+00 -7.748530000e-01
952500.0 -1.055033000e+00 -7.827150000e-01
962000.0 -1.057128000e+00 -7.917370000e-01
971500.0 -1.062350000e+00 -7.983840000e-01
981000.0 -1.062287000e+00 -8.092130000e-01
990500.0 -1.064639000e+00 -8.179340000e-01
1000000.0 -1.066329000e+00 -8.259570000e-01
1090000.0 -1.096870000e+00 -9.030140000e-01
1180000.0 -1.135048000e+00 -9.752940000e-01
1270000.0 -1.182722000e+00 -1.045364000e+00
1360000.0 -1.237977000e+00 -1.105635000e+00
1450000.0 -1.307930000e+00 -1.154675000e+00
1540000.0 -1.383966000e+00 -1.191238000e+00
1630000.0 -1.471467000e+00 -1.209513000e+00
1720000.0 -1.559447000e+00 -1.209692000e+00
1810000.0 -1.649670000e+00 -1.189659000e+00
1900000.0 -1.734326000e+00 -1.147173000e+00
1990000.0 -1.805794000e+00 -1.080584000e+00
2080000.0 -1.863334000e+00 -1.003483000e+00
2170000.0 -1.874936000e+00 -9.624190000e-01
2260000.0 -1.916114000e+00 -8.243680000e-01
2350000.0 -1.914238000e+00 -7.322540000e-01
2440000.0 -1.901969000e+00 -6.453870000e-01
2530000.0 -1.872654000e+00 -5.661570000e-01
2620000.0 -1.837560000e+00 -4.969440000e-01
2710000.0 -1.803281000e+00 -4.376900000e-01
2800000.0 -1.759052000e+00 -3.891050000e-01
2890000.0 -1.715112000e+00 -3.423580000e-01
2980000.0 -1.675384000e+00 -3.032860000e-01
3070000.0 -1.632519000e+00 -2.696370000e-01
3160000.0 -1.593924000e+00 -2.412190000e-01
3250000.0 -1.557135000e+00 -2.172590000e-01
3340000.0 -1.522650000e+00 -1.938900000e-01
3430000.0 -1.489220000e+00 -1.729120000e-01
3520000.0 -1.457872000e+00 -1.524650000e-01
3610000.0 -1.430515000e+00 -1.384960000e-01
3700000.0 -1.404420000e+00 -1.215720000e-01
3790000.0 -1.377154000e+00 -1.076540000e-01
3880000.0 -1.355074000e+00 -9.341400000e-02
3970000.0 -1.333749000e+00 -8.120100000e-02
4060000.0 -1.314088000e+00 -6.765100000e-02
4150000.0 -1.296336000e+00 -5.453100000e-02
4240000.0 -1.279007000e+00 -4.179600000e-02
4330000.0 -1.263685000e+00 -2.960700000e-02
4420000.0 -1.249737000e+00 -1.862700000e-02
4510000.0 -1.235820000e+00 -7.509000000e-03
4600000.0 -1.224426000e+00 4.558000000e-03
4690000.0 -1.213410000e+00 1.520200000e-02
4780000.0 -1.202437000e+00 2.606000000e-02
4870000.0 -1.194530000e+00 3.722400000e-02
4960000.0 -1.188053000e+00 4.843600000e-02
5050000.0 -1.173806000e+00 5.863200000e-02
5140000.0 -1.166767000e+00 6.975800000e-02
5230000.0 -1.161105000e+00 7.918800000e-02
5320000.0 -1.156655000e+00 9.061400000e-02
5410000.0 -1.152266000e+00 1.004510000e-01
5500000.0 -1.146614000e+00 1.112980000e-01
5590000.0 -1.143685000e+00 1.220150000e-01
5680000.0 -1.139237000e+00 1.319890000e-01
5770000.0 -1.136130000e+00 1.415480000e-01
5860000.0 -1.132475000e+00 1.499700000e-01
5950000.0 -1.128536000e+00 1.585620000e-01
6040000.0 -1.125857000e+00 1.692390000e-01
6130000.0 -1.121941000e+00 1.775830000e-01
6220000.0 -1.119876000e+00 1.851900000e-01
6310000.0 -1.117375000e+00 1.921200000e-01
6400000.0 -1.114701000e+00 1.996570000e-01
6490000.0 -1.113274000e+00 2.064330000e-01
6580000.0 -1.110772000e+00 2.131240000e-01
6670000.0 -1.108327000e+00 2.189020000e-01
6760000.0 -1.107635000e+00 2.240090000e-01
6850000.0 -1.106475000e+00 2.287040000e-01
6940000.0 -1.103905000e+00 2.322570000e-01
7030000.0 -1.103834000e+00 2.358370000e-01
7120000.0 -1.102993000e+00 2.387990000e-01
7210000.0 -1.102091000e+00 2.410200000e-01
7300000.0 -1.102158000e+00 2.418200000e-01
7390000.0 -1.102070000e+00 2.425150000e-01
7480000.0 -1.102635000e+00 2.421190000e-01
7570000.0 1.960940000e-01 1.074034000e+00
7660000.0 1.951900000e-01 1.073700000e+00
7750000.0 1.942410000e-01 1.074017000e+00
7840000.0 1.926110000e-01 1.075359000e+00
7930000.0 1.923580000e-01 1.075056000e+00
8020000.0 1.913760000e-01 1.075315000e+00
8110000.0 1.920460000e-01 1.075773000e+00
8200000.0 1.903000000e-01 1.076365000e+00
8290000.0 1.892220000e-01 1.076546000e+00
8380000.0 1.893200000e-01 1.077578000e+00
8470000.0 1.885330000e-01 1.077122000e+00
8560000.0 1.877070000e-01 1.077502000e+00
8650000.0 1.873660000e-01 1.079028000e+00
8740000.0 1.860770000e-01 1.079569000e+00
8830000.0 1.844810000e-01 1.079295000e+00
8920000.0 1.843650000e-01 1.078984000e+00
9010000.0 1.836580000e-01 1.079927000e+00
9100000.0 1.831210000e-01 1.080881000e+00
9190000.0 1.827120000e-01 1.082361000e+00
9280000.0 1.817930000e-01 1.081614000e+00
9370000.0 1.821850000e-01 1.083312000e+00
9460000.0 1.808020000e-01 1.083854000e+00
9550000.0 1.801150000e-01 1.085113000e+00
9640000.0 1.790890000e-01 1.084443000e+00
9730000.0 1.780140000e-01 1.084641000e+00
9820000.0 1.777360000e-01 1.085810000e+00
9910000.0 1.756350000e-01 1.088185000e+00
10000000.0 1.760360000e-01 1.087095000e+00
10900000.0 1.700030000e-01 1.093893000e+00
11800000.0 1.638140000e-01 1.102207000e+00
12700000.0 1.571730000e-01 1.110451000e+00
13600000.0 1.504550000e-01 1.117576000e+00
14500000.0 1.436110000e-01 1.127582000e+00
15400000.0 1.376290000e-01 1.136380000e+00
16300000.0 1.304760000e-01 1.145702000e+00
17200000.0 1.245240000e-01 1.154238000e+00
18100000.0 1.167420000e-01 1.163178000e+00
19000000.0 1.101340000e-01 1.173373000e+00
19900000.0 1.012240000e-01 1.182253000e+00
20800000.0 9.430700000e-02 1.192416000e+00
21700000.0 8.364500000e-02 1.201699000e+00
22600000.0 7.535500000e-02 1.211948000e+00
23500000.0 6.678200000e-02 1.221411000e+00
24400000.0 5.703800000e-02 1.231106000e+00
25300000.0 4.733900000e-02 1.240798000e+00
26200000.0 3.675700000e-02 1.251836000e+00
27100000.0 2.544200000e-02 1.261563000e+00
28000000.0 1.318300000e-02 1.272444000e+00
28900000.0 3.089000000e-03 1.281866000e+00
29800000.0 -8.979000000e-03 1.291952000e+00
30700000.0 -2.111700000e-02 1.301637000e+00
31600000.0 -3.515700000e-02 1.312322000e+00
32500000.0 -4.824000000e-02 1.321969000e+00
33400000.0 -6.282200000e-02 1.332135000e+00
34300000.0 -7.559500000e-02 1.341740000e+00
35200000.0 -8.968600000e-02 1.351613000e+00
36100000.0 -1.064390000e-01 1.361906000e+00
37000000.0 -1.220300000e-01 1.370496000e+00
37900000.0 -1.374540000e-01 1.379842000e+00
38800000.0 -1.543710000e-01 1.388390000e+00
39700000.0 -1.713300000e-01 1.397077000e+00
40600000.0 -1.884140000e-01 1.404472000e+00
41500000.0 -2.058460000e-01 1.412201000e+00
42400000.0 -2.238420000e-01 1.421252000e+00
43300000.0 -2.444140000e-01 1.428021000e+00
44200000.0 -2.612000000e-01 1.435297000e+00
45100000.0 -2.833640000e-01 1.442789000e+00
46000000.0 -3.025540000e-01 1.448786000e+00
46900000.0 -3.228970000e-01 1.453920000e+00
47800000.0 -3.433830000e-01 1.458444000e+00
48700000.0 -3.646790000e-01 1.463737000e+00
49600000.0 -3.863550000e-01 1.467426000e+00
50500000.0 -4.078360000e-01 1.473224000e+00
51400000.0 -4.306740000e-01 1.475110000e+00
52300000.0 -4.539710000e-01 1.478756000e+00
53200000.0 -4.777160000e-01 1.480855000e+00
54100000.0 -5.009980000e-01 1.480891000e+00
55000000.0 -5.238050000e-01 1.482331000e+00
55900000.0 -5.469370000e-01 1.481155000e+00
56800000.0 -5.707030000e-01 1.480871000e+00
57700000.0 -5.952130000e-01 1.477588000e+00
58600000.0 -6.187950000e-01 1.476969000e+00
59500000.0 -6.430400000e-01 1.476442000e+00
60400000.0 -6.695680000e-01 1.471112000e+00
61300000.0 -6.924270000e-01 1.467757000e+00
62200000.0 -7.164850000e-01 1.462388000e+00
63100000.0 -7.411360000e-01 1.457707000e+00
64000000.0 -7.634230000e-01 1.451841000e+00
64900000.0 -7.890530000e-01 1.444503000e+00
65800000.0 -8.122050000e-01 1.434522000e+00
66700000.0 -8.364400000e-01 1.427664000e+00
67600000.0 -8.605160000e-01 1.418084000e+00
68500000.0 -8.856370000e-01 1.408373000e+00
69400000.0 -9.064960000e-01 1.397979000e+00
70300000.0 -9.304530000e-01 1.386449000e+00
71200000.0 -9.514360000e-01 1.375455000e+00
72100000.0 -9.750180000e-01 1.362205000e+00
73000000.0 -9.974620000e-01 1.347501000e+00
73900000.0 -1.018956000e+00 1.333741000e+00
74800000.0 -1.039817000e+00 1.318585000e+00
75700000.0 -1.061932000e+00 1.305318000e+00
76600000.0 -1.080880000e+00 1.289199000e+00
77500000.0 -1.100773000e+00 1.272175000e+00
78400000.0 -1.120610000e+00 1.255502000e+00
79300000.0 -1.139047000e+00 1.237436000e+00
80200000.0 -1.158463000e+00 1.218936000e+00
81100000.0 -1.176046000e+00 1.201251000e+00
82000000.0 -1.192873000e+00 1.181395000e+00
82900000.0 -1.208637000e+00 1.162434000e+00
83800000.0 -1.225956000e+00 1.142119000e+00
84700000.0 -1.241114000e+00 1.122637000e+00
85600000.0 -1.254849000e+00 1.100199000e+00
86500000.0 -1.268008000e+00 1.079392000e+00
87400000.0 -1.282297000e+00 1.057407000e+00
88300000.0 -1.293557000e+00 1.036766000e+00
89200000.0 -1.307292000e+00 1.012919000e+00
90100000.0 -1.318481000e+00 9.921560000e-01
91000000.0 -1.328354000e+00 9.690900000e-01
91900000.0 -1.337971000e+00 9.460680000e-01
92800000.0 -1.346799000e+00 9.232750000e-01
93700000.0 -1.354950000e+00 8.997840000e-01
94600000.0 -1.362821000e+00 8.765540000e-01
95500000.0 -1.370077000e+00 8.536150000e-01
96400000.0 -1.375533000e+00 8.302140000e-01
97300000.0 -1.379829000e+00 8.073280000e-01
98200000.0 -1.383504000e+00 7.827650000e-01
99100000.0 -1.387156000e+00 7.609860000e-01
100000000.0 -1.392002000e+00 7.377620000e-01
109000000.0 -1.385838000e+00 5.225610000e-01
118000000.0 -1.330777000e+00 3.394480000e-01
127000000.0 -1.248560000e+00 1.996470000e-01
136000000.0 -1.134636000e+00 1.002150000e-01
145000000.0 -1.045800000e+00 3.026300000e-02
154000000.0 -1.000580000e+00 -2.834000000e-03
163000000.0 -1.002245000e+00 -4.479000000e-03
172000000.0 -1.005616000e+00 -6.622000000e-03
181000000.0 -1.005460000e+00 -7.822000000e-03
190000000.0 -1.007800000e+00 -9.914000000e-03
199000000.0 -1.008854000e+00 -1.081600000e-02
208000000.0 -1.010125000e+00 -1.175400000e-02
217000000.0 -1.009816000e+00 -1.093500000e-02
226000000.0 -1.010387000e+00 -1.144200000e-02
235000000.0 -1.010491000e+00 -1.075700000e-02
244000000.0 -1.009053000e+00 -1.042400000e-02
253000000.0 -1.008700000e+00 -9.854000000e-03
262000000.0 -1.007941000e+00 -9.335000000e-03
271000000.0 -1.006428000e+00 -6.697000000e-03
280000000.0 -1.005019000e+00 -4.876000000e-03
289000000.0 -1.001989000e+00 -3.120000000e-03
298000000.0 -1.000273000e+00 -5.590000000e-04
307000000.0 -1.002620000e+00 -2.032000000e-03
316000000.0 -1.005198000e+00 -7.470000000e-04
325000000.0 -1.008765000e+00 -3.059000000e-03
334000000.0 -1.009638000e+00 -5.007000000e-03
343000000.0 -1.012627000e+00 -3.687000000e-03
352000000.0 -1.013766000e+00 -2.934000000e-03
361000000.0 -1.023486000e+00 -3.899500000e-02
370000000.0 -1.005396000e+00 3.044100000e-02
379000000.0 -9.978800000e-01 2.888100000e-02
388000000.0 -1.013917000e+00 -3.615000000e-03
397000000.0 -1.013672000e+00 -4.947000000e-03
406000000.0 -1.012025000e+00 -2.141000000e-03
415000000.0 -1.002118000e+00 2.952200000e-02
424000000.0 -1.009007000e+00 -2.570000000e-03
433000000.0 -1.005681000e+00 -7.720000000e-04
442000000.0 -1.003431000e+00 -1.534000000e-03
451000000.0 -1.000725000e+00 -6.380000000e-04
460000000.0 -1.004042000e+00 -1.585000000e-03
469000000.0 -1.007627000e+00 2.002000000e-03
478000000.0 -1.010607000e+00 1.515000000e-03
487000000.0 -1.012239000e+00 -3.790000000e-04
496000000.0 -1.013341000e+00 2.000000000e-03
505000000.0 -1.017256000e+00 1.385000000e-03
514000000.0 -1.016074000e+00 5.424000000e-03
523000000.0 -1.016213000e+00 2.796000000e-03
532000000.0 -1.016999000e+00 1.041000000e-03
541000000.0 -1.015639000e+00 4.067000000e-03
550000000.0 -1.012959000e+00 1.941000000e-03
559000000.0 -1.014539000e+00 3.521000000e-03
568000000.0 -1.009480000e+00 1.283000000e-03
577000000.0 -1.009330000e+00 3.881000000e-03
586000000.0 -1.004862000e+00 9.050000000e-04
595000000.0 -1.000609000e+00 2.812000000e-03
604000000.0 -1.000794000e+00 3.119000000e-03
613000000.0 -1.005179000e+00 2.016000000e-03
622000000.0 -1.007265000e+00 3.691000000e-03
631000000.0 -1.005126000e+00 8.909000000e-03
640000000.0 -1.008430000e+00 1.066300000e-02
649000000.0 -1.010712000e+00 1.083000000e-02
658000000.0 -1.010852000e+00 1.089700000e-02
667000000.0 -1.009953000e+00 1.149300000e-02
676000000.0 -1.013660000e+00 1.118300000e-02
685000000.0 -1.008592000e+00 1.007900000e-02
694000000.0 -1.013701000e+00 1.439800000e-02
703000000.0 -1.006125000e+00 8.998000000e-03
712000000.0 -1.007948000e+00 1.487800000e-02
721000000.0 -1.007124000e+00 9.290000000e-03
730000000.0 -1.004124000e+00 9.740000000e-03
739000000.0 -1.001183000e+00 6.433000000e-03
748000000.0 -9.990000000e-01 1.062000000e-03
757000000.0 -9.964450000e-01 5.112000000e-03
766000000.0 -9.996530000e-01 4.501000000e-03
775000000.0 -1.000413000e+00 5.386000000e-03
784000000.0 -9.967700000e-01 6.936000000e-03
793000000.0 -9.969370000e-01 6.418000000e-03
802000000.0 -1.000380000e+00 7.187000000e-03
811000000.0 -9.959090000e-01 4.475000000e-03
820000000.0 -9.969550000e-01 8.543000000e-03
829000000.0 -9.978290000e-01 4.558000000e-03
838000000.0 -9.986010000e-01 1.076900000e-02
847000000.0 -9.999250000e-01 4.954000000e-03
856000000.0 -9.951700000e-01 6.113000000e-03
865000000.0 -9.976350000e-01 2.076000000e-03
874000000.0 -9.991410000e-01 3.990000000e-04
883000000.0 -1.001412000e+00 4.460000000e-03
892000000.0 -9.982620000e-01 1.064000000e-03
901000000.0 -1.001096000e+00 -2.985000000e-03
910000000.0 -9.997270000e-01 -4.120000000e-04
919000000.0 -1.000085000e+00 -7.090000000e-03
928000000.0 -9.991400000e-01 -4.184000000e-03
937000000.0 -1.000702000e+00 -3.378000000e-03
946000000.0 -9.988260000e-01 -4.973000000e-03
955000000.0 -1.000143000e+00 -7.501000000e-03
964000000.0 -1.003960000e+00 -9.463000000e-03
973000000.0 -9.992990000e-01 -7.240000000e-03
982000000.0 -9.994970000e-01 -5.880000000e-03
991000000.0 -1.001810000e+00 -8.725000000e-03
1000000000.0 -1.000881000e+00 -8.983000000e-03
1004500000.0 -1.000823000e+00 -8.042000000e-03
1009000000.0 -1.000971000e+00 -7.333000000e-03
1013500000.0 -1.001555000e+00 -8.748000000e-03
1018000000.0 -1.000325000e+00 -4.968000000e-03
1022500000.0 -1.004097000e+00 -5.630000000e-03
1027000000.0 -1.004583000e+00 -2.188000000e-03
1031500000.0 -1.001442000e+00 -1.848000000e-03
1036000000.0 -9.998160000e-01 -7.943000000e-03
1040500000.0 -1.001211000e+00 -5.812000000e-03
1045000000.0 -1.001082000e+00 -6.571000000e-03
1049500000.0 -9.985610000e-01 -4.002000000e-03
1054000000.0 -1.002673000e+00 -7.188000000e-03
1058500000.0 -1.001611000e+00 -5.850000000e-03
1063000000.0 -1.002595000e+00 -9.032000000e-03
1067500000.0 -1.001532000e+00 -9.539000000e-03
1072000000.0 -9.995130000e-01 -6.186000000e-03
1076500000.0 -1.001585000e+00 -1.097800000e-02
1081000000.0 -1.005491000e+00 -1.056200000e-02
1085500000.0 -1.006804000e+00 -9.803000000e-03
1090000000.0 -1.005568000e+00 -9.544000000e-03
1094500000.0 -1.007064000e+00 -6.130000000e-03
1099000000.0 -1.011401000e+00 -6.889000000e-03
1103500000.0 -1.008602000e+00 -7.705000000e-03
1108000000.0 -1.002970000e+00 -5.605000000e-03
1112500000.0 -1.005210000e+00 -1.159900000e-02
1117000000.0 -1.002754000e+00 -1.006900000e-02
1121500000.0 -1.003512000e+00 -1.368100000e-02
1126000000.0 -1.009457000e+00 -7.201000000e-03
1130500000.0 -1.001186000e+00 4.501000000e-03
1135000000.0 -1.006913000e+00 -3.967000000e-03
1139500000.0 -1.008721000e+00 -2.107200000e-02
1144000000.0 -1.005287000e+00 1.061100000e-02
1148500000.0 -1.002234000e+00 -6.183000000e-03
1153000000.0 -1.001198000e+00 -9.559000000e-03
1157500000.0 -1.008003000e+00 -1.051800000e-02
1162000000.0 -1.013471000e+00 -4.364900000e-02
1166500000.0 -1.005285000e+00 -6.691000000e-03
1171000000.0 -1.005716000e+00 -8.377000000e-03
1175500000.0 -1.001770000e+00 -3.223000000e-03
1180000000.0 -9.998990000e-01 -6.324000000e-03
1184500000.0 -1.002530000e+00 -9.575000000e-03
1189000000.0 -1.002667000e+00 -5.860000000e-04
1193500000.0 -9.974050000e-01 -2.381000000e-03
1198000000.0 -9.968440000e-01 4.600000000e-05
1202500000.0 -9.926760000e-01 -7.898000000e-03
1207000000.0 -9.977910000e-01 -8.023000000e-03
1211500000.0 -1.000116000e+00 -4.721000000e-03
1216000000.0 -9.990190000e-01 -6.271000000e-03
1220500000.0 -1.004008000e+00 -2.202000000e-03
1225000000.0 -1.003877000e+00 1.530000000e-04
1229500000.0 -1.001645000e+00 6.940000000e-04
1234000000.0 -1.000483000e+00 -8.930000000e-04
1238500000.0 -1.002312000e+00 -7.913000000e-03
1243000000.0 -1.006186000e+00 -3.404000000e-03
1247500000.0 -1.003356000e+00 -3.980000000e-04
1252000000.0 -1.010794000e+00 -2.578000000e-03
1256500000.0 -1.005116000e+00 -8.029000000e-03
1261000000.0 -1.000698000e+00 -6.561000000e-03
1265500000.0 -1.005631000e+00 -1.821000000e-03
1270000000.0 -1.003002000e+00 -2.684000000e-03
1274500000.0 -1.001234000e+00 -7.611000000e-03
1279000000.0 -1.004283000e+00 6.146000000e-03
1283500000.0 -1.004197000e+00 -8.613000000e-03
1288000000.0 -1.006541000e+00 -6.178000000e-03
1292500000.0 -1.002486000e+00 -4.428000000e-03
1297000000.0 -9.998820000e-01 -1.111000000e-03
1301500000.0 -1.002907000e+00 -1.232900000e-02
1306000000.0 -1.004105000e+00 -3.708000000e-03
1310500000.0 -9.929570000e-01 6.645000000e-03
1315000000.0 -9.998890000e-01 -1.073000000e-02
1319500000.0 -9.998840000e-01 -2.285600000e-02
1324000000.0 -9.964800000e-01 2.977000000e-03
1328500000.0 -9.976070000e-01 1.889200000e-02
1333000000.0 -1.001632000e+00 -6.733000000e-03
1337500000.0 -1.003470000e+00 -2.068000000e-02
1342000000.0 -9.917470000e-01 -6.692000000e-03
1346500000.0 -9.937950000e-01 1.296200000e-02
1351000000.0 -9.913340000e-01 -4.700000000e-03
1355500000.0 -9.929570000e-01 -2.135800000e-02
1360000000.0 -9.947370000e-01 7.197000000e-03
1364500000.0 -9.963810000e-01 -2.899000000e-03
1369000000.0 -9.980070000e-01 -4.933000000e-03
1373500000.0 -9.921140000e-01 -1.325000000e-03
1378000000.0 -1.000022000e+00 4.596000000e-03
1382500000.0 -9.993750000e-01 6.130000000e-04
1387000000.0 -1.000353000e+00 -3.323000000e-03
1391500000.0 -1.002959000e+00 -3.271000000e-03
1396000000.0 -1.004967000e+00 -4.448000000e-03
1400500000.0 -1.011742000e+00 -2.801000000e-03
1405000000.0 -1.011394000e+00 -2.589000000e-03
1409500000.0 -1.003653000e+00 -4.070000000e-04
1414000000.0 -1.015347000e+00 -2.423000000e-03
1418500000.0 -1.011215000e+00 -1.025400000e-02
1423000000.0 -1.004568000e+00 -8.546000000e-03
1427500000.0 -1.009428000e+00 -3.720000000e-03
1432000000.0 -1.010275000e+00 -9.692000000e-03
1436500000.0 -1.012977000e+00 -3.528000000e-03
1441000000.0 -1.008299000e+00 -9.810000000e-04
1445500000.0 -1.010290000e+00 -1.299600000e-02
1450000000.0 -1.008718000e+00 -2.755000000e-03
