! piloto_deriva / corto_deriva / r24
# HZ S RI R 50
50000.0 -9.980170000e-01 -2.068200000e-02
59500.0 -9.985070000e-01 -1.829300000e-02
69000.0 -9.966870000e-01 1.322500000e-02
78500.0 -9.956620000e-01 -1.734200000e-02
88000.0 -9.989380000e-01 4.810000000e-04
97500.0 -9.987910000e-01 -9.150000000e-04
107000.0 -9.994340000e-01 -1.613000000e-03
116500.0 -1.000552000e+00 -6.321000000e-03
126000.0 -1.001850000e+00 -1.130200000e-02
135500.0 -1.000022000e+00 -1.583700000e-02
145000.0 -9.998640000e-01 -2.189400000e-02
154500.0 -1.000178000e+00 -3.018600000e-02
164000.0 -9.999920000e-01 -3.599800000e-02
173500.0 -1.000575000e+00 -4.436200000e-02
183000.0 -9.997290000e-01 -5.227400000e-02
192500.0 -9.994780000e-01 -5.984800000e-02
202000.0 -9.996950000e-01 -6.851800000e-02
211500.0 -1.000793000e+00 -7.718300000e-02
221000.0 -9.999680000e-01 -8.620300000e-02
230500.0 -1.000271000e+00 -9.479000000e-02
240000.0 -1.000425000e+00 -1.038380000e-01
249500.0 -1.001366000e+00 -1.130730000e-01
259000.0 -1.001220000e+00 -1.215080000e-01
268500.0 -1.001419000e+00 -1.312140000e-01
278000.0 -1.001290000e+00 -1.405760000e-01
287500.0 -1.002464000e+00 -1.501550000e-01
297000.0 -1.001556000e+00 -1.591720000e-01
306500.0 -1.002228000e+00 -1.683720000e-01
316000.0 -1.003077000e+00 -1.777950000e-01
325500.0 -1.003328000e+00 -1.873120000e-01
335000.0 -1.002918000e+00 -1.967980000e-01
344500.0 -1.003405000e+00 -2.060210000e-01
354000.0 -1.003335000e+00 -2.154400000e-01
363500.0 -1.003644000e+00 -2.238830000e-01
373000.0 -1.003579000e+00 -2.342850000e-01
382500.0 -1.004421000e+00 -2.429580000e-01
392000.0 -1.004381000e+00 -2.520030000e-01
401500.0 -1.004590000e+00 -2.620090000e-01
411000.0 -1.004862000e+00 -2.707760000e-01
420500.0 -1.004524000e+00 -2.793470000e-01
430000.0 -1.005819000e+00 -2.896040000e-01
439500.0 -1.005634000e+00 -2.979270000e-01
449000.0 -1.005409000e+00 -3.077960000e-01
458500.0 -1.006093000e+00 -3.175850000e-01
468000.0 -1.005847000e+00 -3.270680000e-01
477500.0 -1.006747000e+00 -3.366940000e-01
487000.0 -1.006490000e+00 -3.457790000e-01
496500.0 -1.006671000e+00 -3.550630000e-01
506000.0 -1.007501000e+00 -3.647660000e-01
515500.0 -1.008165000e+00 -3.736610000e-01
525000.0 -1.008013000e+00 -3.818370000e-01
534500.0 -1.007409000e+00 -3.908870000e-01
544000.0 -1.008359000e+00 -4.002040000e-01
553500.0 -1.008871000e+00 -4.092340000e-01
563000.0 -1.008583000e+00 -4.186810000e-01
572500.0 -1.009639000e+00 -4.282570000e-01
582000.0 -1.009753000e+00 -4.372070000e-01
591500.0 -1.010113000e+00 -4.472130000e-01
601000.0 -1.010156000e+00 -4.560630000e-01
610500.0 -1.011127000e+00 -4.649930000e-01
620000.0 -1.011986000e+00 -4.735380000e-01
629500.0 -1.012047000e+00 -4.829600000e-01
639000.0 -1.012694000e+00 -4.922050000e-01
648500.0 -1.013366000e+00 -5.013820000e-01
658000.0 -1.015003000e+00 -5.106300000e-01
667500.0 -1.014611000e+00 -5.195490000e-01
677000.0 -1.015385000e+00 -5.289170000e-01
686500.0 -1.016425000e+00 -5.387830000e-01
696000.0 -1.017411000e+00 -5.460120000e-01
705500.0 -1.017845000e+00 -5.550770000e-01
715000.0 -1.018949000e+00 -5.641050000e-01
724500.0 -1.018740000e+00 -5.737580000e-01
734000.0 -1.020514000e+00 -5.838290000e-01
743500.0 -1.021332000e+00 -5.908080000e-01
753000.0 -1.022625000e+00 -6.000650000e-01
762500.0 -1.022944000e+00 -6.079530000e-01
772000.0 -1.023643000e+00 -6.173510000e-01
781500.0 -1.025306000e+00 -6.273550000e-01
791000.0 -1.026728000e+00 -6.361280000e-01
800500.0 -1.028182000e+00 -6.435440000e-01
810000.0 -1.029265000e+00 -6.533550000e-01
819500.0 -1.029976000e+00 -6.626230000e-01
829000.0 -1.031770000e+00 -6.719250000e-01
838500.0 -1.033312000e+00 -6.801940000e-01
848000.0 -1.033875000e+00 -6.884690000e-01
857500.0 -1.036628000e+00 -6.965820000e-01
867000.0 -1.037786000e+00 -7.058210000e-01
876500.0 -1.039664000e+00 -7.135510000e-01
886000.0 -1.042203000e+00 -7.237700000e-01
895500.0 -1.042016000e+00 -7.305370000e-01
905000.0 -1.044445000e+00 -7.395320000e-01
914500.0 -1.046807000e+00 -7.482840000e-01
924000.0 -1.048457000e+00 -7.581420000e-01
933500.0 -1.051641000e+00 -7.674680000e-01
943000.0 -1.052738000e+00 -7.744900000e-01
952500.0 -1.056054000e+00 -7.831440000e-01
962000.0 -1.057799000e+00 -7.932780000e-01
971500.0 -1.061021000e+00 -7.998050000e-01
981000.0 -1.063343000e+00 -8.080770000e-01
990500.0 -1.064890000e+00 -8.173960000e-01
1000000.0 -1.066819000e+00 -8.271330000e-01
1090000.0 -1.095351000e+00 -9.033220000e-01
1180000.0 -1.135065000e+00 -9.759640000e-01
1270000.0 -1.181639000e+00 -1.044778000e+00
1360000.0 -1.241020000e+00 -1.103734000e+00
1450000.0 -1.304241000e+00 -1.156239000e+00
1540000.0 -1.385180000e+00 -1.192868000e+00
1630000.0 -1.471358000e+00 -1.211988000e+00
1720000.0 -1.560490000e+00 -1.210754000e+00
1810000.0 -1.651147000e+00 -1.189568000e+00
1900000.0 -1.734250000e+00 -1.142036000e+00
1990000.0 -1.807972000e+00 -1.082050000e+00
2080000.0 -1.862219000e+00 -1.004274000e+00
2170000.0 -1.900513000e+00 -9.150010000e-01
2260000.0 -1.915096000e+00 -8.258570000e-01
2350000.0 -1.917046000e+00 -7.307930000e-01
2440000.0 -1.899744000e+00 -6.463450000e-01
2530000.0 -1.873679000e+00 -5.672130000e-01
2620000.0 -1.840774000e+00 -4.981180000e-01
2710000.0 -1.800177000e+00 -4.394930000e-01
2800000.0 -1.758916000e+00 -3.870290000e-01
2890000.0 -1.714627000e+00 -3.404570000e-01
2980000.0 -1.673736000e+00 -3.029720000e-01
3070000.0 -1.633841000e+00 -2.726890000e-01
3160000.0 -1.593676000e+00 -2.402360000e-01
3250000.0 -1.557549000e+00 -2.148780000e-01
3340000.0 -1.521826000e+00 -2.280880000e-01
3430000.0 -1.488241000e+00 -1.716100000e-01
3520000.0 -1.457258000e+00 -1.538380000e-01
3610000.0 -1.429365000e+00 -1.375200000e-01
3700000.0 -1.403452000e+00 -1.220060000e-01
3790000.0 -1.377414000e+00 -1.075130000e-01
3880000.0 -1.355617000e+00 -9.436200000e-02
3970000.0 -1.332931000e+00 -7.938000000e-02
4060000.0 -1.313363000e+00 -6.698200000e-02
4150000.0 -1.295722000e+00 -5.436300000e-02
4240000.0 -1.279499000e+00 -4.277800000e-02
4330000.0 -1.264414000e+00 -3.044400000e-02
4420000.0 -1.248671000e+00 -1.853100000e-02
4510000.0 -1.235673000e+00 -6.348000000e-03
4600000.0 -1.225193000e+00 3.093000000e-03
4690000.0 -1.214246000e+00 1.424000000e-02
4780000.0 -1.203660000e+00 2.624500000e-02
4870000.0 -1.194837000e+00 3.717100000e-02
4960000.0 -1.187247000e+00 4.940200000e-02
5050000.0 -1.172367000e+00 5.839100000e-02
5140000.0 -1.167155000e+00 7.004600000e-02
5230000.0 -1.161650000e+00 7.994200000e-02
5320000.0 -1.157074000e+00 9.050600000e-02
5410000.0 -1.152530000e+00 1.002920000e-01
5500000.0 -1.148324000e+00 1.117360000e-01
5590000.0 -1.144312000e+00 1.220640000e-01
5680000.0 -1.139243000e+00 1.315570000e-01
5770000.0 -1.135355000e+00 1.408420000e-01
5860000.0 -1.132609000e+00 1.497660000e-01
5950000.0 -1.129221000e+00 1.596990000e-01
6040000.0 -1.125188000e+00 1.687160000e-01
6130000.0 -1.123243000e+00 1.758300000e-01
6220000.0 -1.119398000e+00 1.853290000e-01
6310000.0 -1.117196000e+00 1.921040000e-01
6400000.0 -1.115367000e+00 1.998150000e-01
6490000.0 -1.112344000e+00 2.056650000e-01
6580000.0 -1.112044000e+00 2.127940000e-01
6670000.0 -1.109645000e+00 2.185560000e-01
6760000.0 -1.107604000e+00 2.237000000e-01
6850000.0 -1.105539000e+00 2.293530000e-01
6940000.0 -1.104471000e+00 2.326040000e-01
7030000.0 -1.104728000e+00 2.362350000e-01
7120000.0 -1.103335000e+00 2.386860000e-01
7210000.0 -1.102291000e+00 2.412630000e-01
7300000.0 -1.103489000e+00 2.415110000e-01
7390000.0 -1.102480000e+00 2.422630000e-01
7480000.0 -1.102363000e+00 2.431770000e-01
7570000.0 1.954510000e-01 1.073152000e+00
7660000.0 1.940950000e-01 1.074332000e+00
7750000.0 1.949450000e-01 1.074204000e+00
7840000.0 1.941360000e-01 1.074037000e+00
7930000.0 1.933840000e-01 1.075131000e+00
8020000.0 1.917920000e-01 1.075858000e+00
8110000.0 1.922420000e-01 1.075774000e+00
8200000.0 1.895740000e-01 1.076820000e+00
8290000.0 1.891820000e-01 1.076129000e+00
8380000.0 1.893500000e-01 1.077188000e+00
8470000.0 1.885060000e-01 1.077614000e+00
8560000.0 1.871090000e-01 1.077905000e+00
8650000.0 1.869940000e-01 1.078428000e+00
8740000.0 1.849700000e-01 1.079363000e+00
8830000.0 1.853770000e-01 1.078818000e+00
8920000.0 1.849730000e-01 1.080478000e+00
9010000.0 1.839300000e-01 1.080739000e+00
9100000.0 1.829840000e-01 1.080644000e+00
9190000.0 1.841330000e-01 1.082219000e+00
9280000.0 1.810550000e-01 1.082063000e+00
9370000.0 1.812100000e-01 1.081004000e+00
9460000.0 1.800320000e-01 1.083712000e+00
9550000.0 1.800220000e-01 1.084989000e+00
9640000.0 1.787170000e-01 1.084015000e+00
9730000.0 1.786300000e-01 1.085702000e+00
9820000.0 1.775660000e-01 1.086408000e+00
9910000.0 1.769440000e-01 1.086736000e+00
10000000.0 1.759900000e-01 1.087565000e+00
10900000.0 1.697000000e-01 1.094291000e+00
11800000.0 1.625560000e-01 1.102108000e+00
12700000.0 1.569440000e-01 1.109819000e+00
13600000.0 1.505310000e-01 1.119076000e+00
14500000.0 1.440110000e-01 1.127346000e+00
15400000.0 1.374750000e-01 1.135362000e+00
16300000.0 1.311910000e-01 1.145146000e+00
17200000.0 1.242280000e-01 1.153922000e+00
18100000.0 1.172360000e-01 1.163689000e+00
19000000.0 1.088520000e-01 1.172485000e+00
19900000.0 1.018360000e-01 1.182654000e+00
20800000.0 9.359400000e-02 1.192596000e+00
21700000.0 8.412800000e-02 1.202399000e+00
22600000.0 7.608100000e-02 1.211581000e+00
23500000.0 6.601500000e-02 1.221906000e+00
24400000.0 5.736100000e-02 1.231572000e+00
25300000.0 4.564500000e-02 1.241286000e+00
26200000.0 3.557200000e-02 1.251267000e+00
27100000.0 2.579600000e-02 1.261412000e+00
28000000.0 1.492900000e-02 1.271569000e+00
28900000.0 2.364000000e-03 1.281920000e+00
29800000.0 -9.689600000e-02 1.309258000e+00
30700000.0 -2.260900000e-02 1.302915000e+00
31600000.0 -3.498000000e-02 1.312656000e+00
32500000.0 -4.798000000e-02 1.322255000e+00
33400000.0 -6.166100000e-02 1.331447000e+00
34300000.0 -7.562600000e-02 1.342421000e+00
35200000.0 -9.043500000e-02 1.350260000e+00
36100000.0 -1.057590000e-01 1.360227000e+00
37000000.0 -1.217730000e-01 1.369871000e+00
37900000.0 -1.372420000e-01 1.378348000e+00
38800000.0 -1.543100000e-01 1.388170000e+00
39700000.0 -1.705530000e-01 1.397337000e+00
40600000.0 -1.883670000e-01 1.404235000e+00
41500000.0 -2.066220000e-01 1.413484000e+00
42400000.0 -2.245780000e-01 1.421324000e+00
43300000.0 -2.452710000e-01 1.428311000e+00
44200000.0 -2.357120000e-01 1.436185000e+00
45100000.0 -2.818730000e-01 1.442048000e+00
46000000.0 -3.036570000e-01 1.446465000e+00
46900000.0 -3.224710000e-01 1.453185000e+00
47800000.0 -3.433540000e-01 1.459586000e+00
48700000.0 -3.904190000e-01 1.460648000e+00
49600000.0 -3.618040000e-01 1.470666000e+00
50500000.0 -4.341910000e-01 1.467424000e+00
51400000.0 -4.060350000e-01 1.478795000e+00
52300000.0 -4.774560000e-01 1.471225000e+00
53200000.0 -4.507740000e-01 1.483636000e+00
54100000.0 -5.000580000e-01 1.481383000e+00
55000000.0 -5.232360000e-01 1.480938000e+00
55900000.0 -5.464000000e-01 1.482003000e+00
56800000.0 -5.717110000e-01 1.481055000e+00
57700000.0 -5.960470000e-01 1.479705000e+00
58600000.0 -6.201770000e-01 1.478553000e+00
59500000.0 -6.440510000e-01 1.475528000e+00
60400000.0 -6.667280000e-01 1.471629000e+00
61300000.0 -6.927130000e-01 1.468039000e+00
62200000.0 -7.169500000e-01 1.462104000e+00
63100000.0 -7.405470000e-01 1.457303000e+00
64000000.0 -7.644480000e-01 1.450224000e+00
64900000.0 -7.879890000e-01 1.445061000e+00
65800000.0 -8.129570000e-01 1.436163000e+00
66700000.0 -8.375160000e-01 1.427257000e+00
67600000.0 -8.612770000e-01 1.418833000e+00
68500000.0 -8.837150000e-01 1.408579000e+00
69400000.0 -9.073830000e-01 1.398092000e+00
70300000.0 -9.292570000e-01 1.386198000e+00
71200000.0 -9.529980000e-01 1.374896000e+00
72100000.0 -9.747430000e-01 1.362552000e+00
73000000.0 -9.967380000e-01 1.348151000e+00
73900000.0 -1.018161000e+00 1.335202000e+00
74800000.0 -1.040975000e+00 1.319422000e+00
75700000.0 -1.060719000e+00 1.305432000e+00
76600000.0 -1.080729000e+00 1.289363000e+00
77500000.0 -1.101876000e+00 1.270869000e+00
78400000.0 -1.121225000e+00 1.256223000e+00
79300000.0 -1.138983000e+00 1.236401000e+00
80200000.0 -1.158325000e+00 1.219398000e+00
81100000.0 -1.175867000e+00 1.201105000e+00
82000000.0 -1.191929000e+00 1.181718000e+00
82900000.0 -1.210105000e+00 1.162792000e+00
83800000.0 -1.224895000e+00 1.142516000e+00
84700000.0 -1.239648000e+00 1.122857000e+00
85600000.0 -1.255293000e+00 1.099769000e+00
86500000.0 -1.270084000e+00 1.079494000e+00
87400000.0 -1.283765000e+00 1.058423000e+00
88300000.0 -1.295949000e+00 1.035021000e+00
89200000.0 -1.305424000e+00 1.015566000e+00
90100000.0 -1.317418000e+00 9.916760000e-01
91000000.0 -1.328230000e+00 9.681510000e-01
91900000.0 -1.339156000e+00 9.449880000e-01
92800000.0 -1.346762000e+00 9.227840000e-01
93700000.0 -1.354305000e+00 9.011120000e-01
94600000.0 -1.361208000e+00 8.771000000e-01
95500000.0 -1.368234000e+00 8.534870000e-01
96400000.0 -1.373360000e+00 8.307690000e-01
97300000.0 -1.379857000e+00 8.091040000e-01
98200000.0 -1.384765000e+00 7.837270000e-01
99100000.0 -1.388060000e+00 7.609010000e-01
100000000.0 -1.392005000e+00 7.385620000e-01
109000000.0 -1.385604000e+00 5.195660000e-01
118000000.0 -1.332137000e+00 3.397650000e-01
127000000.0 -1.250198000e+00 2.004350000e-01
136000000.0 -1.135104000e+00 1.004460000e-01
145000000.0 -1.046363000e+00 2.981300000e-02
154000000.0 -1.000281000e+00 -1.341000000e-03
163000000.0 -1.001751000e+00 -3.826000000e-03
172000000.0 -1.004559000e+00 -6.877000000e-03
181000000.0 -1.006156000e+00 -7.949000000e-03
190000000.0 -1.007491000e+00 -9.297000000e-03
199000000.0 -1.009141000e+00 -9.683000000e-03
208000000.0 -1.009661000e+00 -1.205200000e-02
217000000.0 -1.009584000e+00 -1.143100000e-02
226000000.0 -1.010227000e+00 -1.171800000e-02
235000000.0 -1.009837000e+00 -1.185700000e-02
244000000.0 -1.010427000e+00 -1.058300000e-02
253000000.0 -1.009201000e+00 -9.908000000e-03
262000000.0 -1.007976000e+00 -7.856000000e-03
271000000.0 -1.006934000e+00 -5.986000000e-03
280000000.0 -1.004698000e+00 -5.873000000e-03
289000000.0 -1.002301000e+00 -2.776000000e-03
298000000.0 -1.000023000e+00 -1.627000000e-03
307000000.0 -1.001766000e+00 -1.098000000e-03
316000000.0 -1.005148000e+00 -3.171000000e-03
325000000.0 -1.008635000e+00 -1.610000000e-03
334000000.0 -1.010707000e+00 -1.987000000e-03
343000000.0 -1.010702000e+00 -1.991000000e-03
352000000.0 -1.012654000e+00 -3.972000000e-03
361000000.0 -8.712960000e-01 -1.473800000e-02
370000000.0 -1.014443000e+00 -3.698000000e-03
379000000.0 -1.004884000e+00 3.223700000e-02
388000000.0 -1.005109000e+00 2.900600000e-02
397000000.0 -1.013199000e+00 -3.607000000e-03
406000000.0 -1.011984000e+00 -3.357000000e-03
415000000.0 -1.029869000e+00 -5.210400000e-02
424000000.0 -1.025471000e+00 -5.413500000e-02
433000000.0 -1.005676000e+00 -2.880000000e-03
442000000.0 -1.004354000e+00 -7.640000000e-04
451000000.0 -1.001767000e+00 -1.065000000e-03
460000000.0 -1.004391000e+00 1.834000000e-03
469000000.0 -1.007347000e+00 1.786000000e-03
478000000.0 -1.011283000e+00 7.900000000e-04
487000000.0 -1.012280000e+00 2.838000000e-03
496000000.0 -1.016144000e+00 2.605000000e-03
505000000.0 -1.015501000e+00 2.330000000e-03
514000000.0 -1.017662000e+00 3.316000000e-03
523000000.0 -1.018159000e+00 1.773000000e-03
532000000.0 -1.017437000e+00 1.659000000e-03
541000000.0 -1.015548000e+00 3.503000000e-03
550000000.0 -1.017081000e+00 -1.165000000e-03
559000000.0 -1.013671000e+00 1.285000000e-03
568000000.0 -1.013211000e+00 1.867000000e-03
577000000.0 -1.007680000e+00 3.173000000e-03
586000000.0 -1.005145000e+00 -2.095000000e-03
595000000.0 -1.003359000e+00 3.276000000e-03
604000000.0 -1.000116000e+00 5.590000000e-03
613000000.0 -1.001268000e+00 6.910000000e-03
622000000.0 -1.008703000e+00 5.834000000e-03
631000000.0 -1.007032000e+00 1.224000000e-02
640000000.0 -1.007295000e+00 9.383000000e-03
649000000.0 -1.011215000e+00 1.210500000e-02
658000000.0 -1.013824000e+00 1.409800000e-02
667000000.0 -1.011836000e+00 1.008200000e-02
676000000.0 -1.014795000e+00 1.432500000e-02
685000000.0 -1.013001000e+00 1.489300000e-02
694000000.0 -1.008625000e+00 1.093800000e-02
703000000.0 -1.010041000e+00 1.111400000e-02
712000000.0 -1.001215000e+00 1.258100000e-02
721000000.0 -1.007415000e+00 8.650000000e-03
730000000.0 -1.003844000e+00 4.723000000e-03
739000000.0 -1.001562000e+00 5.859000000e-03
748000000.0 -9.983530000e-01 4.412000000e-03
757000000.0 -1.000808000e+00 4.114000000e-03
766000000.0 -9.974840000e-01 2.631000000e-03
775000000.0 -9.993780000e-01 6.910000000e-03
784000000.0 -9.981900000e-01 5.823000000e-03
793000000.0 -9.994570000e-01 6.168000000e-03
802000000.0 -9.994980000e-01 7.266000000e-03
811000000.0 -1.000018000e+00 9.877000000e-03
820000000.0 -9.954630000e-01 1.202100000e-02
829000000.0 -9.980860000e-01 5.811000000e-03
838000000.0 -9.962130000e-01 8.253000000e-03
847000000.0 -9.991530000e-01 9.238000000e-03
856000000.0 -9.972500000e-01 2.254000000e-03
865000000.0 -9.981200000e-01 2.035000000e-03
874000000.0 -9.973630000e-01 -6.060000000e-04
883000000.0 -9.959010000e-01 4.056000000e-03
892000000.0 -9.994210000e-01 -9.450000000e-04
901000000.0 -9.987790000e-01 -2.024000000e-03
910000000.0 -9.997540000e-01 -2.801000000e-03
919000000.0 -9.984730000e-01 -4.162000000e-03
928000000.0 -9.979670000e-01 -1.670000000e-03
937000000.0 -1.001606000e+00 -3.762000000e-03
946000000.0 -9.996500000e-01 -6.342000000e-03
955000000.0 -9.983580000e-01 -8.139000000e-03
964000000.0 -1.000772000e+00 -8.524000000e-03
973000000.0 -1.001352000e+00 -5.937000000e-03
982000000.0 -1.003378000e+00 -4.020000000e-03
991000000.0 -1.001429000e+00 -9.028000000e-03
1000000000.0 -1.002212000e+00 -1.051000000e-02
1004500000.0 -1.002369000e+00 -6.150000000e-03
1009000000.0 -9.996720000e-01 -1.025000000e-02
1013500000.0 -1.003375000e+00 -6.509000000e-03
1018000000.0 -1.001504000e+00 -7.626000000e-03
1022500000.0 -1.001224000e+00 -1.073900000e-02
1027000000.0 -9.988800000e-01 -8.023000000e-03
1031500000.0 -1.001784000e+00 -6.096000000e-03
1036000000.0 -1.003147000e+00 -8.278000000e-03
1040500000.0 -1.001983000e+00 -9.232000000e-03
1045000000.0 -1.002641000e+00 -4.428000000e-03
1049500000.0 -1.000755000e+00 -7.335000000e-03
1054000000.0 -1.000038000e+00 -6.205000000e-03
1058500000.0 -1.001069000e+00 -2.660000000e-03
1063000000.0 -1.002056000e+00 -5.443000000e-03
1067500000.0 -1.003475000e+00 -2.466000000e-03
1072000000.0 -1.006394000e+00 -9.081000000e-03
1076500000.0 -1.005113000e+00 -8.975000000e-03
1081000000.0 -1.003517000e+00 -5.895000000e-03
1085500000.0 -1.005317000e+00 -6.804000000e-03
1090000000.0 -1.009076000e+00 -1.267300000e-02
1094500000.0 -1.005317000e+00 -8.501000000e-03
1099000000.0 -1.005852000e+00 -1.309800000e-02
1103500000.0 -1.006332000e+00 -1.264700000e-02
1108000000.0 -1.003974000e+00 -5.301000000e-03
1112500000.0 -1.007410000e+00 -9.319000000e-03
1117000000.0 -1.007809000e+00 -8.801000000e-03
1121500000.0 -9.690370000e-01 7.671700000e-02
1126000000.0 -1.007686000e+00 -1.196700000e-02
1130500000.0 -1.007100000e+00 -1.782000000e-02
1135000000.0 -1.004365000e+00 -8.199000000e-03
1139500000.0 -1.009217000e+00 -1.351300000e-02
1144000000.0 -1.009268000e+00 -8.365000000e-03
1148500000.0 -1.001290000e+00 -5.417000000e-03
1153000000.0 -1.006698000e+00 -2.939700000e-02
1157500000.0 -1.004593000e+00 -1.377100000e-02
1162000000.0 -1.003172000e+00 -9.460000000e-03
1166500000.0 -1.000471000e+00 -1.225000000e-03
1171000000.0 -9.986520000e-01 -2.561000000e-03
1175500000.0 -1.004001000e+00 -9.869000000e-03
1180000000.0 -9.973080000e-01 2.942000000e-03
1184500000.0 -1.000091000e+00 1.251000000e-03
1189000000.0 -1.002260000e+00 -4.670000000e-03
1193500000.0 -9.927530000e-01 2.459000000e-03
1198000000.0 -9.964010000e-01 -4.904000000e-03
1202500000.0 -9.984940000e-01 -6.663000000e-03
1207000000.0 -9.976140000e-01 -3.600000000e-03
1211500000.0 -9.991460000e-01 9.800000000e-04
1216000000.0 -1.001298000e+00 -7.537000000e-03
1220500000.0 -1.001325000e+00 7.950000000e-04
1225000000.0 -1.003492000e+00 1.209000000e-03
1229500000.0 -1.006759000e+00 -5.027000000e-03
1234000000.0 -9.994340000e-01 2.648000000e-03
1238500000.0 -1.002228000e+00 -8.986000000e-03
1243000000.0 -1.003133000e+00 1.616000000e-03
1247500000.0 -1.003453000e+00 -4.130000000e-03
1252000000.0 -1.005670000e+00 -2.914000000e-03
1256500000.0 -1.007190000e+00 -7.720000000e-04
1261000000.0 -9.979720000e-01 -8.200000000e-03
1265500000.0 -1.007524000e+00 -4.850000000e-03
1270000000.0 -1.006856000e+00 -6.345000000e-03
1274500000.0 -1.012063000e+00 -1.284000000e-02
1279000000.0 -1.007053000e+00 -7.540000000e-04
1283500000.0 -1.005782000e+00 1.612000000e-03
1288000000.0 -1.003752000e+00 -4.358000000e-03
1292500000.0 -1.000119000e+00 -6.501000000e-03
1297000000.0 -1.001261000e+00 -6.999000000e-03
1301500000.0 -1.002490000e+00 -7.518000000e-03
1306000000.0 -9.989330000e-01 -4.440000000e-04
1310500000.0 -1.000157000e+00 -4.681000000e-03
1315000000.0 -1.001837000e+00 -4.539000000e-03
1319500000.0 -9.976290000e-01 -7.414000000e-03
1324000000.0 -9.951480000e-01 -4.336000000e-03
1328500000.0 -9.938460000e-01 -9.674000000e-03
1333000000.0 -9.969970000e-01 -5.015000000e-03
1337500000.0 -9.928560000e-01 8.050000000e-04
1342000000.0 -9.937390000e-01 1.330000000e-04
1346500000.0 -9.947200000e-01 -7.405000000e-03
1351000000.0 -9.961530000e-01 6.250000000e-04
1355500000.0 -9.908020000e-01 2.359000000e-03
1360000000.0 -9.987130000e-01 -3.610000000e-03
1364500000.0 -1.000476000e+00 -7.290000000e-03
1369000000.0 -1.001536000e+00 -1.053000000e-02
1373500000.0 -9.972160000e-01 4.344000000e-03
1378000000.0 -1.001913000e+00 1.942000000e-03
1382500000.0 -9.979060000e-01 6.017000000e-03
1387000000.0 -1.002495000e+00 2.150000000e-04
1391500000.0 -1.000688000e+00 -3.354000000e-03
1396000000.0 -1.011196000e+00 -3.333000000e-03
1400500000.0 -1.001470000e+00 7.314000000e-03
1405000000.0 -1.010336000e+00 -9.466000000e-03
1409500000.0 -1.003611000e+00 -3.322000000e-03
1414000000.0 -1.005020000e+00 -5.910000000e-04
1418500000.0 -1.008772000e+00 -1.026600000e-02
1423000000.0 -1.013456000e+00 -4.292000000e-03
1427500000.0 -1.014140000e+00 -4.842000000e-03
1432000000.0 -1.009839000e+00 -4.959000000e-03
1436500000.0 -1.011648000e+00 6.740000000e-04
1441000000.0 -1.008093000e+00 -4.460000000e-03
1445500000.0 -1.009663000e+00 -1.047900000e-02
1450000000.0 -1.008505000e+00 -2.868000000e-03
