! piloto_deriva / corto_deriva / r39
# HZ S RI R 50
50000.0 -9.976980000e-01 -3.716200000e-02
59500.0 -9.993500000e-01 -1.780300000e-02
69000.0 -9.971550000e-01 -9.119000000e-03
78500.0 -9.992630000e-01 -2.155000000e-03
88000.0 -1.000146000e+00 -3.900000000e-04
97500.0 -9.993360000e-01 -6.120000000e-04
107000.0 -1.000132000e+00 -3.137000000e-03
116500.0 -9.998780000e-01 -6.033000000e-03
126000.0 -9.984770000e-01 -1.149300000e-02
135500.0 -9.999840000e-01 -1.745500000e-02
145000.0 -9.995090000e-01 -2.215600000e-02
154500.0 -1.000469000e+00 -2.960300000e-02
164000.0 -9.997020000e-01 -3.679500000e-02
173500.0 -9.997130000e-01 -4.406100000e-02
183000.0 -9.994620000e-01 -5.180800000e-02
192500.0 -1.000337000e+00 -6.023600000e-02
202000.0 -1.000399000e+00 -6.843500000e-02
211500.0 -1.000839000e+00 -7.736700000e-02
221000.0 -1.000656000e+00 -8.549700000e-02
230500.0 -1.000709000e+00 -9.523600000e-02
240000.0 -1.000691000e+00 -1.047390000e-01
249500.0 -1.000566000e+00 -1.125760000e-01
259000.0 -1.001582000e+00 -1.221010000e-01
268500.0 -1.001731000e+00 -1.315360000e-01
278000.0 -1.001628000e+00 -1.403070000e-01
287500.0 -1.002024000e+00 -1.501340000e-01
297000.0 -1.001606000e+00 -1.590570000e-01
306500.0 -1.001870000e+00 -1.692950000e-01
316000.0 -1.002460000e+00 -1.782220000e-01
325500.0 -1.003316000e+00 -1.871420000e-01
335000.0 -1.003206000e+00 -1.967240000e-01
344500.0 -1.002962000e+00 -2.055640000e-01
354000.0 -1.004169000e+00 -2.153820000e-01
363500.0 -1.003473000e+00 -2.241930000e-01
373000.0 -1.004640000e+00 -2.341690000e-01
382500.0 -1.004437000e+00 -2.421720000e-01
392000.0 -1.004280000e+00 -2.519160000e-01
401500.0 -1.004291000e+00 -2.613180000e-01
411000.0 -1.004316000e+00 -2.721030000e-01
420500.0 -1.004954000e+00 -2.807050000e-01
430000.0 -1.005333000e+00 -2.894390000e-01
439500.0 -1.005597000e+00 -2.986420000e-01
449000.0 -1.005395000e+00 -3.086860000e-01
458500.0 -1.005117000e+00 -3.178170000e-01
468000.0 -1.005785000e+00 -3.275360000e-01
477500.0 -1.006515000e+00 -3.370720000e-01
487000.0 -1.007325000e+00 -3.459580000e-01
496500.0 -1.007572000e+00 -3.550720000e-01
506000.0 -1.006875000e+00 -3.651960000e-01
515500.0 -1.007089000e+00 -3.734570000e-01
525000.0 -1.008108000e+00 -3.830160000e-01
534500.0 -1.007487000e+00 -3.927000000e-01
544000.0 -1.007994000e+00 -4.016160000e-01
553500.0 -1.008515000e+00 -4.106610000e-01
563000.0 -1.009491000e+00 -4.195350000e-01
572500.0 -1.008939000e+00 -4.289280000e-01
582000.0 -1.010732000e+00 -4.384990000e-01
591500.0 -1.011032000e+00 -4.480630000e-01
601000.0 -1.011060000e+00 -4.564670000e-01
610500.0 -1.010470000e+00 -4.651040000e-01
620000.0 -1.012030000e+00 -4.747920000e-01
629500.0 -1.011369000e+00 -4.833450000e-01
639000.0 -1.013747000e+00 -4.924020000e-01
648500.0 -1.013465000e+00 -5.021400000e-01
658000.0 -1.014220000e+00 -5.114040000e-01
667500.0 -1.014769000e+00 -5.204020000e-01
677000.0 -1.015779000e+00 -5.290260000e-01
686500.0 -1.016155000e+00 -5.377780000e-01
696000.0 -1.017013000e+00 -5.477780000e-01
705500.0 -1.017960000e+00 -5.557590000e-01
715000.0 -1.018956000e+00 -5.653990000e-01
724500.0 -1.019754000e+00 -5.729300000e-01
734000.0 -1.019948000e+00 -5.830550000e-01
743500.0 -1.021002000e+00 -5.918720000e-01
753000.0 -1.022238000e+00 -5.996080000e-01
762500.0 -1.023916000e+00 -6.107440000e-01
772000.0 -1.025354000e+00 -6.190480000e-01
781500.0 -1.025201000e+00 -6.272800000e-01
791000.0 -1.026917000e+00 -6.367410000e-01
800500.0 -1.028600000e+00 -6.444340000e-01
810000.0 -1.028729000e+00 -6.544550000e-01
819500.0 -1.029722000e+00 -6.627000000e-01
829000.0 -1.030925000e+00 -6.707370000e-01
838500.0 -1.032762000e+00 -6.807470000e-01
848000.0 -1.050807000e+00 -7.013500000e-01
857500.0 -1.038164000e+00 -6.978290000e-01
867000.0 -1.038256000e+00 -7.077040000e-01
876500.0 -1.039673000e+00 -7.150060000e-01
886000.0 -1.042452000e+00 -7.232820000e-01
895500.0 -1.043057000e+00 -7.347460000e-01
905000.0 -1.044967000e+00 -7.405900000e-01
914500.0 -1.047875000e+00 -7.504580000e-01
924000.0 -1.050243000e+00 -7.606470000e-01
933500.0 -1.052637000e+00 -7.666400000e-01
943000.0 -1.054366000e+00 -7.750760000e-01
952500.0 -1.055808000e+00 -7.843130000e-01
962000.0 -1.057546000e+00 -7.938130000e-01
971500.0 -1.060624000e+00 -8.006700000e-01
981000.0 -1.063161000e+00 -8.106040000e-01
990500.0 -1.065854000e+00 -8.187790000e-01
1000000.0 -1.068053000e+00 -8.262030000e-01
1090000.0 -1.098590000e+00 -9.037330000e-01
1180000.0 -1.134498000e+00 -9.763880000e-01
1270000.0 -1.184987000e+00 -1.045577000e+00
1360000.0 -1.238629000e+00 -1.104083000e+00
1450000.0 -1.309034000e+00 -1.157981000e+00
1540000.0 -1.385801000e+00 -1.190550000e+00
1630000.0 -1.472707000e+00 -1.212304000e+00
1720000.0 -1.565784000e+00 -1.211164000e+00
1810000.0 -1.655047000e+00 -1.188266000e+00
1900000.0 -1.737629000e+00 -1.141507000e+00
1990000.0 -1.809525000e+00 -1.082348000e+00
2080000.0 -1.864383000e+00 -1.000093000e+00
2170000.0 -1.900980000e+00 -9.098770000e-01
2260000.0 -1.916059000e+00 -8.208940000e-01
2350000.0 -1.917565000e+00 -7.262830000e-01
2440000.0 -1.901005000e+00 -6.433410000e-01
2530000.0 -1.870839000e+00 -5.656230000e-01
2620000.0 -1.841070000e+00 -4.942150000e-01
2710000.0 -1.799766000e+00 -4.378310000e-01
2800000.0 -1.757948000e+00 -3.854460000e-01
2890000.0 -1.715482000e+00 -3.386300000e-01
2980000.0 -1.673762000e+00 -2.997970000e-01
3070000.0 -1.632262000e+00 -2.687700000e-01
3160000.0 -1.593044000e+00 -2.399930000e-01
3250000.0 -1.557247000e+00 -2.148020000e-01
3340000.0 -1.522580000e+00 -1.914970000e-01
3430000.0 -1.488778000e+00 -1.716430000e-01
3520000.0 -1.457378000e+00 -1.545020000e-01
3610000.0 -1.429367000e+00 -1.368820000e-01
3700000.0 -1.401567000e+00 -1.220590000e-01
3790000.0 -1.378229000e+00 -1.079290000e-01
3880000.0 -1.355164000e+00 -9.191900000e-02
3970000.0 -1.332722000e+00 -7.998400000e-02
4060000.0 -1.311717000e+00 -6.659400000e-02
4150000.0 -1.295437000e+00 -5.290100000e-02
4240000.0 -1.278615000e+00 -4.122700000e-02
4330000.0 -1.263575000e+00 -3.038700000e-02
4420000.0 -1.248837000e+00 -2.018400000e-02
4510000.0 -1.235688000e+00 -7.106000000e-03
4600000.0 -1.223783000e+00 3.143000000e-03
4690000.0 -1.212835000e+00 1.431500000e-02
4780000.0 -1.204225000e+00 2.703800000e-02
4870000.0 -1.195118000e+00 3.773700000e-02
4960000.0 -1.187243000e+00 4.864700000e-02
5050000.0 -1.172592000e+00 5.917000000e-02
5140000.0 -1.167794000e+00 6.983400000e-02
5230000.0 -1.161356000e+00 8.002400000e-02
5320000.0 -1.157655000e+00 9.104500000e-02
5410000.0 -1.151832000e+00 1.008570000e-01
5500000.0 -1.147252000e+00 1.098830000e-01
5590000.0 -1.143118000e+00 1.214330000e-01
5680000.0 -1.139856000e+00 1.301800000e-01
5770000.0 -1.136437000e+00 1.406180000e-01
5860000.0 -1.133158000e+00 1.498150000e-01
5950000.0 -1.128588000e+00 1.591390000e-01
6040000.0 -1.125646000e+00 1.682080000e-01
6130000.0 -1.123513000e+00 1.759120000e-01
6220000.0 -1.118759000e+00 1.846350000e-01
6310000.0 -1.116325000e+00 1.927910000e-01
6400000.0 -1.114578000e+00 1.997630000e-01
6490000.0 -1.113460000e+00 2.060260000e-01
6580000.0 -1.110732000e+00 2.131170000e-01
6670000.0 -1.109218000e+00 2.180340000e-01
6760000.0 -1.107241000e+00 2.245680000e-01
6850000.0 -1.106029000e+00 2.284850000e-01
6940000.0 -1.104711000e+00 2.315530000e-01
7030000.0 -1.103974000e+00 2.358450000e-01
7120000.0 -1.103138000e+00 2.382730000e-01
7210000.0 -1.101974000e+00 2.392590000e-01
7300000.0 -1.102498000e+00 2.409680000e-01
7390000.0 -1.101564000e+00 2.422450000e-01
7480000.0 -1.101526000e+00 2.424050000e-01
7570000.0 1.961440000e-01 1.073264000e+00
7660000.0 1.945120000e-01 1.074556000e+00
7750000.0 1.926340000e-01 1.074975000e+00
7840000.0 1.928200000e-01 1.074242000e+00
7930000.0 1.922520000e-01 1.075440000e+00
8020000.0 1.914970000e-01 1.075528000e+00
8110000.0 1.908840000e-01 1.075173000e+00
8200000.0 1.899630000e-01 1.075956000e+00
8290000.0 1.901180000e-01 1.077531000e+00
8380000.0 1.886790000e-01 1.077929000e+00
8470000.0 1.874670000e-01 1.077630000e+00
8560000.0 1.877080000e-01 1.077544000e+00
8650000.0 1.868970000e-01 1.078374000e+00
8740000.0 1.855770000e-01 1.078726000e+00
8830000.0 1.855690000e-01 1.078972000e+00
8920000.0 1.838930000e-01 1.079645000e+00
9010000.0 1.842490000e-01 1.080210000e+00
9100000.0 1.834010000e-01 1.080332000e+00
9190000.0 1.825260000e-01 1.081465000e+00
9280000.0 1.823510000e-01 1.081549000e+00
9370000.0 1.811410000e-01 1.083220000e+00
9460000.0 1.794530000e-01 1.083820000e+00
9550000.0 1.802180000e-01 1.083594000e+00
9640000.0 1.780730000e-01 1.084659000e+00
9730000.0 1.780570000e-01 1.084607000e+00
9820000.0 1.773670000e-01 1.085547000e+00
9910000.0 1.770030000e-01 1.084981000e+00
10000000.0 1.750800000e-01 1.087544000e+00
10900000.0 1.697160000e-01 1.094543000e+00
11800000.0 1.637000000e-01 1.102075000e+00
12700000.0 1.564740000e-01 1.110119000e+00
13600000.0 1.501020000e-01 1.118269000e+00
14500000.0 1.432680000e-01 1.127169000e+00
15400000.0 1.376690000e-01 1.135699000e+00
16300000.0 1.318400000e-01 1.144870000e+00
17200000.0 1.244310000e-01 1.154203000e+00
18100000.0 1.171610000e-01 1.163915000e+00
19000000.0 1.085010000e-01 1.173629000e+00
19900000.0 1.007350000e-01 1.182874000e+00
20800000.0 9.314200000e-02 1.192940000e+00
21700000.0 8.512100000e-02 1.202135000e+00
22600000.0 7.411400000e-02 1.210948000e+00
23500000.0 6.588300000e-02 1.220900000e+00
24400000.0 5.810700000e-02 1.230302000e+00
25300000.0 4.662400000e-02 1.241652000e+00
26200000.0 3.569700000e-02 1.251256000e+00
27100000.0 2.679700000e-02 1.261999000e+00
28000000.0 1.322400000e-02 1.272158000e+00
28900000.0 1.982000000e-03 1.282495000e+00
29800000.0 -9.083000000e-03 1.292525000e+00
30700000.0 -2.208600000e-02 1.300421000e+00
31600000.0 -3.494800000e-02 1.312926000e+00
32500000.0 -4.867200000e-02 1.321288000e+00
33400000.0 -6.194000000e-02 1.331671000e+00
34300000.0 -7.580000000e-02 1.341531000e+00
35200000.0 -9.150400000e-02 1.351043000e+00
36100000.0 -1.059800000e-01 1.360318000e+00
37000000.0 -1.205090000e-01 1.370192000e+00
37900000.0 -1.387210000e-01 1.380383000e+00
38800000.0 -1.534350000e-01 1.388398000e+00
39700000.0 -1.715040000e-01 1.396215000e+00
40600000.0 -1.888000000e-01 1.404602000e+00
41500000.0 -2.055810000e-01 1.413196000e+00
42400000.0 -2.245360000e-01 1.421509000e+00
43300000.0 -2.432420000e-01 1.427792000e+00
44200000.0 -2.628900000e-01 1.435774000e+00
45100000.0 -2.828330000e-01 1.442175000e+00
46000000.0 -3.037620000e-01 1.449079000e+00
46900000.0 -3.231090000e-01 1.453400000e+00
47800000.0 -3.437150000e-01 1.458047000e+00
48700000.0 -3.654430000e-01 1.464075000e+00
49600000.0 -3.877780000e-01 1.467141000e+00
50500000.0 -4.098490000e-01 1.472984000e+00
51400000.0 -4.301480000e-01 1.474485000e+00
52300000.0 -4.542120000e-01 1.478614000e+00
53200000.0 -4.758780000e-01 1.478862000e+00
54100000.0 -4.995130000e-01 1.479714000e+00
55000000.0 -5.231610000e-01 1.481027000e+00
55900000.0 -5.471580000e-01 1.481413000e+00
56800000.0 -5.706840000e-01 1.480941000e+00
57700000.0 -5.949290000e-01 1.480692000e+00
58600000.0 -6.204130000e-01 1.477433000e+00
59500000.0 -6.420540000e-01 1.475021000e+00
60400000.0 -6.678970000e-01 1.471629000e+00
61300000.0 -6.921470000e-01 1.467315000e+00
62200000.0 -7.165370000e-01 1.462859000e+00
63100000.0 -7.408150000e-01 1.457117000e+00
64000000.0 -7.632510000e-01 1.449412000e+00
64900000.0 -7.892750000e-01 1.445071000e+00
65800000.0 -8.132370000e-01 1.436520000e+00
66700000.0 -8.375700000e-01 1.427994000e+00
67600000.0 -8.610380000e-01 1.418656000e+00
68500000.0 -8.847580000e-01 1.407110000e+00
69400000.0 -9.064880000e-01 1.398132000e+00
70300000.0 -9.305970000e-01 1.387450000e+00
71200000.0 -9.517960000e-01 1.374512000e+00
72100000.0 -9.752440000e-01 1.362503000e+00
73000000.0 -9.976870000e-01 1.348205000e+00
73900000.0 -1.019430000e+00 1.334286000e+00
74800000.0 -1.040484000e+00 1.319865000e+00
75700000.0 -1.060349000e+00 1.304355000e+00
76600000.0 -1.080406000e+00 1.289026000e+00
77500000.0 -1.101122000e+00 1.273075000e+00
78400000.0 -1.120335000e+00 1.255625000e+00
79300000.0 -1.139838000e+00 1.236861000e+00
80200000.0 -1.156414000e+00 1.220347000e+00
81100000.0 -1.176205000e+00 1.202520000e+00
82000000.0 -1.192253000e+00 1.182542000e+00
82900000.0 -1.209450000e+00 1.162407000e+00
83800000.0 -1.224454000e+00 1.141656000e+00
84700000.0 -1.240785000e+00 1.119900000e+00
85600000.0 -1.254397000e+00 1.100444000e+00
86500000.0 -1.269909000e+00 1.080011000e+00
87400000.0 -1.282014000e+00 1.058689000e+00
88300000.0 -1.294844000e+00 1.037722000e+00
89200000.0 -1.306801000e+00 1.013857000e+00
90100000.0 -1.317571000e+00 9.921970000e-01
91000000.0 -1.328585000e+00 9.692110000e-01
91900000.0 -1.336807000e+00 9.456190000e-01
92800000.0 -1.346428000e+00 9.236620000e-01
93700000.0 -1.355855000e+00 8.998840000e-01
94600000.0 -1.362087000e+00 8.761250000e-01
95500000.0 -1.370208000e+00 8.532340000e-01
96400000.0 -1.375847000e+00 8.301180000e-01
97300000.0 -1.379809000e+00 8.077570000e-01
98200000.0 -1.383752000e+00 7.832150000e-01
99100000.0 -1.388944000e+00 7.603380000e-01
100000000.0 -1.390679000e+00 7.378800000e-01
109000000.0 -1.385899000e+00 5.212500000e-01
118000000.0 -1.332616000e+00 3.400640000e-01
127000000.0 -1.250381000e+00 1.996950000e-01
136000000.0 -1.134135000e+00 1.005440000e-01
145000000.0 -1.046699000e+00 2.940300000e-02
154000000.0 -9.996820000e-01 -4.240000000e-04
163000000.0 -1.002392000e+00 -3.834000000e-03
172000000.0 -1.005184000e+00 -6.012000000e-03
181000000.0 -1.006486000e+00 -7.186000000e-03
190000000.0 -1.007799000e+00 -8.911000000e-03
199000000.0 -1.008977000e+00 -1.038700000e-02
208000000.0 -1.009757000e+00 -1.101700000e-02
217000000.0 -1.010467000e+00 -1.164700000e-02
226000000.0 -1.010400000e+00 -1.196400000e-02
235000000.0 -1.010653000e+00 -1.058700000e-02
244000000.0 -1.009836000e+00 -1.105000000e-02
253000000.0 -1.008936000e+00 -9.264000000e-03
262000000.0 -1.007272000e+00 -9.054000000e-03
271000000.0 -1.006513000e+00 -7.655000000e-03
280000000.0 -1.004606000e+00 -4.431000000e-03
289000000.0 -1.002184000e+00 -4.424000000e-03
298000000.0 -1.000299000e+00 -1.360000000e-04
307000000.0 -1.001698000e+00 -1.400000000e-04
316000000.0 -1.004567000e+00 -2.376000000e-03
325000000.0 -1.008373000e+00 -1.316000000e-03
334000000.0 -1.009651000e+00 -5.320000000e-04
343000000.0 -1.012399000e+00 -2.684000000e-03
352000000.0 -1.013416000e+00 -2.542000000e-03
361000000.0 -8.723590000e-01 3.827000000e-02
370000000.0 -1.014856000e+00 -3.698000000e-03
379000000.0 -1.014536000e+00 -4.684000000e-03
388000000.0 -1.017848000e+00 -3.974700000e-02
397000000.0 -1.013373000e+00 -4.336000000e-03
406000000.0 -1.009829000e+00 1.344000000e-02
415000000.0 -1.011873000e+00 -2.121500000e-02
424000000.0 -1.011569000e+00 -2.026400000e-02
433000000.0 -1.013362000e+00 -3.595000000e-02
442000000.0 -1.003133000e+00 -2.996000000e-03
451000000.0 -1.000226000e+00 -3.265000000e-03
460000000.0 -1.005424000e+00 9.600000000e-04
469000000.0 -1.008582000e+00 8.060000000e-04
478000000.0 -1.010109000e+00 3.454000000e-03
487000000.0 -1.013213000e+00 -2.730000000e-04
496000000.0 -1.013939000e+00 6.860000000e-04
505000000.0 -1.015798000e+00 3.610000000e-03
514000000.0 -1.015927000e+00 2.573000000e-03
523000000.0 -1.016627000e+00 3.083000000e-03
532000000.0 -1.015244000e+00 4.364000000e-03
541000000.0 -1.015887000e+00 1.579000000e-03
550000000.0 -1.016205000e+00 2.520000000e-04
559000000.0 -1.013977000e+00 3.992000000e-03
568000000.0 -1.010529000e+00 2.530000000e-03
577000000.0 -1.010378000e+00 3.293000000e-03
586000000.0 -1.005629000e+00 3.656000000e-03
595000000.0 -1.000394000e+00 8.520000000e-04
604000000.0 -1.000766000e+00 1.741000000e-03
613000000.0 -1.000611000e+00 5.260000000e-03
622000000.0 -1.005433000e+00 6.064000000e-03
631000000.0 -1.007385000e+00 1.010300000e-02
640000000.0 -1.008474000e+00 1.098400000e-02
649000000.0 -1.010090000e+00 9.942000000e-03
658000000.0 -1.010321000e+00 7.398000000e-03
667000000.0 -1.011178000e+00 1.275500000e-02
676000000.0 -1.012755000e+00 1.322400000e-02
685000000.0 -1.010320000e+00 1.068400000e-02
694000000.0 -1.008894000e+00 1.096200000e-02
703000000.0 -1.007871000e+00 8.830000000e-03
712000000.0 -1.007504000e+00 1.469300000e-02
721000000.0 -1.006160000e+00 6.327000000e-03
730000000.0 -1.003549000e+00 5.951000000e-03
739000000.0 -1.001155000e+00 2.771000000e-03
748000000.0 -9.983810000e-01 7.630000000e-04
757000000.0 -9.977860000e-01 2.772000000e-03
766000000.0 -1.000209000e+00 2.672000000e-03
775000000.0 -1.001592000e+00 3.935000000e-03
784000000.0 -9.987870000e-01 7.138000000e-03
793000000.0 -9.998550000e-01 7.421000000e-03
802000000.0 -9.991560000e-01 2.602900000e-02
811000000.0 -1.000998000e+00 7.191000000e-03
820000000.0 -1.001812000e+00 -1.086300000e-02
829000000.0 -9.977390000e-01 8.060000000e-03
838000000.0 -9.960030000e-01 2.946800000e-02
847000000.0 -9.984530000e-01 5.850000000e-03
856000000.0 -1.002437000e+00 -1.558600000e-02
865000000.0 -9.967040000e-01 -5.260000000e-04
874000000.0 -9.999770000e-01 2.670000000e-03
883000000.0 -9.941350000e-01 1.900000000e-03
892000000.0 -9.996810000e-01 -3.620000000e-03
901000000.0 -9.945010000e-01 8.140000000e-04
910000000.0 -9.974880000e-01 -2.439000000e-03
919000000.0 -9.975700000e-01 -3.160000000e-03
928000000.0 -9.996870000e-01 2.180000000e-04
937000000.0 -1.000094000e+00 -4.008000000e-03
946000000.0 -1.001878000e+00 -7.637000000e-03
955000000.0 -1.002647000e+00 -4.620000000e-03
964000000.0 -1.003260000e+00 -6.794000000e-03
973000000.0 -1.000576000e+00 -7.431000000e-03
982000000.0 -1.002051000e+00 -1.193200000e-02
991000000.0 -1.002333000e+00 -1.122700000e-02
1000000000.0 -1.000405000e+00 -6.382000000e-03
1004500000.0 -9.988680000e-01 -1.533000000e-03
1009000000.0 -1.001747000e+00 -7.758000000e-03
1013500000.0 -1.003016000e+00 -1.369300000e-02
1018000000.0 -1.000489000e+00 -4.816000000e-03
1022500000.0 -1.003857000e+00 -6.065000000e-03
1027000000.0 -1.005895000e+00 -7.992000000e-03
1031500000.0 -1.002889000e+00 -5.224000000e-03
1036000000.0 -1.001792000e+00 -6.185000000e-03
1040500000.0 -1.001208000e+00 -8.714000000e-03
1045000000.0 -1.001571000e+00 -6.218000000e-03
1049500000.0 -1.000737000e+00 -6.259000000e-03
1054000000.0 -9.977180000e-01 -7.904000000e-03
1058500000.0 -1.001738000e+00 -8.405000000e-03
1063000000.0 -9.977000000e-01 -5.333000000e-03
1067500000.0 -1.003032000e+00 -6.710000000e-03
1072000000.0 -1.004302000e+00 -2.930000000e-03
1076500000.0 -1.006720000e+00 -1.093500000e-02
1081000000.0 -1.003547000e+00 -4.762000000e-03
1085500000.0 -1.001455000e+00 -4.671000000e-03
1090000000.0 -1.004857000e+00 -1.399700000e-02
1094500000.0 -1.004634000e+00 -1.188200000e-02
1099000000.0 -1.006543000e+00 -2.935000000e-03
1103500000.0 -1.004045000e+00 -1.219900000e-02
1108000000.0 -1.008981000e+00 -1.262100000e-02
1112500000.0 -1.008208000e+00 -7.758000000e-03
1117000000.0 -1.004509000e+00 -5.777000000e-03
1121500000.0 -1.010277000e+00 -2.935700000e-02
1126000000.0 -1.006242000e+00 6.088000000e-03
1130500000.0 -1.012659000e+00 -2.191100000e-02
1135000000.0 -1.015916000e+00 -4.272900000e-02
1139500000.0 -1.006891000e+00 -1.481900000e-02
1144000000.0 -1.005751000e+00 -4.740000000e-03
1148500000.0 -1.008438000e+00 -1.984500000e-02
1153000000.0 -1.009217000e+00 -1.117000000e-03
1157500000.0 -1.001338000e+00 -1.219200000e-02
1162000000.0 -1.005226000e+00 -3.658000000e-03
1166500000.0 -1.006258000e+00 -3.991000000e-03
1171000000.0 -1.000609000e+00 -2.885000000e-03
1175500000.0 -1.004006000e+00 -9.980000000e-03
1180000000.0 -9.988760000e-01 6.460000000e-04
1184500000.0 -9.982090000e-01 -9.067000000e-03
1189000000.0 -1.002513000e+00 -5.032000000e-03
1193500000.0 -9.962170000e-01 -7.735000000e-03
1198000000.0 -9.984120000e-01 -1.273000000e-03
1202500000.0 -9.977360000e-01 -8.859000000e-03
1207000000.0 -9.964390000e-01 -1.473000000e-03
1211500000.0 -9.977830000e-01 2.618000000e-03
1216000000.0 -1.003967000e+00 2.142000000e-03
1220500000.0 -9.991190000e-01 -7.756000000e-03
1225000000.0 -1.003081000e+00 -4.979000000e-03
1229500000.0 -1.008165000e+00 -3.568000000e-03
1234000000.0 -1.001386000e+00 -1.614000000e-03
1238500000.0 -1.004267000e+00 -1.010500000e-02
1243000000.0 -1.000260000e+00 3.384000000e-03
1247500000.0 -1.003869000e+00 -9.688000000e-03
1252000000.0 -1.003703000e+00 -5.378000000e-03
1256500000.0 -1.004114000e+00 -3.913000000e-03
1261000000.0 -1.002811000e+00 -5.226000000e-03
1265500000.0 -1.001156000e+00 -4.840000000e-03
1270000000.0 -1.002774000e+00 -5.474000000e-03
1274500000.0 -1.010975000e+00 -3.029000000e-03
1279000000.0 -1.009015000e+00 -8.993000000e-03
1283500000.0 -1.005663000e+00 -6.732000000e-03
1288000000.0 -1.005739000e+00 -6.019000000e-03
1292500000.0 -1.003232000e+00 -6.865000000e-03
1297000000.0 -1.004602000e+00 -1.037000000e-03
1301500000.0 -1.005331000e+00 2.050000000e-03
1306000000.0 -9.978350000e-01 -4.557000000e-03
1310500000.0 -9.983330000e-01 -2.239000000e-03
1315000000.0 -1.001608000e+00 -1.289000000e-03
1319500000.0 -1.001591000e+00 -5.989000000e-03
1324000000.0 -1.004161000e+00 -3.109000000e-03
1328500000.0 -9.954290000e-01 -3.749000000e-03
1333000000.0 -9.988000000e-01 -4.154000000e-03
1337500000.0 -9.990380000e-01 -6.624000000e-03
1342000000.0 -9.972150000e-01 2.020000000e-04
1346500000.0 -9.948260000e-01 5.390000000e-04
1351000000.0 -9.918520000e-01 5.186000000e-03
1355500000.0 -9.933900000e-01 -2.718000000e-03
1360000000.0 -9.956860000e-01 -6.479000000e-03
1364500000.0 -9.911910000e-01 -5.334000000e-03
1369000000.0 -1.000644000e+00 2.516000000e-03
1373500000.0 -9.938890000e-01 -4.407000000e-03
1378000000.0 -1.002055000e+00 -5.436000000e-03
1382500000.0 -1.004890000e+00 7.000000000e-05
1387000000.0 -1.003569000e+00 3.078000000e-03
1391500000.0 -1.004333000e+00 -2.921000000e-03
1396000000.0 -1.004308000e+00 3.440000000e-04
1400500000.0 -1.003846000e+00 5.978000000e-03
1405000000.0 -1.008572000e+00 3.646000000e-03
1409500000.0 -1.003780000e+00 7.027000000e-03
1414000000.0 -1.013070000e+00 -1.478000000e-03
1418500000.0 -1.010953000e+00 -8.244000000e-03
1423000000.0 -1.021011000e+00 -1.465900000e-02
1427500000.0 -1.011920000e+00 -6.356000000e-03
1432000000.0 -1.010952000e+00 -8.794000000e-03
1436500000.0 -1.010077000e+00 -9.714000000e-03
1441000000.0 -1.009328000e+00 -3.570000000e-04
1445500000.0 -1.007780000e+00 -6.264000000e-03
1450000000.0 -1.011415000e+00 -6.162000000e-03
