! piloto_deriva / sol_abierto / r01
# HZ S RI R 50
50000.0 -3.082000000e-03 -2.621700000e-02
59500.0 -3.344000000e-03 -1.703800000e-02
69000.0 -4.463000000e-03 -1.167000000e-02
78500.0 -1.838000000e-03 -6.648000000e-03
88000.0 -1.051000000e-03 -4.452000000e-03
97500.0 -1.126000000e-03 -1.107000000e-03
107000.0 3.160000000e-04 1.743000000e-03
116500.0 -5.320000000e-04 3.846000000e-03
126000.0 3.300000000e-05 5.911000000e-03
135500.0 5.940000000e-04 6.866000000e-03
145000.0 1.119000000e-03 7.893000000e-03
154500.0 8.450000000e-04 9.396000000e-03
164000.0 1.491000000e-03 1.031700000e-02
173500.0 1.617000000e-03 1.115400000e-02
183000.0 1.262000000e-03 1.192700000e-02
192500.0 1.818000000e-03 1.343500000e-02
202000.0 1.291000000e-03 1.377700000e-02
211500.0 1.401000000e-03 1.365600000e-02
221000.0 2.386000000e-03 1.488900000e-02
230500.0 2.254000000e-03 1.543400000e-02
240000.0 2.272100000e-02 4.762300000e-02
249500.0 2.244000000e-03 1.657300000e-02
259000.0 2.182000000e-03 1.720800000e-02
268500.0 2.533000000e-03 1.729900000e-02
278000.0 2.553000000e-03 1.768300000e-02
287500.0 2.710000000e-03 1.799200000e-02
297000.0 3.000000000e-03 1.830200000e-02
306500.0 2.379000000e-03 1.853700000e-02
316000.0 3.196000000e-03 1.849200000e-02
325500.0 2.720000000e-03 1.863800000e-02
335000.0 3.648000000e-03 2.019900000e-02
344500.0 2.989000000e-03 1.976500000e-02
354000.0 3.703000000e-03 2.024900000e-02
363500.0 2.577000000e-03 2.017800000e-02
373000.0 3.665000000e-03 2.031000000e-02
382500.0 3.841000000e-03 2.001400000e-02
392000.0 3.806000000e-03 2.142100000e-02
401500.0 4.003000000e-03 2.126300000e-02
411000.0 4.311000000e-03 2.134800000e-02
420500.0 3.823000000e-03 2.187600000e-02
430000.0 4.346000000e-03 2.175000000e-02
439500.0 3.883000000e-03 2.245700000e-02
449000.0 4.154000000e-03 2.243900000e-02
458500.0 4.346000000e-03 2.260100000e-02
468000.0 4.723000000e-03 2.294200000e-02
477500.0 5.213000000e-03 2.245500000e-02
487000.0 4.386000000e-03 2.338600000e-02
496500.0 5.047000000e-03 2.425000000e-02
506000.0 5.070000000e-03 2.328000000e-02
515500.0 4.884000000e-03 2.373800000e-02
525000.0 5.300000000e-03 2.401700000e-02
534500.0 4.715000000e-03 2.310200000e-02
544000.0 6.188000000e-03 2.437500000e-02
553500.0 4.427000000e-03 2.415900000e-02
563000.0 5.293000000e-03 2.441500000e-02
572500.0 4.919000000e-03 2.389000000e-02
582000.0 5.623000000e-03 2.443600000e-02
591500.0 5.336000000e-03 2.495600000e-02
601000.0 6.180000000e-03 2.435600000e-02
610500.0 5.009000000e-03 2.549100000e-02
620000.0 5.191000000e-03 2.513700000e-02
629500.0 5.550000000e-03 2.636500000e-02
639000.0 6.748000000e-03 2.567500000e-02
648500.0 5.483000000e-03 2.425800000e-02
658000.0 5.857000000e-03 2.569600000e-02
667500.0 5.766000000e-03 2.604000000e-02
677000.0 6.035000000e-03 2.518900000e-02
686500.0 6.192000000e-03 2.631600000e-02
696000.0 7.272000000e-03 2.543500000e-02
705500.0 6.533000000e-03 2.537400000e-02
715000.0 6.354000000e-03 2.607000000e-02
724500.0 6.627000000e-03 2.543800000e-02
734000.0 6.437000000e-03 2.581600000e-02
743500.0 6.418000000e-03 2.528700000e-02
753000.0 7.156000000e-03 2.698400000e-02
762500.0 7.135000000e-03 2.597300000e-02
772000.0 7.593000000e-03 2.662700000e-02
781500.0 6.981000000e-03 2.598900000e-02
791000.0 7.719000000e-03 2.522700000e-02
800500.0 6.629000000e-03 2.648700000e-02
810000.0 7.374000000e-03 2.671800000e-02
819500.0 7.341000000e-03 2.752300000e-02
829000.0 6.408000000e-03 2.648300000e-02
838500.0 7.783000000e-03 2.671200000e-02
848000.0 7.518000000e-03 2.614100000e-02
857500.0 8.014000000e-03 2.768900000e-02
867000.0 8.642000000e-03 2.733300000e-02
876500.0 7.597000000e-03 2.733900000e-02
886000.0 8.317000000e-03 2.786800000e-02
895500.0 8.949000000e-03 2.869100000e-02
905000.0 7.783000000e-03 2.598900000e-02
914500.0 8.788000000e-03 2.812000000e-02
924000.0 9.389000000e-03 2.743800000e-02
933500.0 9.028000000e-03 2.740500000e-02
943000.0 8.665000000e-03 2.776600000e-02
952500.0 9.123000000e-03 2.599100000e-02
962000.0 9.255000000e-03 2.792800000e-02
971500.0 1.005900000e-02 2.814400000e-02
981000.0 1.083100000e-02 2.805600000e-02
990500.0 1.035100000e-02 2.799700000e-02
1000000.0 9.345000000e-03 2.707700000e-02
1090000.0 1.038400000e-02 2.816700000e-02
1180000.0 1.296700000e-02 2.768500000e-02
1270000.0 1.384900000e-02 2.747400000e-02
1360000.0 1.190600000e-02 2.606900000e-02
1450000.0 1.405200000e-02 2.684900000e-02
1540000.0 1.524300000e-02 2.509500000e-02
1630000.0 1.821400000e-02 2.471100000e-02
1720000.0 1.770600000e-02 2.113900000e-02
1810000.0 1.757800000e-02 2.063000000e-02
1900000.0 1.986400000e-02 1.845200000e-02
1990000.0 1.859200000e-02 1.880200000e-02
2080000.0 1.921200000e-02 1.552500000e-02
2170000.0 1.637100000e-02 1.322100000e-02
2260000.0 1.607500000e-02 1.162400000e-02
2350000.0 1.473900000e-02 1.013200000e-02
2440000.0 1.380900000e-02 1.007000000e-02
2530000.0 1.194700000e-02 9.431000000e-03
2620000.0 9.396000000e-03 7.925000000e-03
2710000.0 6.968000000e-03 9.282000000e-03
2800000.0 7.238000000e-03 9.665000000e-03
2890000.0 7.746000000e-03 9.078000000e-03
2980000.0 5.314000000e-03 9.581000000e-03
3070000.0 6.112000000e-03 7.672000000e-03
3160000.0 5.284000000e-03 7.503000000e-03
3250000.0 3.385000000e-03 8.192000000e-03
3340000.0 3.496000000e-03 8.702000000e-03
3430000.0 2.815000000e-03 9.601000000e-03
3520000.0 1.774000000e-03 7.352000000e-03
3610000.0 7.280000000e-04 9.097000000e-03
3700000.0 1.553000000e-03 1.014700000e-02
3790000.0 8.040000000e-04 9.670000000e-03
3880000.0 -7.500000000e-05 8.328000000e-03
3970000.0 -3.930000000e-04 1.027700000e-02
4060000.0 1.980000000e-04 1.037400000e-02
4150000.0 -4.220000000e-04 1.058900000e-02
4240000.0 -5.550000000e-04 9.611000000e-03
4330000.0 -1.119000000e-03 9.444000000e-03
4420000.0 -7.900000000e-04 9.892000000e-03
4510000.0 -2.069000000e-03 8.798000000e-03
4600000.0 -1.745000000e-03 9.207000000e-03
4690000.0 -1.901000000e-03 9.463000000e-03
4780000.0 -2.956000000e-03 9.485000000e-03
4870000.0 -2.390000000e-03 9.468000000e-03
4960000.0 -2.710000000e-03 9.421000000e-03
5050000.0 -2.102000000e-03 9.750000000e-03
5140000.0 -2.651000000e-03 9.200000000e-03
5230000.0 -3.074000000e-03 9.763000000e-03
5320000.0 -3.650000000e-03 9.411000000e-03
5410000.0 -5.300000000e-04 1.181100000e-02
5500000.0 -2.773000000e-03 8.593000000e-03
5590000.0 -2.638000000e-03 9.096000000e-03
5680000.0 -2.579000000e-03 8.984000000e-03
5770000.0 -3.084000000e-03 8.471000000e-03
5860000.0 -3.157000000e-03 8.294000000e-03
5950000.0 -2.798000000e-03 9.309000000e-03
6040000.0 -2.013000000e-03 8.492000000e-03
6130000.0 -2.791000000e-03 8.641000000e-03
6220000.0 -3.106000000e-03 8.505000000e-03
6310000.0 -3.358000000e-03 8.705000000e-03
6400000.0 -3.524000000e-03 8.432000000e-03
6490000.0 -3.275000000e-03 8.546000000e-03
6580000.0 -3.490000000e-03 8.452000000e-03
6670000.0 -3.645000000e-03 7.825000000e-03
6760000.0 -3.347000000e-03 7.878000000e-03
6850000.0 -3.038000000e-03 8.254000000e-03
6940000.0 -3.362000000e-03 8.988000000e-03
7030000.0 -3.064000000e-03 7.817000000e-03
7120000.0 -3.082000000e-03 7.437000000e-03
7210000.0 -3.525000000e-03 7.847000000e-03
7300000.0 -3.557000000e-03 8.891000000e-03
7390000.0 -3.089000000e-03 8.622000000e-03
7480000.0 -3.552000000e-03 7.488000000e-03
7570000.0 -1.960300000e-02 1.032000000e-03
7660000.0 -1.878400000e-02 1.107000000e-03
7750000.0 -1.909800000e-02 1.349000000e-03
7840000.0 -1.859300000e-02 1.058000000e-03
7930000.0 -1.886200000e-02 6.790000000e-04
8020000.0 -1.917800000e-02 1.042000000e-03
8110000.0 -1.861500000e-02 1.292000000e-03
8200000.0 -1.877700000e-02 1.155000000e-03
8290000.0 -1.809400000e-02 9.990000000e-04
8380000.0 -1.832600000e-02 8.590000000e-04
8470000.0 -1.862500000e-02 9.700000000e-04
8560000.0 -1.890600000e-02 1.473000000e-03
8650000.0 -1.848100000e-02 4.500000000e-05
8740000.0 -1.918300000e-02 1.188000000e-03
8830000.0 -1.896100000e-02 1.303000000e-03
8920000.0 -1.846800000e-02 4.770000000e-04
9010000.0 -1.871600000e-02 3.630000000e-04
9100000.0 -1.849300000e-02 8.720000000e-04
9190000.0 -1.837900000e-02 1.216000000e-03
9280000.0 -1.774000000e-02 1.326000000e-03
9370000.0 -1.789500000e-02 1.187000000e-03
9460000.0 -1.860000000e-02 9.410000000e-04
9550000.0 -1.944700000e-02 4.580000000e-04
9640000.0 -1.919900000e-02 6.450000000e-04
9730000.0 -1.851400000e-02 -1.880000000e-04
9820000.0 -1.858300000e-02 6.300000000e-04
9910000.0 -1.831700000e-02 7.090000000e-04
10000000.0 -1.788100000e-02 1.451000000e-03
10900000.0 -1.792400000e-02 6.940000000e-04
11800000.0 -1.828100000e-02 7.380000000e-04
12700000.0 -1.892700000e-02 1.029000000e-03
13600000.0 -1.799200000e-02 1.860000000e-04
14500000.0 -1.905800000e-02 4.230000000e-04
15400000.0 -1.822600000e-02 -4.320000000e-04
16300000.0 -1.796400000e-02 -8.300000000e-05
17200000.0 -1.896800000e-02 2.360000000e-04
18100000.0 -1.892700000e-02 1.810000000e-04
19000000.0 -1.901000000e-02 -5.460000000e-04
19900000.0 -1.953600000e-02 7.500000000e-05
20800000.0 -1.864400000e-02 -1.000000000e-03
21700000.0 -1.889500000e-02 -1.151000000e-03
22600000.0 -1.818300000e-02 -1.009000000e-03
23500000.0 -1.915100000e-02 -1.467000000e-03
24400000.0 -1.872100000e-02 -4.480000000e-04
25300000.0 -1.794100000e-02 -1.555000000e-03
26200000.0 -1.851200000e-02 -1.003000000e-03
27100000.0 -1.827300000e-02 -2.014000000e-03
28000000.0 -1.956800000e-02 -2.750000000e-03
28900000.0 -1.801600000e-02 -2.161000000e-03
29800000.0 -1.870900000e-02 -2.159000000e-03
30700000.0 -1.843400000e-02 -2.826000000e-03
31600000.0 -1.791100000e-02 -3.552000000e-03
32500000.0 -1.740000000e-02 -3.191000000e-03
33400000.0 -1.786700000e-02 -2.748000000e-03
34300000.0 -1.882700000e-02 -4.302000000e-03
35200000.0 -1.891500000e-02 -2.750000000e-03
36100000.0 -1.888400000e-02 -4.011000000e-03
37000000.0 -1.819900000e-02 -3.582000000e-03
37900000.0 -1.885200000e-02 -4.936000000e-03
38800000.0 -1.864100000e-02 -4.078000000e-03
39700000.0 -1.763500000e-02 -4.436000000e-03
40600000.0 -1.877800000e-02 -5.941000000e-03
41500000.0 -1.785400000e-02 -5.473000000e-03
42400000.0 -1.913900000e-02 -5.220000000e-03
43300000.0 -1.837300000e-02 -5.786000000e-03
44200000.0 -1.854700000e-02 -5.079000000e-03
45100000.0 -1.918800000e-02 -5.768000000e-03
46000000.0 -1.752800000e-02 -5.987000000e-03
46900000.0 -1.813200000e-02 -7.444000000e-03
47800000.0 -1.750500000e-02 -8.000000000e-03
48700000.0 -1.754800000e-02 -7.793000000e-03
49600000.0 -1.682900000e-02 -6.867000000e-03
50500000.0 -1.653400000e-02 -7.304000000e-03
51400000.0 -1.694500000e-02 -8.636000000e-03
52300000.0 -1.769500000e-02 -8.511000000e-03
53200000.0 -1.773700000e-02 -7.290000000e-03
54100000.0 -1.583700000e-02 -9.011000000e-03
55000000.0 -1.552900000e-02 -1.033600000e-02
55900000.0 -1.635200000e-02 -8.486000000e-03
56800000.0 -1.570400000e-02 -9.986000000e-03
57700000.0 -1.622800000e-02 -8.978000000e-03
58600000.0 -1.514200000e-02 -9.578000000e-03
59500000.0 -1.458000000e-02 -1.094700000e-02
60400000.0 -1.429900000e-02 -9.605000000e-03
61300000.0 -1.486500000e-02 -1.004000000e-02
62200000.0 -1.384000000e-02 -1.026200000e-02
63100000.0 -1.462100000e-02 -1.073400000e-02
64000000.0 -1.448800000e-02 -1.069400000e-02
64900000.0 -1.467700000e-02 -1.130200000e-02
65800000.0 -1.377800000e-02 -1.168400000e-02
66700000.0 -1.233600000e-02 -1.119300000e-02
67600000.0 -1.131600000e-02 -1.252300000e-02
68500000.0 -1.433100000e-02 -1.108200000e-02
69400000.0 -1.145100000e-02 -1.242900000e-02
70300000.0 -1.279500000e-02 -1.236900000e-02
71200000.0 -1.143800000e-02 -1.063400000e-02
72100000.0 -1.031300000e-02 -1.228600000e-02
73000000.0 -1.165100000e-02 -1.170900000e-02
73900000.0 -9.883000000e-03 -1.099200000e-02
74800000.0 -1.145100000e-02 -1.198800000e-02
75700000.0 -8.226000000e-03 -1.199100000e-02
76600000.0 -8.854000000e-03 -1.216600000e-02
77500000.0 -6.924000000e-03 -1.231900000e-02
78400000.0 -9.004000000e-03 -1.159700000e-02
79300000.0 -8.434000000e-03 -9.705000000e-03
80200000.0 -7.493000000e-03 -1.021000000e-02
81100000.0 -6.747000000e-03 -1.148400000e-02
82000000.0 -7.192000000e-03 -1.337000000e-02
82900000.0 -6.987000000e-03 -1.118400000e-02
83800000.0 -7.568000000e-03 -9.976000000e-03
84700000.0 -7.068000000e-03 -1.053900000e-02
85600000.0 -4.823000000e-03 -1.112700000e-02
86500000.0 -5.860000000e-03 -9.535000000e-03
87400000.0 -5.700000000e-03 -1.033500000e-02
88300000.0 -6.135000000e-03 -1.008300000e-02
89200000.0 -3.404000000e-03 -1.174300000e-02
90100000.0 -5.327000000e-03 -1.016800000e-02
91000000.0 -4.193000000e-03 -1.109400000e-02
91900000.0 -5.485000000e-03 -1.024800000e-02
92800000.0 -5.338000000e-03 -9.641000000e-03
93700000.0 -4.569000000e-03 -8.783000000e-03
94600000.0 -3.961000000e-03 -8.713000000e-03
95500000.0 -3.788000000e-03 -9.557000000e-03
96400000.0 -3.375000000e-03 -9.387000000e-03
97300000.0 -2.719000000e-03 -9.141000000e-03
98200000.0 -2.555000000e-03 -9.372000000e-03
99100000.0 -3.843000000e-03 -8.962000000e-03
100000000.0 -3.331000000e-03 -8.511000000e-03
109000000.0 -1.558000000e-03 -7.619000000e-03
118000000.0 -2.066000000e-03 -5.542000000e-03
127000000.0 -5.880000000e-04 -2.310000000e-03
136000000.0 -4.500000000e-05 -1.941000000e-03
145000000.0 -2.950000000e-04 -7.610000000e-04
154000000.0 -5.890000000e-04 -2.280000000e-04
163000000.0 -9.730000000e-04 6.500000000e-05
172000000.0 -2.700000000e-05 3.780000000e-04
181000000.0 -6.670000000e-04 -2.880000000e-04
190000000.0 -8.400000000e-04 -6.470000000e-04
199000000.0 -5.160000000e-04 -2.170000000e-04
208000000.0 -2.550000000e-04 1.130000000e-04
217000000.0 -5.340000000e-04 3.080000000e-04
226000000.0 -3.380000000e-04 -9.900000000e-05
235000000.0 -5.220000000e-04 -1.300000000e-04
244000000.0 -8.970000000e-04 2.530000000e-04
253000000.0 -5.880000000e-04 3.550000000e-04
262000000.0 -2.230000000e-04 9.800000000e-05
271000000.0 -1.601000000e-03 9.000000000e-05
280000000.0 -7.540000000e-04 1.800000000e-05
289000000.0 -7.880000000e-04 6.060000000e-04
298000000.0 -4.540000000e-04 9.900000000e-05
307000000.0 -1.840000000e-04 3.580000000e-04
316000000.0 -1.138000000e-03 7.800000000e-05
325000000.0 -5.090000000e-04 2.470000000e-04
334000000.0 -7.060000000e-04 5.090000000e-04
343000000.0 -7.680000000e-04 1.430000000e-04
352000000.0 1.821000000e-03 8.000000000e-06
361000000.0 1.100000000e-04 -3.610000000e-04
370000000.0 -6.190000000e-04 4.910000000e-04
379000000.0 -2.870000000e-04 1.195000000e-03
388000000.0 -1.037000000e-03 -2.390000000e-04
397000000.0 -1.097000000e-03 6.510000000e-04
406000000.0 -1.393000000e-03 6.300000000e-05
415000000.0 -6.940000000e-04 3.100000000e-04
424000000.0 -7.770000000e-04 4.070000000e-04
433000000.0 -5.410000000e-04 -1.960000000e-04
442000000.0 -4.850000000e-04 3.890000000e-04
451000000.0 -9.630000000e-04 -9.300000000e-05
460000000.0 -6.580000000e-04 -5.600000000e-05
469000000.0 -1.447000000e-03 8.350000000e-04
478000000.0 -5.810000000e-04 -5.240000000e-04
487000000.0 -1.035000000e-03 3.250000000e-04
496000000.0 -1.349000000e-03 3.530000000e-04
505000000.0 -1.099000000e-03 4.190000000e-04
514000000.0 -1.067000000e-03 7.470000000e-04
523000000.0 -1.232000000e-03 -2.060000000e-04
532000000.0 -1.478000000e-03 8.620000000e-04
541000000.0 -1.446000000e-03 -8.000000000e-06
550000000.0 -1.187000000e-03 -2.690000000e-04
559000000.0 -1.199000000e-03 -1.760000000e-04
568000000.0 -1.501000000e-03 -1.810000000e-04
577000000.0 -2.045000000e-03 -7.080000000e-04
586000000.0 -1.645000000e-03 -9.700000000e-04
595000000.0 -1.242000000e-03 -3.010000000e-04
604000000.0 -1.803000000e-03 6.600000000e-05
613000000.0 -1.273000000e-03 -5.130000000e-04
622000000.0 -1.390000000e-03 -2.600000000e-04
631000000.0 -1.414000000e-03 -3.460000000e-04
640000000.0 -6.640000000e-04 -6.580000000e-04
649000000.0 -1.236000000e-03 -5.730000000e-04
658000000.0 -1.347000000e-03 -4.350000000e-04
667000000.0 -8.160000000e-04 -3.350000000e-04
676000000.0 -1.275000000e-03 -5.160000000e-04
685000000.0 -9.780000000e-04 -8.300000000e-04
694000000.0 -1.052000000e-03 -1.300000000e-04
703000000.0 -9.420000000e-04 -1.600000000e-04
712000000.0 -3.320000000e-04 -6.580000000e-04
721000000.0 -2.870000000e-04 -1.280000000e-04
730000000.0 -3.730000000e-04 -1.690000000e-04
739000000.0 -8.220000000e-04 2.020000000e-04
748000000.0 -1.011000000e-03 -4.750000000e-04
757000000.0 -9.580000000e-04 3.000000000e-06
766000000.0 -6.980000000e-04 -2.300000000e-05
775000000.0 -7.300000000e-04 -4.000000000e-06
784000000.0 -1.249000000e-03 5.030000000e-04
793000000.0 -6.670000000e-04 5.140000000e-04
802000000.0 -7.860000000e-04 1.430000000e-04
811000000.0 -1.128000000e-03 4.810000000e-04
820000000.0 -7.850000000e-04 3.280000000e-04
829000000.0 -1.074000000e-03 1.008000000e-03
838000000.0 -1.305000000e-03 1.061000000e-03
847000000.0 -5.950000000e-04 8.030000000e-04
856000000.0 -7.880000000e-04 8.760000000e-04
865000000.0 -1.810000000e-03 1.068000000e-03
874000000.0 -6.040000000e-04 3.620000000e-04
883000000.0 -1.504000000e-03 6.170000000e-04
892000000.0 -1.061000000e-03 1.840000000e-04
901000000.0 -8.190000000e-04 8.710000000e-04
910000000.0 -1.512000000e-03 5.620000000e-04
919000000.0 -1.212000000e-03 6.780000000e-04
928000000.0 -9.960000000e-04 9.980000000e-04
937000000.0 -1.881000000e-03 4.820000000e-04
946000000.0 -2.263000000e-03 5.140000000e-04
955000000.0 -1.637000000e-03 4.200000000e-04
964000000.0 -1.508000000e-03 6.930000000e-04
973000000.0 -1.975000000e-03 2.830000000e-04
982000000.0 -1.335000000e-03 1.162000000e-03
991000000.0 -9.640000000e-04 1.084000000e-03
1000000000.0 -1.002000000e-03 7.420000000e-04
1004500000.0 -1.081000000e-03 8.750000000e-04
1009000000.0 -1.413000000e-03 1.170000000e-03
1013500000.0 -1.638000000e-03 2.790000000e-04
1018000000.0 -1.366000000e-03 9.050000000e-04
1022500000.0 -1.724000000e-03 5.580000000e-04
1027000000.0 -1.032000000e-03 8.780000000e-04
1031500000.0 -1.387000000e-03 1.084000000e-03
1036000000.0 -1.988000000e-03 1.171000000e-03
1040500000.0 -7.710000000e-04 1.291000000e-03
1045000000.0 -1.314000000e-03 9.340000000e-04
1049500000.0 -1.168000000e-03 1.526000000e-03
1054000000.0 -1.753000000e-03 8.880000000e-04
1058500000.0 -1.804000000e-03 1.540000000e-03
1063000000.0 -1.827000000e-03 9.830000000e-04
1067500000.0 -1.765000000e-03 8.780000000e-04
1072000000.0 -4.530000000e-04 1.167000000e-03
1076500000.0 -1.765000000e-03 1.049000000e-03
1081000000.0 -6.310000000e-04 1.597000000e-03
1085500000.0 -1.528000000e-03 1.616000000e-03
1090000000.0 -1.149000000e-03 1.601000000e-03
1094500000.0 -1.920000000e-03 1.341000000e-03
1099000000.0 -6.400000000e-04 7.420000000e-04
1103500000.0 -2.041000000e-03 9.720000000e-04
1108000000.0 -1.168000000e-03 7.640000000e-04
1112500000.0 -7.830000000e-04 6.070000000e-04
1117000000.0 -5.330000000e-04 1.109000000e-03
1121500000.0 -9.986000000e-03 4.815000000e-03
1126000000.0 -1.318000000e-03 1.150000000e-03
1130500000.0 -6.750000000e-04 1.355000000e-03
1135000000.0 -2.420000000e-04 1.480000000e-03
1139500000.0 -1.057000000e-03 7.300000000e-04
1144000000.0 -1.140000000e-03 6.230000000e-04
1148500000.0 -8.980000000e-04 5.790000000e-04
1153000000.0 -7.620000000e-04 1.068000000e-03
1157500000.0 -1.449000000e-03 6.370000000e-04
1162000000.0 -4.820000000e-04 9.940000000e-04
1166500000.0 -1.073000000e-03 1.354000000e-03
1171000000.0 -1.367000000e-03 9.330000000e-04
1175500000.0 -7.410000000e-04 1.565000000e-03
1180000000.0 -1.585000000e-03 8.820000000e-04
1184500000.0 -1.117000000e-03 8.000000000e-04
1189000000.0 -1.027000000e-03 1.700000000e-03
1193500000.0 -6.830000000e-04 1.026000000e-03
1198000000.0 -9.740000000e-04 1.201000000e-03
1202500000.0 -1.314000000e-03 9.550000000e-04
1207000000.0 -1.433000000e-03 6.620000000e-04
1211500000.0 -8.700000000e-04 8.240000000e-04
1216000000.0 -4.440000000e-04 4.970000000e-04
1220500000.0 -1.168000000e-03 4.120000000e-04
1225000000.0 -1.090000000e-03 1.087000000e-03
1229500000.0 -1.308000000e-03 1.161000000e-03
1234000000.0 -1.825000000e-03 7.600000000e-04
1238500000.0 -1.406000000e-03 2.740000000e-04
1243000000.0 -1.146000000e-03 4.360000000e-04
1247500000.0 -1.877000000e-03 1.143000000e-03
1252000000.0 -1.171000000e-03 1.228000000e-03
1256500000.0 -1.354000000e-03 7.950000000e-04
1261000000.0 -9.880000000e-04 1.021000000e-03
1265500000.0 -1.555000000e-03 4.650000000e-04
1270000000.0 -1.696000000e-03 1.710000000e-04
1274500000.0 -7.040000000e-04 7.010000000e-04
1279000000.0 -2.376000000e-03 6.330000000e-04
1283500000.0 -9.390000000e-04 6.290000000e-04
1288000000.0 -2.252000000e-03 5.410000000e-04
1292500000.0 -1.846000000e-03 9.820000000e-04
1297000000.0 -1.518000000e-03 7.530000000e-04
1301500000.0 1.052000000e-03 4.576000000e-03
1306000000.0 -2.296000000e-03 3.170000000e-04
1310500000.0 -1.088000000e-03 6.090000000e-04
1315000000.0 -1.829000000e-03 -8.810000000e-04
1319500000.0 -1.038000000e-03 7.480000000e-04
1324000000.0 -1.882000000e-03 -9.800000000e-04
1328500000.0 -1.600000000e-03 -8.000000000e-05
1333000000.0 -1.588000000e-03 1.050000000e-04
1337500000.0 -1.476000000e-03 -8.900000000e-04
1342000000.0 -2.121000000e-03 5.630000000e-04
1346500000.0 -2.538000000e-03 -2.350000000e-04
1351000000.0 -1.214000000e-03 -4.700000000e-04
1355500000.0 -1.915000000e-03 -3.050000000e-04
1360000000.0 -1.690000000e-04 2.040000000e-04
1364500000.0 -2.292000000e-03 -1.920000000e-04
1369000000.0 -1.704000000e-03 -2.900000000e-05
1373500000.0 -1.418000000e-03 -3.900000000e-04
1378000000.0 -1.457000000e-03 1.830000000e-04
1382500000.0 -2.561000000e-03 3.220000000e-04
1387000000.0 -1.746000000e-03 -1.213000000e-03
1391500000.0 -2.040000000e-03 -4.290000000e-04
1396000000.0 -8.500000000e-04 3.480000000e-04
1400500000.0 -1.180000000e-03 -9.000000000e-06
1405000000.0 -1.457000000e-03 1.438000000e-03
1409500000.0 -1.679000000e-03 -7.100000000e-05
1414000000.0 -2.146000000e-03 -1.140000000e-04
1418500000.0 -1.454000000e-03 -6.400000000e-05
1423000000.0 -1.077000000e-03 2.990000000e-04
1427500000.0 -1.659000000e-03 5.470000000e-04
1432000000.0 -1.543000000e-03 -4.450000000e-04
1436500000.0 -1.002000000e-03 1.010000000e-03
1441000000.0 -1.522000000e-03 4.660000000e-04
1445500000.0 -1.286000000e-03 1.484000000e-03
1450000000.0 -1.211000000e-03 1.214000000e-03
