! piloto_deriva / corto_deriva / r49
# HZ S RI R 50
50000.0 -9.942090000e-01 -3.620200000e-02
59500.0 -9.957930000e-01 -1.735600000e-02
69000.0 -9.975890000e-01 -5.895000000e-03
78500.0 -9.990240000e-01 -1.070000000e-03
88000.0 -9.998290000e-01 5.310000000e-04
97500.0 -9.984520000e-01 -1.177000000e-03
107000.0 -1.000272000e+00 -2.562000000e-03
116500.0 -1.000060000e+00 -6.565000000e-03
126000.0 -9.997820000e-01 -1.016500000e-02
135500.0 -1.001136000e+00 -1.641000000e-02
145000.0 -9.997510000e-01 -2.259000000e-02
154500.0 -1.000355000e+00 -3.004600000e-02
164000.0 -1.000486000e+00 -3.615300000e-02
173500.0 -9.989310000e-01 -4.528600000e-02
183000.0 -1.000201000e+00 -5.224700000e-02
192500.0 -1.000236000e+00 -6.022600000e-02
202000.0 -9.997410000e-01 -6.886300000e-02
211500.0 -1.000084000e+00 -7.747000000e-02
221000.0 -9.997520000e-01 -8.658300000e-02
230500.0 -1.000771000e+00 -9.542400000e-02
240000.0 -1.002353000e+00 -1.041750000e-01
249500.0 -1.000999000e+00 -1.128380000e-01
259000.0 -1.001118000e+00 -1.226340000e-01
268500.0 -1.001741000e+00 -1.319600000e-01
278000.0 -1.002243000e+00 -1.409960000e-01
287500.0 -1.001562000e+00 -1.501530000e-01
297000.0 -1.001840000e+00 -1.600440000e-01
306500.0 -1.002222000e+00 -1.689040000e-01
316000.0 -1.003099000e+00 -1.782120000e-01
325500.0 -1.002523000e+00 -1.875580000e-01
335000.0 -1.003572000e+00 -1.970340000e-01
344500.0 -1.003015000e+00 -2.068250000e-01
354000.0 -1.003290000e+00 -2.154490000e-01
363500.0 -1.004107000e+00 -2.241320000e-01
373000.0 -1.004781000e+00 -2.343000000e-01
382500.0 -1.003817000e+00 -2.434500000e-01
392000.0 -1.004476000e+00 -2.527150000e-01
401500.0 -1.004639000e+00 -2.622940000e-01
411000.0 -1.005196000e+00 -2.720070000e-01
420500.0 -1.004341000e+00 -2.813090000e-01
430000.0 -1.004750000e+00 -2.899970000e-01
439500.0 -1.005688000e+00 -2.987100000e-01
449000.0 -1.001440000e+00 -3.272220000e-01
458500.0 -1.006489000e+00 -3.176260000e-01
468000.0 -1.005691000e+00 -3.278240000e-01
477500.0 -1.006912000e+00 -3.368140000e-01
487000.0 -1.007540000e+00 -3.457270000e-01
496500.0 -1.006830000e+00 -3.547230000e-01
506000.0 -1.007987000e+00 -3.650690000e-01
515500.0 -1.007221000e+00 -3.734840000e-01
525000.0 -9.954280000e-01 -3.692870000e-01
534500.0 -1.007923000e+00 -3.922240000e-01
544000.0 -1.007482000e+00 -4.010000000e-01
553500.0 -1.008580000e+00 -4.112370000e-01
563000.0 -1.009336000e+00 -4.205670000e-01
572500.0 -1.009260000e+00 -4.285600000e-01
582000.0 -1.009922000e+00 -4.386770000e-01
591500.0 -1.011068000e+00 -4.483320000e-01
601000.0 -1.011997000e+00 -4.565200000e-01
610500.0 -1.011885000e+00 -4.654700000e-01
620000.0 -1.011969000e+00 -4.742310000e-01
629500.0 -1.012510000e+00 -4.846400000e-01
639000.0 -1.013615000e+00 -4.927010000e-01
648500.0 -1.015331000e+00 -5.019250000e-01
658000.0 -1.014152000e+00 -5.110300000e-01
667500.0 -1.015955000e+00 -5.201190000e-01
677000.0 -1.015541000e+00 -5.300680000e-01
686500.0 -1.016522000e+00 -5.378300000e-01
696000.0 -1.017295000e+00 -5.470070000e-01
705500.0 -1.017748000e+00 -5.568270000e-01
715000.0 -1.019328000e+00 -5.654220000e-01
724500.0 -1.019857000e+00 -5.747280000e-01
734000.0 -1.021279000e+00 -5.830980000e-01
743500.0 -1.021060000e+00 -5.921330000e-01
753000.0 -1.021809000e+00 -6.011560000e-01
762500.0 -1.022715000e+00 -6.096840000e-01
772000.0 -1.024787000e+00 -6.194210000e-01
781500.0 -1.026218000e+00 -6.283280000e-01
791000.0 -1.026867000e+00 -6.351830000e-01
800500.0 -1.028445000e+00 -6.456140000e-01
810000.0 -1.029658000e+00 -6.539820000e-01
819500.0 -1.030270000e+00 -6.632790000e-01
829000.0 -1.032496000e+00 -6.720140000e-01
838500.0 -1.034826000e+00 -6.807290000e-01
848000.0 -1.035577000e+00 -6.876980000e-01
857500.0 -1.036530000e+00 -6.974740000e-01
867000.0 -1.039204000e+00 -7.070590000e-01
876500.0 -1.039272000e+00 -7.165240000e-01
886000.0 -1.042872000e+00 -7.235840000e-01
895500.0 -1.044642000e+00 -7.322720000e-01
905000.0 -1.045278000e+00 -7.423810000e-01
914500.0 -1.047945000e+00 -7.505120000e-01
924000.0 -1.048534000e+00 -7.584000000e-01
933500.0 -1.051792000e+00 -7.666930000e-01
943000.0 -1.054439000e+00 -7.755460000e-01
952500.0 -1.056245000e+00 -7.859210000e-01
962000.0 -1.057673000e+00 -7.920450000e-01
971500.0 -1.061018000e+00 -8.003410000e-01
981000.0 -1.062443000e+00 -8.116040000e-01
990500.0 -1.065768000e+00 -8.190850000e-01
1000000.0 -1.069026000e+00 -8.264160000e-01
1090000.0 -1.097470000e+00 -9.031410000e-01
1180000.0 -1.135891000e+00 -9.782020000e-01
1270000.0 -1.183955000e+00 -1.044932000e+00
1360000.0 -1.242056000e+00 -1.105741000e+00
1450000.0 -1.311550000e+00 -1.157677000e+00
1540000.0 -1.387136000e+00 -1.191167000e+00
1630000.0 -1.473962000e+00 -1.210708000e+00
1720000.0 -1.563380000e+00 -1.211994000e+00
1810000.0 -1.653252000e+00 -1.187052000e+00
1900000.0 -1.739462000e+00 -1.139554000e+00
1990000.0 -1.809716000e+00 -1.074212000e+00
2080000.0 -1.861505000e+00 -1.000146000e+00
2170000.0 -1.901381000e+00 -9.134350000e-01
2260000.0 -1.916794000e+00 -8.184330000e-01
2350000.0 -1.916272000e+00 -7.258910000e-01
2440000.0 -1.900146000e+00 -6.406800000e-01
2530000.0 -1.872234000e+00 -5.645740000e-01
2620000.0 -1.837953000e+00 -4.975280000e-01
2710000.0 -1.799196000e+00 -4.333700000e-01
2800000.0 -1.757759000e+00 -3.855530000e-01
2890000.0 -1.714813000e+00 -3.401350000e-01
2980000.0 -1.733436000e+00 -3.463680000e-01
3070000.0 -1.631832000e+00 -2.689240000e-01
3160000.0 -1.591819000e+00 -2.405690000e-01
3250000.0 -1.554713000e+00 -2.126710000e-01
3340000.0 -1.520602000e+00 -1.936000000e-01
3430000.0 -1.486373000e+00 -1.728850000e-01
3520000.0 -1.456519000e+00 -1.541240000e-01
3610000.0 -1.428827000e+00 -1.392350000e-01
3700000.0 -1.402313000e+00 -1.223140000e-01
3790000.0 -1.377454000e+00 -1.084900000e-01
3880000.0 -1.353413000e+00 -9.278300000e-02
3970000.0 -1.332839000e+00 -7.999000000e-02
4060000.0 -1.313689000e+00 -6.743000000e-02
4150000.0 -1.295023000e+00 -5.504100000e-02
4240000.0 -1.278333000e+00 -4.212500000e-02
4330000.0 -1.262020000e+00 -3.073400000e-02
4420000.0 -1.247635000e+00 -1.857800000e-02
4510000.0 -1.234859000e+00 -6.125000000e-03
4600000.0 -1.223743000e+00 2.507000000e-03
4690000.0 -1.212702000e+00 1.499100000e-02
4780000.0 -1.203023000e+00 2.646100000e-02
4870000.0 -1.193824000e+00 3.709300000e-02
4960000.0 -1.186774000e+00 4.726900000e-02
5050000.0 -1.173484000e+00 5.794600000e-02
5140000.0 -1.166646000e+00 6.964800000e-02
5230000.0 -1.161468000e+00 7.999100000e-02
5320000.0 -1.156577000e+00 9.041300000e-02
5410000.0 -1.152570000e+00 1.009420000e-01
5500000.0 -1.146922000e+00 1.109910000e-01
5590000.0 -1.142378000e+00 1.215400000e-01
5680000.0 -1.139282000e+00 1.309660000e-01
5770000.0 -1.136231000e+00 1.402590000e-01
5860000.0 -1.132694000e+00 1.497820000e-01
5950000.0 -1.127428000e+00 1.598310000e-01
6040000.0 -1.125555000e+00 1.685570000e-01
6130000.0 -1.123132000e+00 1.762090000e-01
6220000.0 -1.119163000e+00 1.851620000e-01
6310000.0 -1.118142000e+00 1.927540000e-01
6400000.0 -1.115161000e+00 2.000580000e-01
6490000.0 -1.112010000e+00 2.061700000e-01
6580000.0 -1.110714000e+00 2.130630000e-01
6670000.0 -1.109420000e+00 2.182460000e-01
6760000.0 -1.107434000e+00 2.248330000e-01
6850000.0 -1.105956000e+00 2.282010000e-01
6940000.0 -1.105095000e+00 2.322940000e-01
7030000.0 -1.104257000e+00 2.357880000e-01
7120000.0 -1.109101000e+00 2.200100000e-01
7210000.0 -1.095617000e+00 2.594240000e-01
7300000.0 -1.101272000e+00 2.427910000e-01
7390000.0 -1.102988000e+00 2.433690000e-01
7480000.0 -1.108723000e+00 2.233660000e-01
7570000.0 2.134960000e-01 1.067638000e+00
7660000.0 1.770260000e-01 1.078867000e+00
7750000.0 2.125150000e-01 1.067149000e+00
7840000.0 1.747340000e-01 1.078825000e+00
7930000.0 2.108570000e-01 1.069474000e+00
8020000.0 1.731820000e-01 1.080064000e+00
8110000.0 1.911960000e-01 1.075511000e+00
8200000.0 1.903900000e-01 1.076337000e+00
8290000.0 1.898800000e-01 1.076086000e+00
8380000.0 1.884290000e-01 1.077338000e+00
8470000.0 1.880850000e-01 1.077502000e+00
8560000.0 1.868440000e-01 1.078026000e+00
8650000.0 1.855970000e-01 1.078311000e+00
8740000.0 1.860230000e-01 1.079233000e+00
8830000.0 1.837770000e-01 1.078699000e+00
8920000.0 1.844110000e-01 1.079689000e+00
9010000.0 1.836350000e-01 1.080434000e+00
9100000.0 1.828890000e-01 1.081371000e+00
9190000.0 1.826420000e-01 1.081933000e+00
9280000.0 1.816960000e-01 1.081190000e+00
9370000.0 1.803800000e-01 1.083001000e+00
9460000.0 1.796660000e-01 1.083427000e+00
9550000.0 1.793730000e-01 1.083204000e+00
9640000.0 1.785610000e-01 1.084521000e+00
9730000.0 1.783130000e-01 1.085851000e+00
9820000.0 1.772330000e-01 1.086128000e+00
9910000.0 1.768190000e-01 1.085883000e+00
10000000.0 1.756760000e-01 1.086269000e+00
10900000.0 1.702100000e-01 1.094284000e+00
11800000.0 1.638520000e-01 1.103213000e+00
12700000.0 1.569440000e-01 1.110334000e+00
13600000.0 1.507730000e-01 1.118092000e+00
14500000.0 1.440150000e-01 1.127753000e+00
15400000.0 1.375890000e-01 1.135901000e+00
16300000.0 1.311940000e-01 1.145835000e+00
17200000.0 1.244100000e-01 1.154155000e+00
18100000.0 1.168460000e-01 1.163234000e+00
19000000.0 1.086460000e-01 1.172731000e+00
19900000.0 1.017680000e-01 1.183063000e+00
20800000.0 9.364500000e-02 1.191235000e+00
21700000.0 8.451800000e-02 1.202118000e+00
22600000.0 7.655200000e-02 1.211928000e+00
23500000.0 6.546600000e-02 1.221259000e+00
24400000.0 5.663500000e-02 1.231105000e+00
25300000.0 4.626500000e-02 1.241862000e+00
26200000.0 3.729600000e-02 1.250801000e+00
27100000.0 2.566700000e-02 1.261261000e+00
28000000.0 1.350400000e-02 1.271494000e+00
28900000.0 2.750000000e-03 1.281375000e+00
29800000.0 -9.368000000e-03 1.292458000e+00
30700000.0 -2.208600000e-02 1.301806000e+00
31600000.0 -3.525700000e-02 1.312306000e+00
32500000.0 -4.852600000e-02 1.322527000e+00
33400000.0 -6.205800000e-02 1.332076000e+00
34300000.0 -7.586000000e-02 1.341288000e+00
35200000.0 -9.080400000e-02 1.351186000e+00
36100000.0 -1.055270000e-01 1.360519000e+00
37000000.0 -1.221770000e-01 1.370554000e+00
37900000.0 -1.381590000e-01 1.378947000e+00
38800000.0 -1.549630000e-01 1.387585000e+00
39700000.0 -1.707480000e-01 1.395835000e+00
40600000.0 -1.886290000e-01 1.404549000e+00
41500000.0 -2.074420000e-01 1.413575000e+00
42400000.0 -2.255990000e-01 1.421432000e+00
43300000.0 -2.432610000e-01 1.428628000e+00
44200000.0 -2.627170000e-01 1.435331000e+00
45100000.0 -2.823610000e-01 1.441060000e+00
46000000.0 -3.026210000e-01 1.447417000e+00
46900000.0 -3.233550000e-01 1.453140000e+00
47800000.0 -3.440060000e-01 1.458333000e+00
48700000.0 -3.662070000e-01 1.463226000e+00
49600000.0 -3.865390000e-01 1.468054000e+00
50500000.0 -4.088880000e-01 1.471620000e+00
51400000.0 -4.324200000e-01 1.476207000e+00
52300000.0 -4.533910000e-01 1.477997000e+00
53200000.0 -4.776450000e-01 1.479503000e+00
54100000.0 -4.995040000e-01 1.479727000e+00
55000000.0 -5.233960000e-01 1.481834000e+00
55900000.0 -5.461890000e-01 1.481809000e+00
56800000.0 -5.701140000e-01 1.480599000e+00
57700000.0 -5.952400000e-01 1.478452000e+00
58600000.0 -6.192310000e-01 1.477205000e+00
59500000.0 -6.437500000e-01 1.474756000e+00
60400000.0 -6.681550000e-01 1.471119000e+00
61300000.0 -6.921500000e-01 1.466845000e+00
62200000.0 -7.158570000e-01 1.462134000e+00
63100000.0 -7.407610000e-01 1.457044000e+00
64000000.0 -7.646450000e-01 1.450755000e+00
64900000.0 -7.896580000e-01 1.443931000e+00
65800000.0 -8.133180000e-01 1.435214000e+00
66700000.0 -8.365070000e-01 1.427894000e+00
67600000.0 -8.588200000e-01 1.418480000e+00
68500000.0 -8.837320000e-01 1.408631000e+00
69400000.0 -9.064670000e-01 1.398152000e+00
70300000.0 -9.300480000e-01 1.387329000e+00
71200000.0 -9.524810000e-01 1.374449000e+00
72100000.0 -9.753680000e-01 1.362166000e+00
73000000.0 -9.966120000e-01 1.348132000e+00
73900000.0 -1.018420000e+00 1.334734000e+00
74800000.0 -1.039260000e+00 1.319803000e+00
75700000.0 -1.061556000e+00 1.303634000e+00
76600000.0 -1.083418000e+00 1.287817000e+00
77500000.0 -1.101168000e+00 1.273571000e+00
78400000.0 -1.120921000e+00 1.253847000e+00
79300000.0 -1.138973000e+00 1.238244000e+00
80200000.0 -1.157959000e+00 1.220225000e+00
81100000.0 -1.175190000e+00 1.200628000e+00
82000000.0 -1.193029000e+00 1.181801000e+00
82900000.0 -1.209349000e+00 1.161211000e+00
83800000.0 -1.225457000e+00 1.140261000e+00
84700000.0 -1.239403000e+00 1.121544000e+00
85600000.0 -1.254686000e+00 1.100926000e+00
86500000.0 -1.268254000e+00 1.080608000e+00
87400000.0 -1.282902000e+00 1.059024000e+00
88300000.0 -1.293619000e+00 1.035560000e+00
89200000.0 -1.307835000e+00 1.013297000e+00
90100000.0 -1.317828000e+00 9.908550000e-01
91000000.0 -1.327641000e+00 9.694850000e-01
91900000.0 -1.339630000e+00 9.463980000e-01
92800000.0 -1.347454000e+00 9.233710000e-01
93700000.0 -1.353832000e+00 8.997780000e-01
94600000.0 -1.362393000e+00 8.760160000e-01
95500000.0 -1.368326000e+00 8.521700000e-01
96400000.0 -1.374980000e+00 8.309480000e-01
97300000.0 -1.398038000e+00 7.858950000e-01
98200000.0 -1.364855000e+00 8.045560000e-01
99100000.0 -1.388923000e+00 7.602440000e-01
100000000.0 -1.372263000e+00 7.581160000e-01
109000000.0 -1.385916000e+00 5.189880000e-01
118000000.0 -1.332270000e+00 3.385000000e-01
127000000.0 -1.249400000e+00 2.000400000e-01
136000000.0 -1.135029000e+00 1.003070000e-01
145000000.0 -1.046357000e+00 3.011000000e-02
154000000.0 -1.000121000e+00 -1.497000000e-03
163000000.0 -1.002166000e+00 -4.023000000e-03
172000000.0 -1.004530000e+00 -6.122000000e-03
181000000.0 -1.005911000e+00 -8.197000000e-03
190000000.0 -1.007747000e+00 -8.855000000e-03
199000000.0 -1.007845000e+00 -9.674000000e-03
208000000.0 -1.009469000e+00 -1.146100000e-02
217000000.0 -1.009543000e+00 -1.208400000e-02
226000000.0 -1.010721000e+00 -1.154600000e-02
235000000.0 -1.010718000e+00 -1.244100000e-02
244000000.0 -1.010124000e+00 -1.098800000e-02
253000000.0 -1.008222000e+00 -8.718000000e-03
262000000.0 -1.007456000e+00 -9.064000000e-03
271000000.0 -1.007071000e+00 -6.968000000e-03
280000000.0 -1.004345000e+00 -5.402000000e-03
289000000.0 -1.003259000e+00 -3.855000000e-03
298000000.0 -1.000373000e+00 -8.200000000e-04
307000000.0 -1.000291000e+00 -8.980000000e-04
316000000.0 -1.005620000e+00 -1.315000000e-03
325000000.0 -1.007761000e+00 -1.058000000e-03
334000000.0 -1.009714000e+00 -1.413000000e-03
343000000.0 -1.013229000e+00 -3.338000000e-03
352000000.0 -1.013869000e+00 -3.759000000e-03
361000000.0 -1.014364000e+00 -5.644000000e-03
370000000.0 -1.014978000e+00 -4.588000000e-03
379000000.0 -1.014938000e+00 -2.753000000e-03
388000000.0 -1.014162000e+00 -3.725000000e-03
397000000.0 -1.013728000e+00 -3.955000000e-03
406000000.0 -1.011907000e+00 -4.551000000e-03
415000000.0 -1.010728000e+00 -2.175000000e-03
424000000.0 -1.010882000e+00 -2.184500000e-02
433000000.0 -1.006549000e+00 -3.277000000e-03
442000000.0 -1.003520000e+00 3.500000000e-04
451000000.0 -1.001610000e+00 -3.360000000e-04
460000000.0 -1.003706000e+00 1.200000000e-04
469000000.0 -1.007766000e+00 1.520000000e-04
478000000.0 -1.009991000e+00 1.643000000e-03
487000000.0 -1.013368000e+00 1.547000000e-03
496000000.0 -1.017025000e+00 -1.389500000e-02
505000000.0 -1.014107000e+00 4.102000000e-03
514000000.0 -1.014283000e+00 2.145100000e-02
523000000.0 -1.017689000e+00 3.696000000e-03
532000000.0 -1.016752000e+00 -1.394400000e-02
541000000.0 -1.017577000e+00 3.070000000e-03
550000000.0 -1.011541000e+00 1.875500000e-02
559000000.0 -1.012566000e+00 3.938000000e-03
568000000.0 -1.013820000e+00 -1.534800000e-02
577000000.0 -1.009820000e+00 1.369000000e-03
586000000.0 -1.005479000e+00 3.710000000e-04
595000000.0 -1.004338000e+00 3.704000000e-03
604000000.0 -1.001904000e+00 4.966000000e-03
613000000.0 -1.003769000e+00 2.863000000e-03
622000000.0 -1.003046000e+00 5.802000000e-03
631000000.0 -1.006904000e+00 7.226000000e-03
640000000.0 -1.009340000e+00 1.249000000e-02
649000000.0 -1.013302000e+00 1.170800000e-02
658000000.0 -1.011697000e+00 1.351800000e-02
667000000.0 -1.013887000e+00 1.368100000e-02
676000000.0 -1.010793000e+00 8.497000000e-03
685000000.0 -1.012978000e+00 1.322800000e-02
694000000.0 -1.009013000e+00 1.524300000e-02
703000000.0 -1.006416000e+00 9.054000000e-03
712000000.0 -1.005523000e+00 8.376000000e-03
721000000.0 -1.006351000e+00 8.373000000e-03
730000000.0 -1.005568000e+00 6.103000000e-03
739000000.0 -1.000869000e+00 7.173000000e-03
748000000.0 -9.990150000e-01 1.106000000e-03
757000000.0 -9.978160000e-01 3.348000000e-03
766000000.0 -1.000444000e+00 2.254000000e-03
775000000.0 -9.990280000e-01 1.627000000e-03
784000000.0 -1.000150000e+00 6.354000000e-03
793000000.0 -9.972520000e-01 7.146000000e-03
802000000.0 -9.979910000e-01 8.120000000e-03
811000000.0 -9.967220000e-01 5.047000000e-03
820000000.0 -9.962780000e-01 5.190000000e-03
829000000.0 -9.979270000e-01 8.220000000e-03
838000000.0 -1.000342000e+00 9.526000000e-03
847000000.0 -9.948800000e-01 1.058900000e-02
856000000.0 -1.000599000e+00 4.599000000e-03
865000000.0 -9.970730000e-01 3.260000000e-04
874000000.0 -9.974990000e-01 1.403000000e-03
883000000.0 -9.983160000e-01 1.292000000e-03
892000000.0 -9.995640000e-01 2.970000000e-03
901000000.0 -9.989210000e-01 -2.580000000e-03
910000000.0 -1.001989000e+00 -2.709000000e-03
919000000.0 -1.000060000e+00 -2.352000000e-03
928000000.0 -1.000446000e+00 -4.170000000e-03
937000000.0 -9.982690000e-01 -5.752000000e-03
946000000.0 -1.000457000e+00 -5.706000000e-03
955000000.0 -1.001573000e+00 -8.182000000e-03
964000000.0 -1.002273000e+00 -1.915000000e-03
973000000.0 -1.000440000e+00 -5.774000000e-03
982000000.0 -1.000561000e+00 -4.930000000e-03
991000000.0 -1.003457000e+00 -5.484000000e-03
1000000000.0 -1.001538000e+00 -9.885000000e-03
1004500000.0 -1.003834000e+00 -9.515000000e-03
1009000000.0 -1.002239000e+00 -3.240000000e-03
1013500000.0 -1.001428000e+00 -6.287000000e-03
1018000000.0 -1.001611000e+00 -7.228000000e-03
1022500000.0 -1.000947000e+00 -1.352100000e-02
1027000000.0 -1.001765000e+00 -4.278000000e-03
1031500000.0 -1.001768000e+00 -1.040800000e-02
1036000000.0 -1.000543000e+00 -6.340000000e-03
1040500000.0 -1.001058000e+00 -5.027000000e-03
1045000000.0 -1.002979000e+00 -7.663000000e-03
1049500000.0 -1.001150000e+00 -3.015000000e-03
1054000000.0 -1.005212000e+00 -9.256000000e-03
1058500000.0 -1.002753000e+00 -1.349000000e-03
1063000000.0 -9.994400000e-01 -8.551000000e-03
1067500000.0 -1.006635000e+00 -4.272000000e-03
1072000000.0 -1.007950000e+00 -1.072500000e-02
1076500000.0 -1.003832000e+00 -9.048000000e-03
1081000000.0 -1.004926000e+00 -6.835000000e-03
1085500000.0 -1.003468000e+00 -5.782000000e-03
1090000000.0 -1.006556000e+00 -1.456900000e-02
1094500000.0 -1.001391000e+00 -4.106000000e-03
1099000000.0 -1.001679000e+00 -4.653000000e-03
1103500000.0 -1.001757000e+00 -9.500000000e-03
1108000000.0 -1.008717000e+00 -1.181400000e-02
1112500000.0 -1.008335000e+00 -9.985000000e-03
1117000000.0 -1.004055000e+00 -1.537200000e-02
1121500000.0 -1.006026000e+00 -5.809000000e-03
1126000000.0 -1.003380000e+00 -9.813000000e-03
1130500000.0 -1.011822000e+00 -8.095000000e-03
1135000000.0 -1.007646000e+00 -1.146900000e-02
1139500000.0 -1.004029000e+00 1.373100000e-02
1144000000.0 -1.007690000e+00 -1.512900000e-02
1148500000.0 -1.010914000e+00 -5.199000000e-03
1153000000.0 -1.007018000e+00 -5.363000000e-03
1157500000.0 -1.005818000e+00 -9.659000000e-03
1162000000.0 -1.006711000e+00 -3.175000000e-03
1166500000.0 -1.004549000e+00 -4.182000000e-03
1171000000.0 -1.006477000e+00 -7.001000000e-03
1175500000.0 -1.000623000e+00 -8.281000000e-03
1180000000.0 -1.000253000e+00 -1.021300000e-02
1184500000.0 -1.002606000e+00 -8.650000000e-03
1189000000.0 -1.001695000e+00 -3.346000000e-03
1193500000.0 -9.965850000e-01 3.570000000e-04
1198000000.0 -1.001041000e+00 -8.745000000e-03
1202500000.0 -1.000203000e+00 -1.025500000e-02
1207000000.0 -9.942800000e-01 -2.445000000e-03
1211500000.0 -9.982030000e-01 -7.429000000e-03
1216000000.0 -1.003093000e+00 -6.196000000e-03
1220500000.0 -1.004232000e+00 -3.262000000e-03
1225000000.0 -9.995160000e-01 -2.705000000e-03
1229500000.0 -1.006850000e+00 -8.841000000e-03
1234000000.0 -1.007221000e+00 -7.183000000e-03
1238500000.0 -1.007788000e+00 -1.463800000e-02
1243000000.0 -1.007447000e+00 -6.426000000e-03
1247500000.0 -1.007215000e+00 -1.245900000e-02
1252000000.0 -1.001400000e+00 -1.303100000e-02
1256500000.0 -1.005151000e+00 1.129000000e-03
1261000000.0 -1.006209000e+00 -1.321100000e-02
1265500000.0 -1.002286000e+00 -2.025000000e-03
1270000000.0 -1.003181000e+00 -7.168000000e-03
1274500000.0 -1.011314000e+00 -1.449700000e-02
1279000000.0 -1.005746000e+00 -4.116000000e-03
1283500000.0 -1.006078000e+00 1.485000000e-03
1288000000.0 -1.008672000e+00 -3.617000000e-03
1292500000.0 -1.004485000e+00 -4.765000000e-03
1297000000.0 -1.008453000e+00 -6.053000000e-03
1301500000.0 -1.003874000e+00 -8.675000000e-03
1306000000.0 -1.001574000e+00 -1.499900000e-02
1310500000.0 -9.976740000e-01 -8.670000000e-04
1315000000.0 -1.003021000e+00 -1.302800000e-02
1319500000.0 -9.983480000e-01 -5.320000000e-03
1324000000.0 -9.924560000e-01 -2.993000000e-03
1328500000.0 -1.002875000e+00 -6.062000000e-03
1333000000.0 -9.968570000e-01 -3.951000000e-03
1337500000.0 -9.925000000e-01 -1.835000000e-03
1342000000.0 -9.917740000e-01 -7.554000000e-03
1346500000.0 -9.986730000e-01 -8.231000000e-03
1351000000.0 -9.889600000e-01 -2.785000000e-03
1355500000.0 -9.984880000e-01 -4.570000000e-04
1360000000.0 -9.903530000e-01 -7.024000000e-03
1364500000.0 -9.964410000e-01 -1.362000000e-03
1369000000.0 -1.001332000e+00 -1.847000000e-03
1373500000.0 -1.004976000e+00 4.121000000e-03
1378000000.0 -9.995960000e-01 -5.054000000e-03
1382500000.0 -1.005746000e+00 -6.145000000e-03
1387000000.0 -1.000407000e+00 1.080000000e-03
1391500000.0 -1.003983000e+00 1.505000000e-03
1396000000.0 -1.007732000e+00 -3.130000000e-03
1400500000.0 -1.010146000e+00 -3.560000000e-04
1405000000.0 -1.005157000e+00 -8.161000000e-03
1409500000.0 -1.008735000e+00 -1.010000000e-02
1414000000.0 -1.011663000e+00 -9.966000000e-03
1418500000.0 -1.016015000e+00 -9.341000000e-03
1423000000.0 -1.008205000e+00 -3.648000000e-03
1427500000.0 -1.005215000e+00 -1.395800000e-02
1432000000.0 -1.009867000e+00 -8.232000000e-03
1436500000.0 -1.009776000e+00 -9.034000000e-03
1441000000.0 -1.012819000e+00 -9.968000000e-03
1445500000.0 -1.008517000e+00 -9.614000000e-03
1450000000.0 -1.010337000e+00 -1.286000000e-03
