! piloto_deriva / corto_deriva / r26
# HZ S RI R 50
50000.0 -9.982040000e-01 -3.891500000e-02
59500.0 -9.953660000e-01 -1.797000000e-02
69000.0 -9.976490000e-01 -4.644000000e-03
78500.0 -9.990220000e-01 -1.494000000e-03
88000.0 -1.000027000e+00 1.328000000e-03
97500.0 -9.995420000e-01 -2.640000000e-04
107000.0 -9.996220000e-01 -2.419000000e-03
116500.0 -1.000554000e+00 -6.291000000e-03
126000.0 -9.996330000e-01 -1.140100000e-02
135500.0 -1.001075000e+00 -1.678600000e-02
145000.0 -1.000403000e+00 -2.213100000e-02
154500.0 -9.997060000e-01 -2.897100000e-02
164000.0 -1.000007000e+00 -3.640600000e-02
173500.0 -9.996930000e-01 -4.440300000e-02
183000.0 -9.998540000e-01 -5.263700000e-02
192500.0 -1.000113000e+00 -6.054200000e-02
202000.0 -1.000112000e+00 -6.900900000e-02
211500.0 -1.000606000e+00 -7.699800000e-02
221000.0 -1.001077000e+00 -8.580100000e-02
230500.0 -1.000674000e+00 -9.468400000e-02
240000.0 -9.997150000e-01 -1.039100000e-01
249500.0 -1.000910000e+00 -1.129570000e-01
259000.0 -1.001678000e+00 -1.218890000e-01
268500.0 -1.002009000e+00 -1.312430000e-01
278000.0 -1.001800000e+00 -1.402030000e-01
287500.0 -1.002080000e+00 -1.497540000e-01
297000.0 -1.002052000e+00 -1.593560000e-01
306500.0 -1.001873000e+00 -1.681490000e-01
316000.0 -1.003042000e+00 -1.783650000e-01
325500.0 -1.002755000e+00 -1.872730000e-01
335000.0 -1.002798000e+00 -1.967670000e-01
344500.0 -1.002475000e+00 -2.058850000e-01
354000.0 -1.003397000e+00 -2.148260000e-01
363500.0 -1.004097000e+00 -2.239150000e-01
373000.0 -1.004289000e+00 -2.340440000e-01
382500.0 -1.004740000e+00 -2.429960000e-01
392000.0 -1.004137000e+00 -2.516020000e-01
401500.0 -1.004911000e+00 -2.618740000e-01
411000.0 -1.005066000e+00 -2.711750000e-01
420500.0 -1.005644000e+00 -2.805240000e-01
430000.0 -1.004701000e+00 -2.900590000e-01
439500.0 -1.005766000e+00 -2.997150000e-01
449000.0 -1.005911000e+00 -3.083310000e-01
458500.0 -1.005687000e+00 -3.177210000e-01
468000.0 -1.006685000e+00 -3.270870000e-01
477500.0 -1.006086000e+00 -3.358500000e-01
487000.0 -1.005684000e+00 -3.452810000e-01
496500.0 -1.006718000e+00 -3.551050000e-01
506000.0 -1.007016000e+00 -3.641730000e-01
515500.0 -1.006346000e+00 -3.744270000e-01
525000.0 -1.007320000e+00 -3.827520000e-01
534500.0 -1.008111000e+00 -3.918070000e-01
544000.0 -1.008576000e+00 -4.011070000e-01
553500.0 -1.008453000e+00 -4.106060000e-01
563000.0 -1.009150000e+00 -4.195730000e-01
572500.0 -1.009959000e+00 -4.286950000e-01
582000.0 -1.010544000e+00 -4.378760000e-01
591500.0 -1.010352000e+00 -4.463910000e-01
601000.0 -1.010068000e+00 -4.559150000e-01
610500.0 -1.012323000e+00 -4.647520000e-01
620000.0 -1.012517000e+00 -4.736170000e-01
629500.0 -1.012442000e+00 -4.837310000e-01
639000.0 -1.012754000e+00 -4.930430000e-01
648500.0 -1.013793000e+00 -5.007250000e-01
658000.0 -1.014040000e+00 -5.101440000e-01
667500.0 -1.007262000e+00 -5.391380000e-01
677000.0 -1.014896000e+00 -5.287800000e-01
686500.0 -1.008227000e+00 -5.571910000e-01
696000.0 -1.025443000e+00 -5.277160000e-01
705500.0 -1.009117000e+00 -5.740610000e-01
715000.0 -1.026424000e+00 -5.445750000e-01
724500.0 -1.011017000e+00 -5.924980000e-01
734000.0 -1.028550000e+00 -5.638650000e-01
743500.0 -1.011967000e+00 -6.102790000e-01
753000.0 -1.021888000e+00 -6.003050000e-01
762500.0 -1.022554000e+00 -6.098600000e-01
772000.0 -1.023320000e+00 -6.182850000e-01
781500.0 -1.025568000e+00 -6.264230000e-01
791000.0 -1.026370000e+00 -6.367560000e-01
800500.0 -1.026477000e+00 -6.443200000e-01
810000.0 -1.029037000e+00 -6.528510000e-01
819500.0 -1.029359000e+00 -6.612220000e-01
829000.0 -1.030806000e+00 -6.711740000e-01
838500.0 -1.032483000e+00 -6.793000000e-01
848000.0 -1.034492000e+00 -6.884930000e-01
857500.0 -1.036062000e+00 -6.977990000e-01
867000.0 -1.036730000e+00 -7.053140000e-01
876500.0 -1.038414000e+00 -7.134820000e-01
886000.0 -1.041846000e+00 -7.231070000e-01
895500.0 -1.043186000e+00 -7.318240000e-01
905000.0 -1.045234000e+00 -7.412670000e-01
914500.0 -1.047310000e+00 -7.502100000e-01
924000.0 -1.048425000e+00 -7.582270000e-01
933500.0 -1.051494000e+00 -7.660650000e-01
943000.0 -1.052525000e+00 -7.756110000e-01
952500.0 -1.055725000e+00 -7.820920000e-01
962000.0 -1.057300000e+00 -7.916770000e-01
971500.0 -1.059742000e+00 -8.007490000e-01
981000.0 -1.064182000e+00 -8.076240000e-01
990500.0 -1.064909000e+00 -8.192880000e-01
1000000.0 -1.068693000e+00 -8.263360000e-01
1090000.0 -1.097596000e+00 -9.024640000e-01
1180000.0 -1.135318000e+00 -9.771030000e-01
1270000.0 -1.181783000e+00 -1.046578000e+00
1360000.0 -1.238286000e+00 -1.104906000e+00
1450000.0 -1.307613000e+00 -1.154928000e+00
1540000.0 -1.385973000e+00 -1.192687000e+00
1630000.0 -1.467883000e+00 -1.210797000e+00
1720000.0 -1.560340000e+00 -1.211155000e+00
1810000.0 -1.649713000e+00 -1.187523000e+00
1900000.0 -1.732990000e+00 -1.146387000e+00
1990000.0 -1.807501000e+00 -1.080511000e+00
2080000.0 -1.860810000e+00 -1.000630000e+00
2170000.0 -1.898549000e+00 -9.129710000e-01
2260000.0 -1.917594000e+00 -8.219970000e-01
2350000.0 -1.915715000e+00 -7.296680000e-01
2440000.0 -1.900303000e+00 -6.480220000e-01
2530000.0 -1.876239000e+00 -5.689340000e-01
2620000.0 -1.841463000e+00 -5.003160000e-01
2710000.0 -1.799239000e+00 -4.381620000e-01
2800000.0 -1.759926000e+00 -3.848140000e-01
2890000.0 -1.723162000e+00 -3.798700000e-01
2980000.0 -1.672493000e+00 -3.048730000e-01
3070000.0 -1.633075000e+00 -2.706270000e-01
3160000.0 -1.591936000e+00 -2.407960000e-01
3250000.0 -1.556332000e+00 -2.165650000e-01
3340000.0 -1.520776000e+00 -1.947030000e-01
3430000.0 -1.488791000e+00 -1.715700000e-01
3520000.0 -1.457691000e+00 -1.531600000e-01
3610000.0 -1.430052000e+00 -1.370140000e-01
3700000.0 -1.403561000e+00 -1.222290000e-01
3790000.0 -1.376594000e+00 -1.069200000e-01
3880000.0 -1.352903000e+00 -9.334700000e-02
3970000.0 -1.333934000e+00 -8.019600000e-02
4060000.0 -1.313976000e+00 -6.766600000e-02
4150000.0 -1.295904000e+00 -5.561900000e-02
4240000.0 -1.278936000e+00 -4.293300000e-02
4330000.0 -1.263177000e+00 -3.026600000e-02
4420000.0 -1.249628000e+00 -2.010300000e-02
4510000.0 -1.235561000e+00 -7.103000000e-03
4600000.0 -1.224109000e+00 3.638000000e-03
4690000.0 -1.213502000e+00 1.531000000e-02
4780000.0 -1.204245000e+00 2.608500000e-02
4870000.0 -1.194756000e+00 3.693800000e-02
4960000.0 -1.187791000e+00 4.881700000e-02
5050000.0 -1.173859000e+00 5.903500000e-02
5140000.0 -1.168045000e+00 6.957800000e-02
5230000.0 -1.162763000e+00 7.973800000e-02
5320000.0 -1.156507000e+00 9.063700000e-02
5410000.0 -1.151711000e+00 1.017640000e-01
5500000.0 -1.147666000e+00 1.111310000e-01
5590000.0 -1.143836000e+00 1.214770000e-01
5680000.0 -1.139534000e+00 1.315320000e-01
5770000.0 -1.135425000e+00 1.404840000e-01
5860000.0 -1.132197000e+00 1.501180000e-01
5950000.0 -1.128671000e+00 1.591050000e-01
6040000.0 -1.125455000e+00 1.690720000e-01
6130000.0 -1.121468000e+00 1.770460000e-01
6220000.0 -1.120169000e+00 1.838110000e-01
6310000.0 -1.116785000e+00 1.928190000e-01
6400000.0 -1.114250000e+00 1.996540000e-01
6490000.0 -1.113101000e+00 2.055710000e-01
6580000.0 -1.111816000e+00 2.112770000e-01
6670000.0 -1.110578000e+00 2.194390000e-01
6760000.0 -1.107110000e+00 2.233080000e-01
6850000.0 -1.106593000e+00 2.280080000e-01
6940000.0 -1.104059000e+00 2.332020000e-01
7030000.0 -1.104054000e+00 2.359170000e-01
7120000.0 -1.102727000e+00 2.394880000e-01
7210000.0 -1.102041000e+00 2.403150000e-01
7300000.0 -1.103379000e+00 2.428850000e-01
7390000.0 -1.101366000e+00 2.431300000e-01
7480000.0 -1.101354000e+00 2.426300000e-01
7570000.0 1.949070000e-01 1.074403000e+00
7660000.0 1.946520000e-01 1.073869000e+00
7750000.0 1.941920000e-01 1.073987000e+00
7840000.0 1.939700000e-01 1.074484000e+00
7930000.0 1.928060000e-01 1.074595000e+00
8020000.0 1.923140000e-01 1.075433000e+00
8110000.0 1.916410000e-01 1.075878000e+00
8200000.0 1.908330000e-01 1.075386000e+00
8290000.0 1.889890000e-01 1.077214000e+00
8380000.0 1.881470000e-01 1.075749000e+00
8470000.0 1.889220000e-01 1.076795000e+00
8560000.0 1.873620000e-01 1.078625000e+00
8650000.0 1.861260000e-01 1.078476000e+00
8740000.0 1.866220000e-01 1.078826000e+00
8830000.0 1.857680000e-01 1.080080000e+00
8920000.0 1.836360000e-01 1.079860000e+00
9010000.0 1.834680000e-01 1.081177000e+00
9100000.0 1.822910000e-01 1.081580000e+00
9190000.0 1.818400000e-01 1.081425000e+00
9280000.0 1.821120000e-01 1.081579000e+00
9370000.0 1.613100000e-01 1.090098000e+00
9460000.0 1.808370000e-01 1.083891000e+00
9550000.0 1.801760000e-01 1.084425000e+00
9640000.0 1.788860000e-01 1.084742000e+00
9730000.0 1.773270000e-01 1.085081000e+00
9820000.0 1.763920000e-01 1.085662000e+00
9910000.0 1.764700000e-01 1.086875000e+00
10000000.0 1.764770000e-01 1.087975000e+00
10900000.0 1.694780000e-01 1.094432000e+00
11800000.0 1.643920000e-01 1.102177000e+00
12700000.0 1.569660000e-01 1.109811000e+00
13600000.0 1.501200000e-01 1.118980000e+00
14500000.0 1.442180000e-01 1.126777000e+00
15400000.0 1.379460000e-01 1.135196000e+00
16300000.0 1.316840000e-01 1.143692000e+00
17200000.0 1.236430000e-01 1.154813000e+00
18100000.0 1.169500000e-01 1.163232000e+00
19000000.0 1.086790000e-01 1.172901000e+00
19900000.0 1.016260000e-01 1.181364000e+00
20800000.0 9.384500000e-02 1.192762000e+00
21700000.0 8.401800000e-02 1.200973000e+00
22600000.0 7.577400000e-02 1.212975000e+00
23500000.0 6.680900000e-02 1.221816000e+00
24400000.0 5.728500000e-02 1.231920000e+00
25300000.0 4.744700000e-02 1.241516000e+00
26200000.0 3.670000000e-02 1.252692000e+00
27100000.0 2.536900000e-02 1.262052000e+00
28000000.0 1.376500000e-02 1.271750000e+00
28900000.0 2.082000000e-03 1.282149000e+00
29800000.0 -9.591000000e-03 1.292234000e+00
30700000.0 -2.261200000e-02 1.302580000e+00
31600000.0 -3.551900000e-02 1.311584000e+00
32500000.0 -4.800800000e-02 1.322179000e+00
33400000.0 -6.250600000e-02 1.331651000e+00
34300000.0 -7.588200000e-02 1.341463000e+00
35200000.0 -8.994200000e-02 1.350414000e+00
36100000.0 -1.058370000e-01 1.361368000e+00
37000000.0 -1.220300000e-01 1.370222000e+00
37900000.0 -1.380000000e-01 1.379704000e+00
38800000.0 -1.539600000e-01 1.387739000e+00
39700000.0 -1.700890000e-01 1.396954000e+00
40600000.0 -1.881400000e-01 1.405459000e+00
41500000.0 -2.059630000e-01 1.411858000e+00
42400000.0 -2.258550000e-01 1.420697000e+00
43300000.0 -2.425470000e-01 1.428049000e+00
44200000.0 -2.610910000e-01 1.434335000e+00
45100000.0 -2.828360000e-01 1.440612000e+00
46000000.0 -3.045910000e-01 1.447289000e+00
46900000.0 -3.215110000e-01 1.454584000e+00
47800000.0 -3.434540000e-01 1.459846000e+00
48700000.0 -3.653490000e-01 1.464264000e+00
49600000.0 -3.860330000e-01 1.469105000e+00
50500000.0 -4.087940000e-01 1.470961000e+00
51400000.0 -4.319780000e-01 1.475062000e+00
52300000.0 -4.543840000e-01 1.476919000e+00
53200000.0 -4.758710000e-01 1.479762000e+00
54100000.0 -5.008940000e-01 1.481141000e+00
55000000.0 -5.238250000e-01 1.481879000e+00
55900000.0 -5.465780000e-01 1.482292000e+00
56800000.0 -5.716630000e-01 1.480751000e+00
57700000.0 -5.958860000e-01 1.479292000e+00
58600000.0 -6.197170000e-01 1.478549000e+00
59500000.0 -6.419300000e-01 1.475149000e+00
60400000.0 -6.683650000e-01 1.471767000e+00
61300000.0 -6.917610000e-01 1.467684000e+00
62200000.0 -7.156350000e-01 1.462764000e+00
63100000.0 -7.402350000e-01 1.456924000e+00
64000000.0 -7.636160000e-01 1.450466000e+00
64900000.0 -7.891510000e-01 1.443214000e+00
65800000.0 -8.117780000e-01 1.434770000e+00
66700000.0 -8.367230000e-01 1.426985000e+00
67600000.0 -8.616890000e-01 1.416800000e+00
68500000.0 -8.835530000e-01 1.407857000e+00
69400000.0 -9.075660000e-01 1.398479000e+00
70300000.0 -9.302940000e-01 1.385636000e+00
71200000.0 -9.522300000e-01 1.374533000e+00
72100000.0 -9.741740000e-01 1.362659000e+00
73000000.0 -9.971480000e-01 1.350340000e+00
73900000.0 -1.019692000e+00 1.335291000e+00
74800000.0 -1.040238000e+00 1.319348000e+00
75700000.0 -1.061172000e+00 1.305932000e+00
76600000.0 -1.080702000e+00 1.288340000e+00
77500000.0 -1.102283000e+00 1.271670000e+00
78400000.0 -1.120742000e+00 1.256460000e+00
79300000.0 -1.139771000e+00 1.237937000e+00
80200000.0 -1.157121000e+00 1.219595000e+00
81100000.0 -1.174627000e+00 1.201954000e+00
82000000.0 -1.193550000e+00 1.181090000e+00
82900000.0 -1.208309000e+00 1.160691000e+00
83800000.0 -1.224442000e+00 1.141868000e+00
84700000.0 -1.240686000e+00 1.121555000e+00
85600000.0 -1.255002000e+00 1.100686000e+00
86500000.0 -1.268422000e+00 1.079537000e+00
87400000.0 -1.282897000e+00 1.057768000e+00
88300000.0 -1.295140000e+00 1.036291000e+00
89200000.0 -1.306409000e+00 1.013607000e+00
90100000.0 -1.318213000e+00 9.910270000e-01
91000000.0 -1.328045000e+00 9.700650000e-01
91900000.0 -1.338144000e+00 9.468490000e-01
92800000.0 -1.345488000e+00 9.230940000e-01
93700000.0 -1.354749000e+00 9.000370000e-01
94600000.0 -1.362357000e+00 8.766840000e-01
95500000.0 -1.369175000e+00 8.541540000e-01
96400000.0 -1.374792000e+00 8.319330000e-01
97300000.0 -1.379612000e+00 8.078710000e-01
98200000.0 -1.383746000e+00 7.836540000e-01
99100000.0 -1.388467000e+00 7.605950000e-01
100000000.0 -1.390459000e+00 7.364830000e-01
109000000.0 -1.387034000e+00 5.219170000e-01
118000000.0 -1.331264000e+00 3.393010000e-01
127000000.0 -1.250276000e+00 1.992620000e-01
136000000.0 -1.134416000e+00 9.977200000e-02
145000000.0 -1.046981000e+00 2.978500000e-02
154000000.0 -1.000623000e+00 -6.190000000e-04
163000000.0 -1.001449000e+00 -3.883000000e-03
172000000.0 -1.004894000e+00 -6.852000000e-03
181000000.0 -1.006312000e+00 -7.976000000e-03
190000000.0 -1.008058000e+00 -1.004900000e-02
199000000.0 -1.008740000e+00 -1.052300000e-02
208000000.0 -1.009895000e+00 -1.165500000e-02
217000000.0 -1.009312000e+00 -1.137100000e-02
226000000.0 -1.010605000e+00 -1.151400000e-02
235000000.0 -1.009591000e+00 -1.154000000e-02
244000000.0 -1.009347000e+00 -1.022400000e-02
253000000.0 -1.009024000e+00 -1.005000000e-02
262000000.0 -1.007489000e+00 -8.641000000e-03
271000000.0 -1.006902000e+00 -6.894000000e-03
280000000.0 -1.004645000e+00 -5.805000000e-03
289000000.0 -1.002043000e+00 -3.054000000e-03
298000000.0 -1.000827000e+00 -1.272000000e-03
307000000.0 -1.002538000e+00 2.100000000e-05
316000000.0 -1.004996000e+00 -4.260000000e-04
325000000.0 -1.008463000e+00 -1.577000000e-03
334000000.0 -1.008068000e+00 -1.586000000e-03
343000000.0 -1.012183000e+00 -3.731000000e-03
352000000.0 -1.006452000e+00 3.056700000e-02
361000000.0 -1.013736000e+00 -3.258000000e-03
370000000.0 -1.015065000e+00 -3.264000000e-03
379000000.0 -1.015026000e+00 -5.526000000e-03
388000000.0 -1.022849000e+00 -3.904100000e-02
397000000.0 -1.013683000e+00 -2.198000000e-03
406000000.0 -1.014340000e+00 -2.092400000e-02
415000000.0 -1.018958000e+00 -3.881800000e-02
424000000.0 -1.009261000e+00 -3.123000000e-03
433000000.0 -1.004855000e+00 -1.501000000e-03
442000000.0 -1.002771000e+00 -1.737000000e-03
451000000.0 -1.000256000e+00 8.550000000e-04
460000000.0 -1.004904000e+00 6.440000000e-04
469000000.0 -1.007944000e+00 8.780000000e-04
478000000.0 -1.011102000e+00 1.086000000e-03
487000000.0 -1.012120000e+00 8.720000000e-04
496000000.0 -1.012297000e+00 1.988600000e-02
505000000.0 -1.011876000e+00 2.063100000e-02
514000000.0 -1.017907000e+00 -1.800400000e-02
523000000.0 -1.017689000e+00 4.878000000e-03
532000000.0 -1.016636000e+00 2.971000000e-03
541000000.0 -1.015967000e+00 5.855000000e-03
550000000.0 -1.016273000e+00 -1.738400000e-02
559000000.0 -1.013582000e+00 3.860000000e-03
568000000.0 -1.008056000e+00 2.038200000e-02
577000000.0 -1.009966000e+00 2.075000000e-03
586000000.0 -1.006760000e+00 -1.702200000e-02
595000000.0 -1.001960000e+00 -1.339000000e-03
604000000.0 -9.991520000e-01 4.124000000e-03
613000000.0 -1.001522000e+00 5.260000000e-03
622000000.0 -1.006851000e+00 7.524000000e-03
631000000.0 -1.007738000e+00 6.953000000e-03
640000000.0 -1.008941000e+00 1.078200000e-02
649000000.0 -1.014294000e+00 8.814000000e-03
658000000.0 -1.012406000e+00 1.140700000e-02
667000000.0 -1.010222000e+00 1.481000000e-02
676000000.0 -1.014880000e+00 1.093000000e-02
685000000.0 -1.011065000e+00 1.077500000e-02
694000000.0 -1.010549000e+00 1.069800000e-02
703000000.0 -1.009641000e+00 1.180000000e-02
712000000.0 -1.007950000e+00 8.179000000e-03
721000000.0 -1.008098000e+00 7.492000000e-03
730000000.0 -1.004382000e+00 4.667000000e-03
739000000.0 -1.001618000e+00 6.338000000e-03
748000000.0 -9.974740000e-01 1.793000000e-03
757000000.0 -9.994620000e-01 4.812000000e-03
766000000.0 -9.991870000e-01 5.412000000e-03
775000000.0 -9.990110000e-01 3.496000000e-03
784000000.0 -1.000489000e+00 6.193000000e-03
793000000.0 -1.000916000e+00 6.457000000e-03
802000000.0 -9.990110000e-01 8.122000000e-03
811000000.0 -9.989800000e-01 9.458000000e-03
820000000.0 -9.982750000e-01 4.727000000e-03
829000000.0 -9.989320000e-01 4.514000000e-03
838000000.0 -9.994040000e-01 1.011700000e-02
847000000.0 -9.983700000e-01 7.137000000e-03
856000000.0 -9.988370000e-01 4.114000000e-03
865000000.0 -1.001680000e+00 3.974000000e-03
874000000.0 -9.982220000e-01 1.508000000e-03
883000000.0 -9.984690000e-01 -3.414000000e-03
892000000.0 -9.975570000e-01 2.500000000e-05
901000000.0 -1.001204000e+00 4.510000000e-04
910000000.0 -9.985650000e-01 8.320000000e-04
919000000.0 -1.000875000e+00 -7.219000000e-03
928000000.0 -1.000800000e+00 -4.373000000e-03
937000000.0 -1.002109000e+00 -2.911000000e-03
946000000.0 -1.001207000e+00 -2.152000000e-03
955000000.0 -1.001500000e+00 -4.884000000e-03
964000000.0 -1.002559000e+00 -4.168000000e-03
973000000.0 -1.000401000e+00 -1.063400000e-02
982000000.0 -1.002355000e+00 -1.056300000e-02
991000000.0 -9.984770000e-01 -3.907000000e-03
1000000000.0 -1.001680000e+00 -4.598000000e-03
1004500000.0 -1.003007000e+00 -1.031100000e-02
1009000000.0 -1.003647000e+00 -8.847000000e-03
1013500000.0 -1.001170000e+00 -6.929000000e-03
1018000000.0 -1.000141000e+00 -5.895000000e-03
1022500000.0 -9.983320000e-01 -1.810000000e-03
1027000000.0 -9.989440000e-01 -6.805000000e-03
1031500000.0 -1.002968000e+00 -5.280000000e-03
1036000000.0 -1.000111000e+00 -5.569000000e-03
1040500000.0 -1.000905000e+00 -2.454000000e-03
1045000000.0 -1.000065000e+00 -9.630000000e-03
1049500000.0 -9.987360000e-01 -2.489000000e-03
1054000000.0 -1.000754000e+00 -1.038000000e-02
1058500000.0 -1.002580000e+00 -5.330000000e-04
1063000000.0 -1.003465000e+00 -5.814000000e-03
1067500000.0 -1.002181000e+00 -1.277600000e-02
1072000000.0 -1.001182000e+00 -5.250000000e-03
1076500000.0 -1.005381000e+00 -1.080800000e-02
1081000000.0 -1.003227000e+00 -1.238500000e-02
1085500000.0 -1.007047000e+00 -1.802400000e-02
1090000000.0 -1.005682000e+00 -2.965000000e-03
1094500000.0 -1.006641000e+00 -7.009000000e-03
1099000000.0 -1.008571000e+00 -1.335700000e-02
1103500000.0 -1.005481000e+00 -1.756200000e-02
1108000000.0 -1.007479000e+00 -1.496500000e-02
1112500000.0 -1.007500000e+00 -8.465000000e-03
1117000000.0 -1.004395000e+00 -2.450000000e-03
1121500000.0 -1.009456000e+00 -8.015000000e-03
1126000000.0 -1.010027000e+00 -7.364000000e-03
1130500000.0 -1.013356000e+00 -1.205100000e-02
1135000000.0 -1.004914000e+00 -6.244000000e-03
1139500000.0 -1.008547000e+00 -1.281100000e-02
1144000000.0 -1.007398000e+00 -1.584400000e-02
1148500000.0 -1.005478000e+00 -1.378100000e-02
1153000000.0 -9.785440000e-01 4.031100000e-02
1157500000.0 -1.006139000e+00 -4.321000000e-03
1162000000.0 -1.006026000e+00 -9.561000000e-03
1166500000.0 -1.005697000e+00 -3.969000000e-03
1171000000.0 -1.000597000e+00 -8.502000000e-03
1175500000.0 -9.993020000e-01 -4.378000000e-03
1180000000.0 -9.987970000e-01 -5.032000000e-03
1184500000.0 -9.994530000e-01 -3.072000000e-03
1189000000.0 -1.001203000e+00 -4.879000000e-03
1193500000.0 -9.949070000e-01 -4.528000000e-03
1198000000.0 -9.979680000e-01 -2.587000000e-03
1202500000.0 -9.963470000e-01 -4.622000000e-03
1207000000.0 -9.939720000e-01 -6.030000000e-03
1211500000.0 -9.955880000e-01 -1.801000000e-03
1216000000.0 -9.976080000e-01 -1.406000000e-03
1220500000.0 -1.003695000e+00 -1.104100000e-02
1225000000.0 -1.007137000e+00 3.024000000e-03
1229500000.0 -1.000583000e+00 -3.258000000e-03
1234000000.0 -1.004670000e+00 -7.383000000e-03
1238500000.0 -1.000994000e+00 -7.973000000e-03
1243000000.0 -1.004936000e+00 -7.885000000e-03
1247500000.0 -1.007862000e+00 -1.870000000e-04
1252000000.0 -1.008575000e+00 -3.623000000e-03
1256500000.0 -1.007889000e+00 -4.014000000e-03
1261000000.0 -1.001064000e+00 -3.174000000e-03
1265500000.0 -1.004901000e+00 -1.094000000e-03
1270000000.0 -1.003063000e+00 -1.060200000e-02
1274500000.0 -1.008023000e+00 -1.085200000e-02
1279000000.0 -1.008438000e+00 -1.192800000e-02
1283500000.0 -1.006003000e+00 -3.628000000e-03
1288000000.0 -1.006421000e+00 -1.700100000e-02
1292500000.0 -1.001760000e+00 -6.542000000e-03
1297000000.0 -1.005471000e+00 -3.185000000e-03
1301500000.0 -1.007096000e+00 -4.337700000e-02
1306000000.0 -9.998680000e-01 2.783000000e-03
1310500000.0 -1.001119000e+00 -2.139000000e-03
1315000000.0 -9.999980000e-01 -1.354900000e-02
1319500000.0 -1.002427000e+00 -1.682000000e-03
1324000000.0 -9.929950000e-01 3.661000000e-03
1328500000.0 -9.916700000e-01 -4.870000000e-03
1333000000.0 -9.898580000e-01 -7.540000000e-03
1337500000.0 -9.938670000e-01 2.316000000e-03
1342000000.0 -1.000259000e+00 -1.250000000e-03
1346500000.0 -9.858370000e-01 1.643000000e-03
1351000000.0 -9.953120000e-01 -3.740000000e-03
1355500000.0 -9.907570000e-01 4.292000000e-03
1360000000.0 -9.991700000e-01 -6.148000000e-03
1364500000.0 -1.000684000e+00 1.135000000e-03
1369000000.0 -9.937710000e-01 -1.099000000e-03
1373500000.0 -9.985360000e-01 -5.910000000e-04
1378000000.0 -1.000670000e+00 6.083000000e-03
1382500000.0 -1.006273000e+00 -7.468000000e-03
1387000000.0 -1.002095000e+00 -1.434300000e-02
1391500000.0 -1.006932000e+00 -7.818000000e-03
1396000000.0 -1.002062000e+00 -4.270000000e-04
1400500000.0 -1.008515000e+00 -9.841000000e-03
1405000000.0 -1.003365000e+00 -1.408000000e-03
1409500000.0 -1.012797000e+00 -3.571000000e-03
1414000000.0 -1.009861000e+00 -7.696000000e-03
1418500000.0 -1.011922000e+00 -2.161000000e-03
1423000000.0 -1.005954000e+00 -5.123000000e-03
1427500000.0 -1.007745000e+00 -1.024900000e-02
1432000000.0 -1.012131000e+00 -1.471200000e-02
1436500000.0 -1.008176000e+00 -2.277000000e-03
1441000000.0 -1.009525000e+00 1.810000000e-04
1445500000.0 -1.006650000e+00 -7.378000000e-03
1450000000.0 -1.011779000e+00 -7.929000000e-03
