! piloto_deriva / corto_deriva / r38
# HZ S RI R 50
50000.0 -9.994300000e-01 -3.820500000e-02
59500.0 -9.947250000e-01 -1.875000000e-02
69000.0 -9.990450000e-01 -4.665000000e-03
78500.0 -9.983850000e-01 -1.596000000e-03
88000.0 -9.998590000e-01 7.070000000e-04
97500.0 -9.992810000e-01 -9.800000000e-04
107000.0 -9.999480000e-01 -2.551000000e-03
116500.0 -1.000141000e+00 -5.761000000e-03
126000.0 -1.000729000e+00 -1.118200000e-02
135500.0 -9.993650000e-01 -1.693800000e-02
145000.0 -1.000226000e+00 -2.273400000e-02
154500.0 -1.000341000e+00 -2.960300000e-02
164000.0 -1.000236000e+00 -3.635100000e-02
173500.0 -1.000260000e+00 -4.399700000e-02
183000.0 -1.000624000e+00 -5.170800000e-02
192500.0 -1.000708000e+00 -6.083500000e-02
202000.0 -9.994340000e-01 -6.889700000e-02
211500.0 -1.000395000e+00 -7.782200000e-02
221000.0 -1.000535000e+00 -8.604200000e-02
230500.0 -1.000082000e+00 -9.507400000e-02
240000.0 -1.000786000e+00 -1.043380000e-01
249500.0 -1.018797000e+00 -1.114590000e-01
259000.0 -1.001846000e+00 -1.218040000e-01
268500.0 -1.000809000e+00 -1.316000000e-01
278000.0 -1.002077000e+00 -1.417310000e-01
287500.0 -1.001351000e+00 -1.501380000e-01
297000.0 -1.001650000e+00 -1.595520000e-01
306500.0 -1.002094000e+00 -1.688340000e-01
316000.0 -1.002925000e+00 -1.779330000e-01
325500.0 -1.001929000e+00 -1.879930000e-01
335000.0 -1.002412000e+00 -1.973310000e-01
344500.0 -1.003237000e+00 -2.061570000e-01
354000.0 -1.003134000e+00 -2.150280000e-01
363500.0 -1.003807000e+00 -2.247540000e-01
373000.0 -1.003551000e+00 -2.333170000e-01
382500.0 -1.004191000e+00 -2.434540000e-01
392000.0 -1.004341000e+00 -2.523210000e-01
401500.0 -1.004753000e+00 -2.616430000e-01
411000.0 -1.004312000e+00 -2.712570000e-01
420500.0 -1.004657000e+00 -2.799460000e-01
430000.0 -1.005329000e+00 -2.898820000e-01
439500.0 -1.005800000e+00 -2.992310000e-01
449000.0 -1.005150000e+00 -3.091020000e-01
458500.0 -1.005867000e+00 -3.181480000e-01
468000.0 -1.005717000e+00 -3.272390000e-01
477500.0 -1.005886000e+00 -3.362700000e-01
487000.0 -1.006682000e+00 -3.466550000e-01
496500.0 -1.006297000e+00 -3.555100000e-01
506000.0 -1.006967000e+00 -3.644600000e-01
515500.0 -1.007501000e+00 -3.737180000e-01
525000.0 -1.007625000e+00 -3.819140000e-01
534500.0 -1.007385000e+00 -3.921570000e-01
544000.0 -1.008731000e+00 -4.008450000e-01
553500.0 -1.008237000e+00 -4.100080000e-01
563000.0 -1.008719000e+00 -4.199680000e-01
572500.0 -1.009304000e+00 -4.298160000e-01
582000.0 -1.009641000e+00 -4.383430000e-01
591500.0 -1.010261000e+00 -4.481390000e-01
601000.0 -1.011331000e+00 -4.568300000e-01
610500.0 -1.012383000e+00 -4.649610000e-01
620000.0 -1.011508000e+00 -4.747460000e-01
629500.0 -1.012719000e+00 -4.846570000e-01
639000.0 -1.013150000e+00 -4.924260000e-01
648500.0 -1.012990000e+00 -5.021960000e-01
658000.0 -1.013298000e+00 -5.103410000e-01
667500.0 -1.014545000e+00 -5.196710000e-01
677000.0 -1.016809000e+00 -5.286280000e-01
686500.0 -1.016368000e+00 -5.374350000e-01
696000.0 -1.016636000e+00 -5.469140000e-01
705500.0 -1.017119000e+00 -5.564780000e-01
715000.0 -1.018445000e+00 -5.652460000e-01
724500.0 -1.020282000e+00 -5.746290000e-01
734000.0 -1.020868000e+00 -5.829690000e-01
743500.0 -1.021235000e+00 -5.923500000e-01
753000.0 -1.022453000e+00 -6.003240000e-01
762500.0 -1.024149000e+00 -6.104070000e-01
772000.0 -1.024313000e+00 -6.183280000e-01
781500.0 -1.025427000e+00 -6.269620000e-01
791000.0 -1.026950000e+00 -6.363550000e-01
800500.0 -1.028316000e+00 -6.443040000e-01
810000.0 -1.029322000e+00 -6.552360000e-01
819500.0 -1.030601000e+00 -6.621160000e-01
829000.0 -1.031506000e+00 -6.714550000e-01
838500.0 -1.033309000e+00 -6.795120000e-01
848000.0 -1.034867000e+00 -6.898180000e-01
857500.0 -1.035968000e+00 -6.975590000e-01
867000.0 -1.037700000e+00 -7.046420000e-01
876500.0 -1.039822000e+00 -7.153820000e-01
886000.0 -1.040802000e+00 -7.244720000e-01
895500.0 -1.044086000e+00 -7.319660000e-01
905000.0 -1.045232000e+00 -7.417350000e-01
914500.0 -1.047136000e+00 -7.491340000e-01
924000.0 -1.049034000e+00 -7.589960000e-01
933500.0 -1.051505000e+00 -7.664290000e-01
943000.0 -1.052910000e+00 -7.748840000e-01
952500.0 -1.057245000e+00 -7.821730000e-01
962000.0 -1.056990000e+00 -7.924610000e-01
971500.0 -1.060543000e+00 -8.009250000e-01
981000.0 -1.062020000e+00 -8.112050000e-01
990500.0 -1.064495000e+00 -8.186690000e-01
1000000.0 -1.069123000e+00 -8.278610000e-01
1090000.0 -1.097259000e+00 -9.002350000e-01
1180000.0 -1.134572000e+00 -9.767660000e-01
1270000.0 -1.182549000e+00 -1.045520000e+00
1360000.0 -1.241446000e+00 -1.108161000e+00
1450000.0 -1.307452000e+00 -1.155926000e+00
1540000.0 -1.386699000e+00 -1.193515000e+00
1630000.0 -1.473088000e+00 -1.209838000e+00
1720000.0 -1.563208000e+00 -1.210253000e+00
1810000.0 -1.652303000e+00 -1.187367000e+00
1900000.0 -1.736240000e+00 -1.144165000e+00
1990000.0 -1.806558000e+00 -1.080545000e+00
2080000.0 -1.864362000e+00 -1.000381000e+00
2170000.0 -1.899438000e+00 -9.142720000e-01
2260000.0 -1.916823000e+00 -8.182180000e-01
2350000.0 -1.916471000e+00 -7.277570000e-01
2440000.0 -1.902247000e+00 -6.433130000e-01
2530000.0 -1.874025000e+00 -5.661230000e-01
2620000.0 -1.839680000e+00 -4.967140000e-01
2710000.0 -1.798507000e+00 -4.383050000e-01
2800000.0 -1.757603000e+00 -3.846980000e-01
2890000.0 -1.714667000e+00 -3.393380000e-01
2980000.0 -1.672997000e+00 -3.019610000e-01
3070000.0 -1.632356000e+00 -2.682010000e-01
3160000.0 -1.594739000e+00 -2.402450000e-01
3250000.0 -1.554996000e+00 -2.145590000e-01
3340000.0 -1.520876000e+00 -1.928760000e-01
3430000.0 -1.486625000e+00 -1.715360000e-01
3520000.0 -1.457059000e+00 -1.539070000e-01
3610000.0 -1.429053000e+00 -1.371530000e-01
3700000.0 -1.402058000e+00 -1.219120000e-01
3790000.0 -1.376420000e+00 -1.076740000e-01
3880000.0 -1.354848000e+00 -9.319000000e-02
3970000.0 -1.332583000e+00 -8.066500000e-02
4060000.0 -1.313893000e+00 -6.694500000e-02
4150000.0 -1.294816000e+00 -5.538100000e-02
4240000.0 -1.278384000e+00 -4.269100000e-02
4330000.0 -1.262196000e+00 -3.093500000e-02
4420000.0 -1.248374000e+00 -1.828400000e-02
4510000.0 -1.234263000e+00 -7.403000000e-03
4600000.0 -1.224707000e+00 4.170000000e-03
4690000.0 -1.213452000e+00 1.593000000e-02
4780000.0 -1.203245000e+00 2.473500000e-02
4870000.0 -1.194353000e+00 3.686000000e-02
4960000.0 -1.186251000e+00 4.700300000e-02
5050000.0 -1.173277000e+00 5.802200000e-02
5140000.0 -1.167220000e+00 7.020000000e-02
5230000.0 -1.160360000e+00 7.981500000e-02
5320000.0 -1.157048000e+00 9.018900000e-02
5410000.0 -1.152274000e+00 1.014270000e-01
5500000.0 -1.147150000e+00 1.102710000e-01
5590000.0 -1.142891000e+00 1.216390000e-01
5680000.0 -1.139722000e+00 1.325110000e-01
5770000.0 -1.134726000e+00 1.406700000e-01
5860000.0 -1.131470000e+00 1.504740000e-01
5950000.0 -1.128315000e+00 1.597740000e-01
6040000.0 -1.125238000e+00 1.680630000e-01
6130000.0 -1.121508000e+00 1.768860000e-01
6220000.0 -1.119701000e+00 1.844580000e-01
6310000.0 -1.117623000e+00 1.928810000e-01
6400000.0 -1.115738000e+00 1.997440000e-01
6490000.0 -1.111763000e+00 2.060310000e-01
6580000.0 -1.111086000e+00 2.119630000e-01
6670000.0 -1.108621000e+00 2.183360000e-01
6760000.0 -1.106816000e+00 2.228680000e-01
6850000.0 -1.106357000e+00 2.284040000e-01
6940000.0 -1.103997000e+00 2.328390000e-01
7030000.0 -1.103926000e+00 2.352570000e-01
7120000.0 -1.103971000e+00 2.386310000e-01
7210000.0 -1.102405000e+00 2.404410000e-01
7300000.0 -1.100790000e+00 2.418040000e-01
7390000.0 -1.100551000e+00 2.423530000e-01
7480000.0 -1.102246000e+00 2.417350000e-01
7570000.0 1.961420000e-01 1.073801000e+00
7660000.0 1.958560000e-01 1.073397000e+00
7750000.0 1.950990000e-01 1.075616000e+00
7840000.0 1.925680000e-01 1.075184000e+00
7930000.0 1.923480000e-01 1.074927000e+00
8020000.0 1.915620000e-01 1.074910000e+00
8110000.0 1.903650000e-01 1.075841000e+00
8200000.0 1.906750000e-01 1.075216000e+00
8290000.0 1.898770000e-01 1.076607000e+00
8380000.0 1.891490000e-01 1.076861000e+00
8470000.0 1.878450000e-01 1.077089000e+00
8560000.0 1.876130000e-01 1.077981000e+00
8650000.0 1.859670000e-01 1.078067000e+00
8740000.0 1.858790000e-01 1.079529000e+00
8830000.0 1.854350000e-01 1.079251000e+00
8920000.0 1.844430000e-01 1.078616000e+00
9010000.0 1.823570000e-01 1.079964000e+00
9100000.0 1.826240000e-01 1.081476000e+00
9190000.0 1.826860000e-01 1.081963000e+00
9280000.0 1.813210000e-01 1.082187000e+00
9370000.0 1.809180000e-01 1.083573000e+00
9460000.0 1.798880000e-01 1.084140000e+00
9550000.0 1.795490000e-01 1.083805000e+00
9640000.0 1.779990000e-01 1.084692000e+00
9730000.0 1.785410000e-01 1.083986000e+00
9820000.0 1.774820000e-01 1.085356000e+00
9910000.0 1.778000000e-01 1.086901000e+00
10000000.0 1.767830000e-01 1.087930000e+00
10900000.0 1.692550000e-01 1.094379000e+00
11800000.0 1.636070000e-01 1.102256000e+00
12700000.0 1.565380000e-01 1.109164000e+00
13600000.0 1.511640000e-01 1.117677000e+00
14500000.0 1.440620000e-01 1.126647000e+00
15400000.0 1.372960000e-01 1.136117000e+00
16300000.0 1.303210000e-01 1.145048000e+00
17200000.0 1.245970000e-01 1.154517000e+00
18100000.0 1.164240000e-01 1.162306000e+00
19000000.0 1.093320000e-01 1.172358000e+00
19900000.0 1.020000000e-01 1.182299000e+00
20800000.0 9.294300000e-02 1.192695000e+00
21700000.0 8.435500000e-02 1.202553000e+00
22600000.0 7.556900000e-02 1.211696000e+00
23500000.0 6.616400000e-02 1.222078000e+00
24400000.0 5.640000000e-02 1.230838000e+00
25300000.0 4.789900000e-02 1.241707000e+00
26200000.0 3.587800000e-02 1.251783000e+00
27100000.0 2.505000000e-02 1.261642000e+00
28000000.0 1.521700000e-02 1.272168000e+00
28900000.0 2.624000000e-03 1.282813000e+00
29800000.0 -9.555000000e-03 1.292386000e+00
30700000.0 -2.230100000e-02 1.302540000e+00
31600000.0 -3.406800000e-02 1.312219000e+00
32500000.0 -4.774400000e-02 1.322301000e+00
33400000.0 -6.209500000e-02 1.332214000e+00
34300000.0 -7.672000000e-02 1.341297000e+00
35200000.0 -9.035600000e-02 1.351742000e+00
36100000.0 -1.057840000e-01 1.360515000e+00
37000000.0 -1.226510000e-01 1.369656000e+00
37900000.0 -1.386830000e-01 1.378992000e+00
38800000.0 -1.534620000e-01 1.387759000e+00
39700000.0 -1.712940000e-01 1.397448000e+00
40600000.0 -1.892630000e-01 1.405106000e+00
41500000.0 -2.065320000e-01 1.413959000e+00
42400000.0 -2.255540000e-01 1.420376000e+00
43300000.0 -2.428180000e-01 1.428334000e+00
44200000.0 -2.624320000e-01 1.434986000e+00
45100000.0 -2.826890000e-01 1.440610000e+00
46000000.0 -3.019080000e-01 1.447566000e+00
46900000.0 -3.230620000e-01 1.453221000e+00
47800000.0 -3.447270000e-01 1.459228000e+00
48700000.0 -3.640640000e-01 1.463419000e+00
49600000.0 -3.873540000e-01 1.468578000e+00
50500000.0 -4.080440000e-01 1.471132000e+00
51400000.0 -4.302960000e-01 1.474626000e+00
52300000.0 -4.539820000e-01 1.478442000e+00
53200000.0 -4.786370000e-01 1.480618000e+00
54100000.0 -4.999510000e-01 1.481014000e+00
55000000.0 -5.232930000e-01 1.480973000e+00
55900000.0 -5.468810000e-01 1.481818000e+00
56800000.0 -5.710250000e-01 1.482820000e+00
57700000.0 -5.966150000e-01 1.480884000e+00
58600000.0 -6.182530000e-01 1.478614000e+00
59500000.0 -6.426380000e-01 1.474890000e+00
60400000.0 -6.674810000e-01 1.471759000e+00
61300000.0 -6.913230000e-01 1.467332000e+00
62200000.0 -7.166630000e-01 1.462734000e+00
63100000.0 -7.401120000e-01 1.457673000e+00
64000000.0 -7.650320000e-01 1.451261000e+00
64900000.0 -7.877170000e-01 1.442694000e+00
65800000.0 -8.137670000e-01 1.436795000e+00
66700000.0 -8.374500000e-01 1.427781000e+00
67600000.0 -8.604240000e-01 1.418195000e+00
68500000.0 -8.839860000e-01 1.408200000e+00
69400000.0 -9.069870000e-01 1.397868000e+00
70300000.0 -9.303600000e-01 1.386953000e+00
71200000.0 -9.527420000e-01 1.373969000e+00
72100000.0 -9.746080000e-01 1.361049000e+00
73000000.0 -9.973800000e-01 1.347036000e+00
73900000.0 -1.018071000e+00 1.334254000e+00
74800000.0 -1.039959000e+00 1.319723000e+00
75700000.0 -1.062435000e+00 1.304884000e+00
76600000.0 -1.079561000e+00 1.288554000e+00
77500000.0 -1.100144000e+00 1.272345000e+00
78400000.0 -1.120273000e+00 1.255385000e+00
79300000.0 -1.139242000e+00 1.237454000e+00
80200000.0 -1.157698000e+00 1.218407000e+00
81100000.0 -1.175516000e+00 1.200743000e+00
82000000.0 -1.192542000e+00 1.181288000e+00
82900000.0 -1.208758000e+00 1.162055000e+00
83800000.0 -1.225882000e+00 1.141605000e+00
84700000.0 -1.240823000e+00 1.121728000e+00
85600000.0 -1.254736000e+00 1.100456000e+00
86500000.0 -1.268996000e+00 1.077845000e+00
87400000.0 -1.280883000e+00 1.058768000e+00
88300000.0 -1.295088000e+00 1.036651000e+00
89200000.0 -1.306578000e+00 1.013122000e+00
90100000.0 -1.318853000e+00 9.911270000e-01
91000000.0 -1.328375000e+00 9.684070000e-01
91900000.0 -1.338511000e+00 9.458330000e-01
92800000.0 -1.347636000e+00 9.224690000e-01
93700000.0 -1.354230000e+00 8.987450000e-01
94600000.0 -1.362716000e+00 8.779140000e-01
95500000.0 -1.368627000e+00 8.544890000e-01
96400000.0 -1.374495000e+00 8.312610000e-01
97300000.0 -1.381449000e+00 8.079350000e-01
98200000.0 -1.385685000e+00 7.844710000e-01
99100000.0 -1.388946000e+00 7.603630000e-01
100000000.0 -1.390351000e+00 7.391130000e-01
109000000.0 -1.385672000e+00 5.198220000e-01
118000000.0 -1.328786000e+00 3.389870000e-01
127000000.0 -1.249802000e+00 1.989490000e-01
136000000.0 -1.133887000e+00 9.962800000e-02
145000000.0 -1.046801000e+00 2.988500000e-02
154000000.0 -1.000255000e+00 -6.900000000e-04
163000000.0 -1.001790000e+00 -3.193000000e-03
172000000.0 -1.005351000e+00 -6.377000000e-03
181000000.0 -1.006079000e+00 -8.793000000e-03
190000000.0 -1.007652000e+00 -9.115000000e-03
199000000.0 -1.008244000e+00 -1.008400000e-02
208000000.0 -1.009711000e+00 -1.134000000e-02
217000000.0 -1.009068000e+00 -1.228200000e-02
226000000.0 -1.010252000e+00 -1.112500000e-02
235000000.0 -1.010428000e+00 -1.077600000e-02
244000000.0 -1.009620000e+00 -9.716000000e-03
253000000.0 -1.008829000e+00 -9.664000000e-03
262000000.0 -1.008054000e+00 -8.652000000e-03
271000000.0 -1.006434000e+00 -6.570000000e-03
280000000.0 -1.004096000e+00 -5.541000000e-03
289000000.0 -1.002614000e+00 -3.294000000e-03
298000000.0 -1.000521000e+00 -1.076000000e-03
307000000.0 -1.002444000e+00 -1.589000000e-03
316000000.0 -1.005852000e+00 -1.740000000e-03
325000000.0 -1.007895000e+00 -2.568000000e-03
334000000.0 -1.009863000e+00 -3.504000000e-03
343000000.0 -1.011908000e+00 -2.390000000e-03
352000000.0 -1.013715000e+00 -4.169000000e-03
361000000.0 -1.013862000e+00 -3.618000000e-03
370000000.0 -1.022697000e+00 -3.854600000e-02
379000000.0 -1.015478000e+00 -5.370000000e-03
388000000.0 -1.028252000e+00 -7.529500000e-02
397000000.0 -1.013133000e+00 -3.446000000e-03
406000000.0 -1.011824000e+00 -3.276000000e-03
415000000.0 -1.000853000e+00 3.134600000e-02
424000000.0 -1.007891000e+00 -6.020000000e-04
433000000.0 -1.006350000e+00 -1.931000000e-03
442000000.0 -1.003096000e+00 5.750000000e-04
451000000.0 -1.001326000e+00 2.740000000e-04
460000000.0 -1.004568000e+00 1.441000000e-03
469000000.0 -1.008757000e+00 1.385000000e-03
478000000.0 -1.009771000e+00 2.350000000e-03
487000000.0 -1.011139000e+00 2.417000000e-03
496000000.0 -1.015028000e+00 3.015000000e-03
505000000.0 -1.015073000e+00 2.285000000e-03
514000000.0 -1.017034000e+00 1.405000000e-03
523000000.0 -1.015767000e+00 6.165000000e-03
532000000.0 -1.018545000e+00 1.614000000e-03
541000000.0 -1.014008000e+00 5.151000000e-03
550000000.0 -1.011366000e+00 1.432000000e-03
559000000.0 -1.011011000e+00 2.620000000e-03
568000000.0 -1.010271000e+00 2.224000000e-03
577000000.0 -1.006939000e+00 2.902000000e-03
586000000.0 -1.004551000e+00 -1.310000000e-03
595000000.0 -1.000011000e+00 -9.800000000e-05
604000000.0 -1.000505000e+00 1.527000000e-03
613000000.0 -1.004488000e+00 3.381000000e-03
622000000.0 -1.004561000e+00 6.884000000e-03
631000000.0 -1.008941000e+00 6.283000000e-03
640000000.0 -1.009106000e+00 9.137000000e-03
649000000.0 -1.006064000e+00 1.098600000e-02
658000000.0 -1.010977000e+00 1.049200000e-02
667000000.0 -1.014594000e+00 1.643000000e-02
676000000.0 -1.011202000e+00 1.178400000e-02
685000000.0 -1.006851000e+00 1.272900000e-02
694000000.0 -1.010335000e+00 1.151300000e-02
703000000.0 -1.011338000e+00 1.023200000e-02
712000000.0 -1.007267000e+00 5.253000000e-03
721000000.0 -1.008615000e+00 6.587000000e-03
730000000.0 -1.002077000e+00 6.773000000e-03
739000000.0 -1.004772000e+00 4.720000000e-04
748000000.0 -1.000035000e+00 1.470000000e-03
757000000.0 -9.974590000e-01 4.497000000e-03
766000000.0 -9.987090000e-01 5.292000000e-03
775000000.0 -9.999200000e-01 7.388000000e-03
784000000.0 -9.990610000e-01 1.046500000e-02
793000000.0 -9.985000000e-01 1.272000000e-02
802000000.0 -9.976370000e-01 9.093000000e-03
811000000.0 -9.977000000e-01 9.752000000e-03
820000000.0 -9.979030000e-01 7.544000000e-03
829000000.0 -9.995620000e-01 6.559000000e-03
838000000.0 -9.966700000e-01 5.513000000e-03
847000000.0 -9.978180000e-01 7.829000000e-03
856000000.0 -9.972210000e-01 1.457000000e-03
865000000.0 -9.990200000e-01 4.134000000e-03
874000000.0 -9.996710000e-01 5.706000000e-03
883000000.0 -1.000882000e+00 1.974000000e-03
892000000.0 -1.001326000e+00 -3.215000000e-03
901000000.0 -1.003250000e+00 -4.801000000e-03
910000000.0 -9.978990000e-01 -3.363000000e-03
919000000.0 -9.984990000e-01 -2.358000000e-03
928000000.0 -9.998300000e-01 -8.828000000e-03
937000000.0 -1.001879000e+00 -8.106000000e-03
946000000.0 -9.990060000e-01 -1.428000000e-03
955000000.0 -9.996860000e-01 -3.785000000e-03
964000000.0 -1.002115000e+00 -8.238000000e-03
973000000.0 -1.004153000e+00 -9.763000000e-03
982000000.0 -1.001390000e+00 -8.236000000e-03
991000000.0 -1.001776000e+00 -9.509000000e-03
1000000000.0 -1.000469000e+00 -4.069000000e-03
1004500000.0 -1.001801000e+00 -9.377000000e-03
1009000000.0 -1.002799000e+00 -5.500000000e-03
1013500000.0 -1.001133000e+00 -5.481000000e-03
1018000000.0 -9.992400000e-01 -9.565000000e-03
1022500000.0 -1.001625000e+00 -2.005000000e-03
1027000000.0 -9.984340000e-01 -8.122000000e-03
1031500000.0 -9.999310000e-01 -7.050000000e-03
1036000000.0 -1.000758000e+00 -6.466000000e-03
1040500000.0 -1.002758000e+00 -1.881000000e-03
1045000000.0 -1.000855000e+00 -6.980000000e-03
1049500000.0 -1.001468000e+00 -6.149000000e-03
1054000000.0 -1.004556000e+00 -6.320000000e-03
1058500000.0 -1.003509000e+00 -8.771000000e-03
1063000000.0 -1.002167000e+00 -6.614000000e-03
1067500000.0 -1.005457000e+00 -1.053900000e-02
1072000000.0 -1.001039000e+00 -7.415000000e-03
1076500000.0 -1.007069000e+00 -1.178700000e-02
1081000000.0 -1.004290000e+00 -1.482100000e-02
1085500000.0 -1.006347000e+00 -5.264000000e-03
1090000000.0 -1.008431000e+00 -1.005000000e-02
1094500000.0 -1.009453000e+00 -1.223100000e-02
1099000000.0 -1.008785000e+00 -1.193900000e-02
1103500000.0 -1.005756000e+00 -1.021200000e-02
1108000000.0 -1.009346000e+00 -1.351500000e-02
1112500000.0 -1.007156000e+00 -8.617000000e-03
1117000000.0 -1.003962000e+00 -1.462200000e-02
1121500000.0 -1.005432000e+00 -8.631000000e-03
1126000000.0 -1.009279000e+00 -1.440100000e-02
1130500000.0 -1.008604000e+00 -1.650100000e-02
1135000000.0 -1.015796000e+00 -4.627000000e-02
1139500000.0 -1.006231000e+00 -8.809000000e-03
1144000000.0 -1.004061000e+00 1.107300000e-02
1148500000.0 -1.004911000e+00 -1.787600000e-02
1153000000.0 -1.004806000e+00 1.575300000e-02
1157500000.0 -1.003926000e+00 -3.300000000e-03
1162000000.0 -1.004776000e+00 -1.075900000e-02
1166500000.0 -1.000662000e+00 -6.436000000e-03
1171000000.0 -1.000027000e+00 -7.192000000e-03
1175500000.0 -9.985960000e-01 -1.032000000e-02
1180000000.0 -9.974640000e-01 -2.708000000e-03
1184500000.0 -1.000029000e+00 -5.050000000e-03
1189000000.0 -9.986880000e-01 -7.699000000e-03
1193500000.0 -1.000438000e+00 -1.028300000e-02
1198000000.0 -9.993860000e-01 -5.865000000e-03
1202500000.0 -1.001514000e+00 -3.251000000e-03
1207000000.0 -9.960850000e-01 -8.379000000e-03
1211500000.0 -9.986300000e-01 -3.539000000e-03
1216000000.0 -9.994270000e-01 -5.340000000e-03
1220500000.0 -1.005229000e+00 -1.580000000e-03
1225000000.0 -9.973620000e-01 -5.922000000e-03
1229500000.0 -9.997820000e-01 -5.206000000e-03
1234000000.0 -1.003290000e+00 -3.034000000e-03
1238500000.0 -1.004891000e+00 -5.780000000e-03
1243000000.0 -1.004487000e+00 -4.944000000e-03
1247500000.0 -1.000735000e+00 -5.005000000e-03
1252000000.0 -1.007851000e+00 -7.608000000e-03
1256500000.0 -1.002458000e+00 -3.073000000e-03
1261000000.0 -1.007156000e+00 -8.705000000e-03
1265500000.0 -1.010232000e+00 -8.165000000e-03
1270000000.0 -1.008068000e+00 -6.611000000e-03
1274500000.0 -1.009368000e+00 -6.220000000e-04
1279000000.0 -1.005603000e+00 -1.511000000e-03
1283500000.0 -1.005774000e+00 -4.968000000e-03
1288000000.0 -1.009057000e+00 -5.096000000e-03
1292500000.0 -1.005106000e+00 3.833000000e-03
1297000000.0 -1.010175000e+00 -1.079200000e-02
1301500000.0 -1.003698000e+00 -6.038000000e-03
1306000000.0 -9.983580000e-01 -3.575000000e-03
1310500000.0 -9.985890000e-01 -3.777000000e-03
1315000000.0 -9.949180000e-01 -4.390000000e-04
1319500000.0 -1.001061000e+00 -1.288100000e-02
1324000000.0 -1.001593000e+00 -3.568000000e-03
1328500000.0 -9.950230000e-01 1.905000000e-03
1333000000.0 -9.921000000e-01 3.273000000e-03
1337500000.0 -9.922250000e-01 -3.291000000e-03
1342000000.0 -9.950730000e-01 -7.665000000e-03
1346500000.0 -9.946290000e-01 6.718000000e-03
1351000000.0 -9.902160000e-01 3.130000000e-04
1355500000.0 -9.892530000e-01 1.428200000e-02
1360000000.0 -9.910820000e-01 -3.695000000e-03
1364500000.0 -9.989470000e-01 -2.853000000e-02
1369000000.0 -1.002073000e+00 -4.090000000e-03
1373500000.0 -9.987500000e-01 2.446800000e-02
1378000000.0 -9.964530000e-01 -4.089000000e-03
1382500000.0 -1.004784000e+00 -2.267900000e-02
1387000000.0 -1.003345000e+00 -5.959000000e-03
1391500000.0 -1.001729000e+00 2.223500000e-02
1396000000.0 -1.009646000e+00 -7.666000000e-03
1400500000.0 -1.001177000e+00 3.080000000e-04
1405000000.0 -1.004225000e+00 3.611000000e-03
1409500000.0 -1.009228000e+00 -9.546000000e-03
1414000000.0 -1.010735000e+00 -2.760000000e-03
1418500000.0 -1.005633000e+00 -1.545000000e-03
1423000000.0 -1.019035000e+00 -1.830900000e-02
1427500000.0 -1.012519000e+00 -5.720000000e-04
1432000000.0 -1.010514000e+00 -1.388400000e-02
1436500000.0 -1.012360000e+00 -1.431000000e-03
1441000000.0 -1.013849000e+00 -7.108000000e-03
1445500000.0 -1.007948000e+00 -8.850000000e-04
1450000000.0 -1.009461000e+00 -5.981000000e-03
