! piloto_deriva / corto_deriva / r50
# HZ S RI R 50
50000.0 -9.983530000e-01 -3.832600000e-02
59500.0 -9.981400000e-01 -1.864100000e-02
69000.0 -9.976470000e-01 -7.501000000e-03
78500.0 -9.992720000e-01 -1.603000000e-03
88000.0 -9.990940000e-01 -7.100000000e-05
97500.0 -9.991170000e-01 -2.740000000e-04
107000.0 -9.995690000e-01 -2.707000000e-03
116500.0 -9.996490000e-01 -6.591000000e-03
126000.0 -9.991460000e-01 -1.093900000e-02
135500.0 -1.000308000e+00 -1.664900000e-02
145000.0 -1.000432000e+00 -2.269400000e-02
154500.0 -9.995630000e-01 -2.852100000e-02
164000.0 -1.000482000e+00 -3.691700000e-02
173500.0 -1.000208000e+00 -4.434900000e-02
183000.0 -9.999660000e-01 -5.213300000e-02
192500.0 -9.999530000e-01 -6.101300000e-02
202000.0 -1.000557000e+00 -6.888000000e-02
211500.0 -9.998940000e-01 -7.733600000e-02
221000.0 -1.000121000e+00 -8.618700000e-02
230500.0 -1.000209000e+00 -9.467800000e-02
240000.0 -1.010501000e+00 -2.137000000e-01
249500.0 -1.001222000e+00 -1.130050000e-01
259000.0 -1.001199000e+00 -1.218190000e-01
268500.0 -1.001432000e+00 -1.318190000e-01
278000.0 -1.001536000e+00 -1.407230000e-01
287500.0 -1.001456000e+00 -1.497750000e-01
297000.0 -1.001970000e+00 -1.597680000e-01
306500.0 -1.001807000e+00 -1.687110000e-01
316000.0 -1.001526000e+00 -1.785530000e-01
325500.0 -1.001699000e+00 -1.873540000e-01
335000.0 -1.003267000e+00 -1.959930000e-01
344500.0 -1.002958000e+00 -2.058710000e-01
354000.0 -1.003314000e+00 -2.156620000e-01
363500.0 -1.004128000e+00 -2.249440000e-01
373000.0 -1.003898000e+00 -2.347670000e-01
382500.0 -1.004075000e+00 -2.432180000e-01
392000.0 -1.004459000e+00 -2.525200000e-01
401500.0 -1.004637000e+00 -2.622490000e-01
411000.0 -1.005139000e+00 -2.713160000e-01
420500.0 -1.005213000e+00 -2.805950000e-01
430000.0 -1.005526000e+00 -2.901480000e-01
439500.0 -1.005176000e+00 -2.999310000e-01
449000.0 -1.005564000e+00 -3.094240000e-01
458500.0 -1.005659000e+00 -3.180820000e-01
468000.0 -1.005947000e+00 -3.277320000e-01
477500.0 -1.006806000e+00 -3.373740000e-01
487000.0 -1.006866000e+00 -3.465000000e-01
496500.0 -1.006335000e+00 -3.554740000e-01
506000.0 -1.007127000e+00 -3.638890000e-01
515500.0 -1.007488000e+00 -3.737820000e-01
525000.0 -1.007814000e+00 -3.837120000e-01
534500.0 -1.007130000e+00 -3.922760000e-01
544000.0 -1.008537000e+00 -4.021640000e-01
553500.0 -1.008707000e+00 -4.104340000e-01
563000.0 -1.008940000e+00 -4.201040000e-01
572500.0 -1.009187000e+00 -4.281660000e-01
582000.0 -1.009389000e+00 -4.393200000e-01
591500.0 -1.010280000e+00 -4.467660000e-01
601000.0 -1.010605000e+00 -4.563650000e-01
610500.0 -1.010898000e+00 -4.654150000e-01
620000.0 -9.926200000e-01 -4.798110000e-01
629500.0 -1.012276000e+00 -4.840880000e-01
639000.0 -1.013639000e+00 -4.924200000e-01
648500.0 -1.013916000e+00 -5.014430000e-01
658000.0 -1.014713000e+00 -5.114990000e-01
667500.0 -1.016155000e+00 -5.207410000e-01
677000.0 -1.015716000e+00 -5.290110000e-01
686500.0 -1.015757000e+00 -5.392480000e-01
696000.0 -1.016410000e+00 -5.480130000e-01
705500.0 -1.017502000e+00 -5.566960000e-01
715000.0 -1.019581000e+00 -5.663960000e-01
724500.0 -1.019755000e+00 -5.735350000e-01
734000.0 -1.019970000e+00 -5.833770000e-01
743500.0 -1.021972000e+00 -5.919700000e-01
753000.0 -1.021495000e+00 -6.009680000e-01
762500.0 -1.022889000e+00 -6.108080000e-01
772000.0 -1.024657000e+00 -6.188200000e-01
781500.0 -1.025534000e+00 -6.273820000e-01
791000.0 -1.028611000e+00 -6.376210000e-01
800500.0 -1.028409000e+00 -6.450890000e-01
810000.0 -1.029579000e+00 -6.552630000e-01
819500.0 -1.031272000e+00 -6.626540000e-01
829000.0 -1.033168000e+00 -6.724770000e-01
838500.0 -1.033909000e+00 -6.810180000e-01
848000.0 -1.034989000e+00 -6.893190000e-01
857500.0 -1.036722000e+00 -6.981820000e-01
867000.0 -1.037629000e+00 -7.076320000e-01
876500.0 -1.040232000e+00 -7.159830000e-01
886000.0 -1.041189000e+00 -7.245210000e-01
895500.0 -1.043277000e+00 -7.336240000e-01
905000.0 -1.045925000e+00 -7.409810000e-01
914500.0 -1.048227000e+00 -7.503710000e-01
924000.0 -1.048903000e+00 -7.590900000e-01
933500.0 -1.052315000e+00 -7.681540000e-01
943000.0 -1.054841000e+00 -7.759850000e-01
952500.0 -1.055317000e+00 -7.845560000e-01
962000.0 -1.058517000e+00 -7.945850000e-01
971500.0 -1.061357000e+00 -8.005240000e-01
981000.0 -1.063096000e+00 -8.098520000e-01
990500.0 -1.065825000e+00 -8.182640000e-01
1000000.0 -1.068131000e+00 -8.273490000e-01
1090000.0 -1.098049000e+00 -9.037280000e-01
1180000.0 -1.136816000e+00 -9.783090000e-01
1270000.0 -1.184915000e+00 -1.044494000e+00
1360000.0 -1.242558000e+00 -1.107871000e+00
1450000.0 -1.308906000e+00 -1.157637000e+00
1540000.0 -1.388819000e+00 -1.192577000e+00
1630000.0 -1.475641000e+00 -1.211564000e+00
1720000.0 -1.565273000e+00 -1.209951000e+00
1810000.0 -1.653834000e+00 -1.185991000e+00
1900000.0 -1.740317000e+00 -1.143545000e+00
1990000.0 -1.808847000e+00 -1.078874000e+00
2080000.0 -1.862927000e+00 -1.000272000e+00
2170000.0 -1.901723000e+00 -9.129510000e-01
2260000.0 -1.916896000e+00 -8.168900000e-01
2350000.0 -1.916784000e+00 -7.269960000e-01
2440000.0 -1.899619000e+00 -6.423790000e-01
2530000.0 -1.871649000e+00 -5.644550000e-01
2620000.0 -1.838486000e+00 -4.956990000e-01
2710000.0 -1.801238000e+00 -4.375430000e-01
2800000.0 -1.757477000e+00 -3.831670000e-01
2890000.0 -1.715564000e+00 -3.413340000e-01
2980000.0 -1.670092000e+00 -3.014510000e-01
3070000.0 -1.630053000e+00 -2.678000000e-01
3160000.0 -1.592462000e+00 -2.396610000e-01
3250000.0 -1.556567000e+00 -2.146050000e-01
3340000.0 -1.518433000e+00 -1.914740000e-01
3430000.0 -1.488028000e+00 -1.727580000e-01
3520000.0 -1.458094000e+00 -1.538920000e-01
3610000.0 -1.429169000e+00 -1.381830000e-01
3700000.0 -1.403111000e+00 -1.203220000e-01
3790000.0 -1.377420000e+00 -1.070440000e-01
3880000.0 -1.353406000e+00 -9.312200000e-02
3970000.0 -1.333094000e+00 -7.887900000e-02
4060000.0 -1.313508000e+00 -6.559100000e-02
4150000.0 -1.295545000e+00 -5.411600000e-02
4240000.0 -1.278820000e+00 -4.147500000e-02
4330000.0 -1.262084000e+00 -3.084300000e-02
4420000.0 -1.248394000e+00 -1.885700000e-02
4510000.0 -1.235890000e+00 -6.940000000e-03
4600000.0 -1.223689000e+00 3.449000000e-03
4690000.0 -1.212527000e+00 1.526300000e-02
4780000.0 -1.202483000e+00 2.562900000e-02
4870000.0 -1.195712000e+00 3.614200000e-02
4960000.0 -1.187166000e+00 4.837800000e-02
5050000.0 -1.172566000e+00 5.839200000e-02
5140000.0 -1.166917000e+00 6.942000000e-02
5230000.0 -1.162087000e+00 7.998900000e-02
5320000.0 -1.156788000e+00 9.098100000e-02
5410000.0 -1.153702000e+00 1.015690000e-01
5500000.0 -1.146629000e+00 1.113950000e-01
5590000.0 -1.143489000e+00 1.212180000e-01
5680000.0 -1.139104000e+00 1.316240000e-01
5770000.0 -1.135352000e+00 1.417770000e-01
5860000.0 -1.131258000e+00 1.498390000e-01
5950000.0 -1.127970000e+00 1.588870000e-01
6040000.0 -1.125585000e+00 1.679960000e-01
6130000.0 -1.122362000e+00 1.776860000e-01
6220000.0 -1.119286000e+00 1.856770000e-01
6310000.0 -1.116028000e+00 1.919970000e-01
6400000.0 -1.114703000e+00 2.001600000e-01
6490000.0 -1.112013000e+00 2.065570000e-01
6580000.0 -1.110940000e+00 2.136920000e-01
6670000.0 -1.108320000e+00 2.174700000e-01
6760000.0 -1.106384000e+00 2.245710000e-01
6850000.0 -1.105770000e+00 2.284580000e-01
6940000.0 -1.103817000e+00 2.330710000e-01
7030000.0 -1.103459000e+00 2.355680000e-01
7120000.0 -1.101928000e+00 2.384880000e-01
7210000.0 -1.102383000e+00 2.410360000e-01
7300000.0 -1.102049000e+00 2.413390000e-01
7390000.0 -1.101200000e+00 2.417590000e-01
7480000.0 -1.101841000e+00 2.427710000e-01
7570000.0 1.955320000e-01 1.073464000e+00
7660000.0 1.948240000e-01 1.074174000e+00
7750000.0 1.935170000e-01 1.075020000e+00
7840000.0 1.925020000e-01 1.074851000e+00
7930000.0 1.922180000e-01 1.074859000e+00
8020000.0 1.920210000e-01 1.075040000e+00
8110000.0 1.905010000e-01 1.075788000e+00
8200000.0 1.897910000e-01 1.075462000e+00
8290000.0 1.888700000e-01 1.076328000e+00
8380000.0 1.885910000e-01 1.076911000e+00
8470000.0 1.881710000e-01 1.077442000e+00
8560000.0 1.870590000e-01 1.077501000e+00
8650000.0 1.864530000e-01 1.077605000e+00
8740000.0 1.856580000e-01 1.078766000e+00
8830000.0 1.843980000e-01 1.078881000e+00
8920000.0 1.842790000e-01 1.079713000e+00
9010000.0 1.838710000e-01 1.081392000e+00
9100000.0 1.829130000e-01 1.081664000e+00
9190000.0 1.824450000e-01 1.082443000e+00
9280000.0 1.817960000e-01 1.080976000e+00
9370000.0 1.812620000e-01 1.082791000e+00
9460000.0 1.799560000e-01 1.083147000e+00
9550000.0 1.787230000e-01 1.083526000e+00
9640000.0 1.792160000e-01 1.084696000e+00
9730000.0 1.778580000e-01 1.085774000e+00
9820000.0 1.773870000e-01 1.085914000e+00
9910000.0 1.776280000e-01 1.087031000e+00
10000000.0 1.765470000e-01 1.086990000e+00
10900000.0 1.694790000e-01 1.094696000e+00
11800000.0 1.627170000e-01 1.102131000e+00
12700000.0 1.574200000e-01 1.110101000e+00
13600000.0 1.516510000e-01 1.118253000e+00
14500000.0 1.446850000e-01 1.126487000e+00
15400000.0 1.372920000e-01 1.136077000e+00
16300000.0 1.313350000e-01 1.144986000e+00
17200000.0 1.242120000e-01 1.154318000e+00
18100000.0 1.165270000e-01 1.162834000e+00
19000000.0 1.093570000e-01 1.172508000e+00
19900000.0 1.014330000e-01 1.183348000e+00
20800000.0 9.252600000e-02 1.192002000e+00
21700000.0 8.464700000e-02 1.201529000e+00
22600000.0 7.572900000e-02 1.212403000e+00
23500000.0 6.629500000e-02 1.221115000e+00
24400000.0 5.675800000e-02 1.231356000e+00
25300000.0 4.660900000e-02 1.241802000e+00
26200000.0 3.532100000e-02 1.251980000e+00
27100000.0 2.560000000e-02 1.261859000e+00
28000000.0 1.391400000e-02 1.271534000e+00
28900000.0 2.638000000e-03 1.282295000e+00
29800000.0 -9.585000000e-03 1.292506000e+00
30700000.0 -2.202600000e-02 1.302731000e+00
31600000.0 -3.455700000e-02 1.312873000e+00
32500000.0 -4.858000000e-02 1.322470000e+00
33400000.0 -6.092100000e-02 1.332196000e+00
34300000.0 -7.661300000e-02 1.341409000e+00
35200000.0 -9.077300000e-02 1.351844000e+00
36100000.0 -1.073020000e-01 1.361032000e+00
37000000.0 -1.218850000e-01 1.369804000e+00
37900000.0 -1.375370000e-01 1.378871000e+00
38800000.0 -1.533860000e-01 1.388956000e+00
39700000.0 -1.712800000e-01 1.397059000e+00
40600000.0 -1.882080000e-01 1.404679000e+00
41500000.0 -2.067990000e-01 1.411518000e+00
42400000.0 -2.250260000e-01 1.421503000e+00
43300000.0 -2.425230000e-01 1.428799000e+00
44200000.0 -2.629980000e-01 1.435795000e+00
45100000.0 -2.820570000e-01 1.441431000e+00
46000000.0 -3.020340000e-01 1.449027000e+00
46900000.0 -3.229710000e-01 1.453823000e+00
47800000.0 -3.444520000e-01 1.458213000e+00
48700000.0 -3.658960000e-01 1.463960000e+00
49600000.0 -3.871240000e-01 1.467731000e+00
50500000.0 -4.089580000e-01 1.470876000e+00
51400000.0 -4.308830000e-01 1.473992000e+00
52300000.0 -4.531740000e-01 1.477777000e+00
53200000.0 -4.761590000e-01 1.479118000e+00
54100000.0 -4.998120000e-01 1.480132000e+00
55000000.0 -5.224170000e-01 1.481445000e+00
55900000.0 -5.459210000e-01 1.482227000e+00
56800000.0 -5.713470000e-01 1.481206000e+00
57700000.0 -5.961130000e-01 1.479685000e+00
58600000.0 -6.202000000e-01 1.477915000e+00
59500000.0 -6.423200000e-01 1.475237000e+00
60400000.0 -6.666520000e-01 1.471558000e+00
61300000.0 -6.931170000e-01 1.467207000e+00
62200000.0 -7.169220000e-01 1.462297000e+00
63100000.0 -7.396140000e-01 1.456930000e+00
64000000.0 -7.638990000e-01 1.449885000e+00
64900000.0 -7.894740000e-01 1.443401000e+00
65800000.0 -8.120700000e-01 1.435025000e+00
66700000.0 -8.362170000e-01 1.426346000e+00
67600000.0 -8.615230000e-01 1.417583000e+00
68500000.0 -8.840620000e-01 1.408383000e+00
69400000.0 -9.091020000e-01 1.397162000e+00
70300000.0 -9.290580000e-01 1.386506000e+00
71200000.0 -9.529100000e-01 1.374243000e+00
72100000.0 -9.752590000e-01 1.361564000e+00
73000000.0 -9.972620000e-01 1.348248000e+00
73900000.0 -1.018592000e+00 1.334863000e+00
74800000.0 -1.039154000e+00 1.319493000e+00
75700000.0 -1.059661000e+00 1.304463000e+00
76600000.0 -1.082013000e+00 1.290076000e+00
77500000.0 -1.101530000e+00 1.272445000e+00
78400000.0 -1.120322000e+00 1.255372000e+00
79300000.0 -1.139653000e+00 1.237550000e+00
80200000.0 -1.158191000e+00 1.219154000e+00
81100000.0 -1.175706000e+00 1.199474000e+00
82000000.0 -1.191775000e+00 1.182021000e+00
82900000.0 -1.208889000e+00 1.162371000e+00
83800000.0 -1.224233000e+00 1.142707000e+00
84700000.0 -1.239984000e+00 1.121035000e+00
85600000.0 -1.255312000e+00 1.100491000e+00
86500000.0 -1.268373000e+00 1.080541000e+00
87400000.0 -1.281812000e+00 1.057750000e+00
88300000.0 -1.295965000e+00 1.038253000e+00
89200000.0 -1.306535000e+00 1.014017000e+00
90100000.0 -1.318121000e+00 9.903700000e-01
91000000.0 -1.327732000e+00 9.682930000e-01
91900000.0 -1.338888000e+00 9.442460000e-01
92800000.0 -1.347575000e+00 9.241730000e-01
93700000.0 -1.354228000e+00 8.998500000e-01
94600000.0 -1.362323000e+00 8.779770000e-01
95500000.0 -1.369618000e+00 8.521110000e-01
96400000.0 -1.375553000e+00 8.304500000e-01
97300000.0 -1.381080000e+00 8.048800000e-01
98200000.0 -1.384233000e+00 7.833370000e-01
99100000.0 -1.388433000e+00 7.606620000e-01
100000000.0 -1.390470000e+00 7.373220000e-01
109000000.0 -1.384921000e+00 5.194360000e-01
118000000.0 -1.330985000e+00 3.399070000e-01
127000000.0 -1.250154000e+00 1.990080000e-01
136000000.0 -1.133972000e+00 9.943700000e-02
145000000.0 -1.046651000e+00 3.018900000e-02
154000000.0 -1.000666000e+00 -1.603000000e-03
163000000.0 -1.002224000e+00 -3.932000000e-03
172000000.0 -1.004248000e+00 -5.968000000e-03
181000000.0 -1.005393000e+00 -7.759000000e-03
190000000.0 -1.006817000e+00 -9.250000000e-03
199000000.0 -1.009241000e+00 -1.007100000e-02
208000000.0 -1.009809000e+00 -1.109100000e-02
217000000.0 -1.010242000e+00 -1.130800000e-02
226000000.0 -1.010024000e+00 -1.215400000e-02
235000000.0 -1.010378000e+00 -1.116000000e-02
244000000.0 -1.009921000e+00 -1.089000000e-02
253000000.0 -1.008606000e+00 -1.072000000e-02
262000000.0 -1.008306000e+00 -7.711000000e-03
271000000.0 -1.006761000e+00 -8.240000000e-03
280000000.0 -1.005234000e+00 -6.544000000e-03
289000000.0 -1.002992000e+00 -3.633000000e-03
298000000.0 -1.000739000e+00 -2.700000000e-04
307000000.0 -1.003966000e+00 4.680000000e-04
316000000.0 -1.005413000e+00 -1.325000000e-03
325000000.0 -1.008376000e+00 -2.668000000e-03
334000000.0 -1.008747000e+00 -1.383000000e-03
343000000.0 -1.011101000e+00 -2.510000000e-03
352000000.0 -1.011333000e+00 -2.153000000e-03
361000000.0 -1.022337000e+00 -3.908200000e-02
370000000.0 -9.943550000e-01 4.445700000e-02
379000000.0 -1.015613000e+00 -5.321000000e-03
388000000.0 -1.004637000e+00 2.950500000e-02
397000000.0 -1.013647000e+00 -3.202000000e-03
406000000.0 -1.012269000e+00 -3.197000000e-03
415000000.0 -1.010751000e+00 -3.501000000e-03
424000000.0 -1.008385000e+00 -2.618000000e-03
433000000.0 -1.007047000e+00 -3.434000000e-03
442000000.0 -1.003254000e+00 -2.003000000e-03
451000000.0 -1.000201000e+00 3.000000000e-05
460000000.0 -1.004496000e+00 -3.990000000e-04
469000000.0 -1.007571000e+00 -4.700000000e-05
478000000.0 -1.010306000e+00 1.173000000e-03
487000000.0 -1.013088000e+00 2.828000000e-03
496000000.0 -1.015245000e+00 3.909000000e-03
505000000.0 -1.015214000e+00 2.751000000e-03
514000000.0 -1.016344000e+00 4.469000000e-03
523000000.0 -1.018590000e+00 2.337000000e-03
532000000.0 -1.017002000e+00 3.990000000e-03
541000000.0 -1.015399000e+00 4.596000000e-03
550000000.0 -1.015642000e+00 2.198000000e-03
559000000.0 -1.014156000e+00 3.514000000e-03
568000000.0 -1.010966000e+00 7.450000000e-04
577000000.0 -1.007971000e+00 2.317000000e-03
586000000.0 -1.004029000e+00 1.830700000e-02
595000000.0 -1.004709000e+00 4.990000000e-04
604000000.0 -1.004539000e+00 -1.449000000e-02
613000000.0 -1.004816000e+00 3.992000000e-03
622000000.0 -1.004372000e+00 2.513900000e-02
631000000.0 -1.006083000e+00 7.116000000e-03
640000000.0 -1.010071000e+00 -5.268000000e-03
649000000.0 -1.011752000e+00 1.141900000e-02
658000000.0 -1.009120000e+00 2.956400000e-02
667000000.0 -1.010898000e+00 1.021700000e-02
676000000.0 -1.015155000e+00 -2.561000000e-03
685000000.0 -1.009933000e+00 1.430600000e-02
694000000.0 -1.010667000e+00 1.541300000e-02
703000000.0 -1.006801000e+00 7.875000000e-03
712000000.0 -1.006737000e+00 7.177000000e-03
721000000.0 -1.007503000e+00 4.897000000e-03
730000000.0 -1.005796000e+00 5.051000000e-03
739000000.0 -1.002387000e+00 8.129000000e-03
748000000.0 -9.999110000e-01 2.381000000e-03
757000000.0 -9.996290000e-01 2.160000000e-03
766000000.0 -9.997240000e-01 5.395000000e-03
775000000.0 -9.977520000e-01 7.468000000e-03
784000000.0 -9.969820000e-01 5.727000000e-03
793000000.0 -9.988390000e-01 5.595000000e-03
802000000.0 -9.978150000e-01 5.248000000e-03
811000000.0 -9.966850000e-01 8.076000000e-03
820000000.0 -9.987640000e-01 7.945000000e-03
829000000.0 -9.971760000e-01 9.705000000e-03
838000000.0 -9.997570000e-01 8.908000000e-03
847000000.0 -1.000586000e+00 7.857000000e-03
856000000.0 -9.984830000e-01 2.774000000e-03
865000000.0 -9.990600000e-01 1.139000000e-03
874000000.0 -9.976040000e-01 -1.313000000e-03
883000000.0 -9.999940000e-01 -1.504000000e-03
892000000.0 -9.973640000e-01 -2.778000000e-03
901000000.0 -9.982580000e-01 4.810000000e-04
910000000.0 -1.002140000e+00 -4.220000000e-04
919000000.0 -9.998200000e-01 -4.265000000e-03
928000000.0 -9.999100000e-01 -6.458000000e-03
937000000.0 -1.000998000e+00 -2.526000000e-03
946000000.0 -9.989020000e-01 -9.710000000e-03
955000000.0 -9.983680000e-01 -5.198000000e-03
964000000.0 -1.000898000e+00 -4.196000000e-03
973000000.0 -9.999450000e-01 -5.161000000e-03
982000000.0 -1.002703000e+00 -1.238600000e-02
991000000.0 -1.002258000e+00 -6.312000000e-03
1000000000.0 -1.001181000e+00 -5.145000000e-03
1004500000.0 -1.001127000e+00 -1.168200000e-02
1009000000.0 -9.992600000e-01 1.191600000e-02
1013500000.0 -1.001624000e+00 -6.647000000e-03
1018000000.0 -1.007101000e+00 -2.894000000e-02
1022500000.0 -1.000352000e+00 -5.988000000e-03
1027000000.0 -1.001444000e+00 5.508000000e-03
1031500000.0 -9.993570000e-01 -5.252000000e-03
1036000000.0 -1.003056000e+00 -2.572300000e-02
1040500000.0 -1.002302000e+00 -5.999000000e-03
1045000000.0 -1.001766000e+00 -5.806000000e-03
1049500000.0 -1.000006000e+00 -2.633000000e-03
1054000000.0 -1.001016000e+00 -6.090000000e-03
1058500000.0 -1.004003000e+00 -8.017000000e-03
1063000000.0 -9.993230000e-01 -4.888000000e-03
1067500000.0 -1.003974000e+00 -7.013000000e-03
1072000000.0 -1.004814000e+00 -1.264100000e-02
1076500000.0 -1.006109000e+00 -4.779000000e-03
1081000000.0 -1.005764000e+00 -4.701000000e-03
1085500000.0 -1.008524000e+00 -1.732300000e-02
1090000000.0 -1.006717000e+00 -1.229900000e-02
1094500000.0 -1.007474000e+00 -1.719900000e-02
1099000000.0 -1.010105000e+00 -8.448000000e-03
1103500000.0 -1.006927000e+00 -1.977000000e-03
1108000000.0 -1.008518000e+00 -7.492000000e-03
1112500000.0 -1.007278000e+00 -1.055400000e-02
1117000000.0 -1.002344000e+00 -1.399900000e-02
1121500000.0 -1.005122000e+00 -6.474000000e-03
1126000000.0 -1.009841000e+00 -6.409000000e-03
1130500000.0 -1.004577000e+00 -1.339100000e-02
1135000000.0 -1.005640000e+00 -7.404000000e-03
1139500000.0 -1.007507000e+00 -1.533400000e-02
1144000000.0 -1.008147000e+00 -1.286600000e-02
1148500000.0 -1.002892000e+00 -4.465000000e-03
1153000000.0 -1.001460000e+00 -3.093000000e-03
1157500000.0 -1.001254000e+00 -5.246000000e-03
1162000000.0 -1.004395000e+00 -5.897000000e-03
1166500000.0 -1.007980000e+00 -7.927000000e-03
1171000000.0 -1.003437000e+00 -5.249000000e-03
1175500000.0 -1.000723000e+00 -1.101500000e-02
1180000000.0 -1.000640000e+00 4.950000000e-04
1184500000.0 -1.000954000e+00 -1.656000000e-03
1189000000.0 -1.000818000e+00 -5.978000000e-03
1193500000.0 -9.974960000e-01 -5.924000000e-03
1198000000.0 -9.934360000e-01 1.790000000e-03
1202500000.0 -9.966230000e-01 2.385000000e-03
1207000000.0 -9.958760000e-01 -5.340000000e-03
1211500000.0 -9.976440000e-01 -6.159000000e-03
1216000000.0 -1.000898000e+00 -6.292000000e-03
1220500000.0 -1.000996000e+00 -5.474000000e-03
1225000000.0 -9.971100000e-01 2.144000000e-03
1229500000.0 -1.003684000e+00 -1.400100000e-02
1234000000.0 -1.004002000e+00 -6.582000000e-03
1238500000.0 -1.003575000e+00 2.598000000e-03
1243000000.0 -1.007198000e+00 -7.911000000e-03
1247500000.0 -1.006112000e+00 -6.268000000e-03
1252000000.0 -1.000165000e+00 -1.056900000e-02
1256500000.0 -1.001704000e+00 -2.028000000e-03
1261000000.0 -1.008187000e+00 -8.073000000e-03
1265500000.0 -1.011491000e+00 1.271000000e-03
1270000000.0 -1.006261000e+00 -7.283000000e-03
1274500000.0 -1.005850000e+00 -7.031000000e-03
1279000000.0 -1.006197000e+00 -5.194000000e-03
1283500000.0 -1.000708000e+00 -3.432000000e-03
1288000000.0 -1.004223000e+00 6.520000000e-04
1292500000.0 -1.009058000e+00 -1.381800000e-02
1297000000.0 -1.006388000e+00 -1.841700000e-02
1301500000.0 -1.003302000e+00 -5.656000000e-03
1306000000.0 -1.004142000e+00 -1.180200000e-02
1310500000.0 -1.000354000e+00 -3.016000000e-03
1315000000.0 -1.004276000e+00 -7.145000000e-03
1319500000.0 -1.001626000e+00 -4.658000000e-03
1324000000.0 -9.991350000e-01 1.025000000e-03
1328500000.0 -9.918080000e-01 1.658000000e-03
1333000000.0 -9.920640000e-01 -8.047000000e-03
1337500000.0 -9.895270000e-01 -5.651000000e-03
1342000000.0 -9.962900000e-01 -4.375000000e-03
1346500000.0 -9.980560000e-01 -5.757000000e-03
1351000000.0 -9.881760000e-01 -3.577000000e-03
1355500000.0 -9.900250000e-01 -6.037000000e-03
1360000000.0 -9.924730000e-01 -3.640000000e-04
1364500000.0 -9.985760000e-01 -4.852000000e-03
1369000000.0 -9.989750000e-01 -1.340000000e-02
1373500000.0 -1.000923000e+00 -1.097000000e-02
1378000000.0 -1.002035000e+00 -6.577000000e-03
1382500000.0 -1.001827000e+00 -3.660000000e-03
1387000000.0 -1.002594000e+00 -1.824000000e-03
1391500000.0 -1.003614000e+00 5.159000000e-03
1396000000.0 -1.011903000e+00 -6.866000000e-03
1400500000.0 -1.010322000e+00 1.071000000e-03
1405000000.0 -1.008514000e+00 -5.637000000e-03
1409500000.0 -1.003672000e+00 -7.260000000e-03
1414000000.0 -1.006002000e+00 -4.142000000e-03
1418500000.0 -1.006561000e+00 -6.040000000e-03
1423000000.0 -1.001009000e+00 1.757000000e-03
1427500000.0 -1.006278000e+00 -8.569000000e-03
1432000000.0 -1.010332000e+00 -1.634000000e-03
1436500000.0 -1.010898000e+00 -3.775000000e-03
1441000000.0 -1.009750000e+00 6.926000000e-03
1445500000.0 -1.012348000e+00 -3.088000000e-03
1450000000.0 -1.010776000e+00 -7.478000000e-03
