! piloto_deriva / corto_deriva / r22
# HZ S RI R 50
50000.0 -9.985830000e-01 -3.787600000e-02
59500.0 -9.943030000e-01 -1.779000000e-02
69000.0 -9.981410000e-01 -7.505000000e-03
78500.0 -9.988140000e-01 -1.792000000e-03
88000.0 -9.993560000e-01 -3.250000000e-04
97500.0 -1.000147000e+00 6.020000000e-04
107000.0 -1.000551000e+00 -2.362000000e-03
116500.0 -9.992630000e-01 -6.491000000e-03
126000.0 -1.001548000e+00 -1.087300000e-02
135500.0 -1.000174000e+00 -1.619200000e-02
145000.0 -9.991740000e-01 -2.254400000e-02
154500.0 -1.000273000e+00 -3.000100000e-02
164000.0 -9.995120000e-01 -3.638500000e-02
173500.0 -9.999090000e-01 -4.377900000e-02
183000.0 -1.000652000e+00 -5.204400000e-02
192500.0 -1.000299000e+00 -6.003300000e-02
202000.0 -1.000003000e+00 -6.829800000e-02
211500.0 -1.000961000e+00 -7.789300000e-02
221000.0 -1.000547000e+00 -8.578400000e-02
230500.0 -1.000343000e+00 -9.514100000e-02
240000.0 -1.000311000e+00 -1.045320000e-01
249500.0 -1.001146000e+00 -1.126800000e-01
259000.0 -1.001406000e+00 -1.221000000e-01
268500.0 -1.001176000e+00 -1.316500000e-01
278000.0 -1.001761000e+00 -1.403260000e-01
287500.0 -1.001451000e+00 -1.500220000e-01
297000.0 -1.002151000e+00 -1.599330000e-01
306500.0 -1.001535000e+00 -1.687570000e-01
316000.0 -1.001739000e+00 -1.785070000e-01
325500.0 -1.002268000e+00 -1.876710000e-01
335000.0 -1.002460000e+00 -1.963150000e-01
344500.0 -1.003148000e+00 -2.056130000e-01
354000.0 -1.003340000e+00 -2.157710000e-01
363500.0 -1.003792000e+00 -2.250390000e-01
373000.0 -1.003703000e+00 -2.328510000e-01
382500.0 -1.004531000e+00 -2.431230000e-01
392000.0 -1.004017000e+00 -2.517230000e-01
401500.0 -1.004571000e+00 -2.610520000e-01
411000.0 -1.004438000e+00 -2.709310000e-01
420500.0 -1.004888000e+00 -2.807060000e-01
430000.0 -1.005667000e+00 -2.892580000e-01
439500.0 -1.004811000e+00 -2.995810000e-01
449000.0 -1.006471000e+00 -3.085570000e-01
458500.0 -1.005887000e+00 -3.177830000e-01
468000.0 -1.006085000e+00 -3.269170000e-01
477500.0 -1.006553000e+00 -3.366420000e-01
487000.0 -1.006695000e+00 -3.450000000e-01
496500.0 -1.006530000e+00 -3.550990000e-01
506000.0 -1.006390000e+00 -3.633810000e-01
515500.0 -1.007254000e+00 -3.741200000e-01
525000.0 -1.007593000e+00 -3.814640000e-01
534500.0 -1.007156000e+00 -3.919940000e-01
544000.0 -1.008045000e+00 -4.013010000e-01
553500.0 -1.008229000e+00 -4.100500000e-01
563000.0 -1.008740000e+00 -4.198980000e-01
572500.0 -1.010256000e+00 -4.292840000e-01
582000.0 -1.011121000e+00 -4.380270000e-01
591500.0 -1.009935000e+00 -4.465230000e-01
601000.0 -1.011044000e+00 -4.555750000e-01
610500.0 -1.011903000e+00 -4.647070000e-01
620000.0 -1.012627000e+00 -4.741640000e-01
629500.0 -1.012961000e+00 -4.835670000e-01
639000.0 -1.011983000e+00 -4.918080000e-01
648500.0 -1.012858000e+00 -5.005360000e-01
658000.0 -1.013998000e+00 -5.105260000e-01
667500.0 -1.015027000e+00 -5.196440000e-01
677000.0 -1.015877000e+00 -5.284140000e-01
686500.0 -1.016583000e+00 -5.375000000e-01
696000.0 -1.017001000e+00 -5.463940000e-01
705500.0 -1.017333000e+00 -5.547290000e-01
715000.0 -1.018521000e+00 -5.645140000e-01
724500.0 -1.019184000e+00 -5.732180000e-01
734000.0 -1.018884000e+00 -5.831130000e-01
743500.0 -1.021178000e+00 -5.906260000e-01
753000.0 -1.022339000e+00 -5.997490000e-01
762500.0 -1.023379000e+00 -6.088840000e-01
772000.0 -1.023606000e+00 -6.180780000e-01
781500.0 -1.025934000e+00 -6.266090000e-01
791000.0 -1.026896000e+00 -6.362550000e-01
800500.0 -1.028037000e+00 -6.448300000e-01
810000.0 -1.028827000e+00 -6.542810000e-01
819500.0 -1.029291000e+00 -6.621130000e-01
829000.0 -1.032248000e+00 -6.715690000e-01
838500.0 -1.033574000e+00 -6.797920000e-01
848000.0 -1.035010000e+00 -6.875290000e-01
857500.0 -1.036193000e+00 -6.974510000e-01
867000.0 -1.038412000e+00 -7.064460000e-01
876500.0 -1.038164000e+00 -7.131510000e-01
886000.0 -1.041008000e+00 -7.227310000e-01
895500.0 -1.042987000e+00 -7.313780000e-01
905000.0 -1.045858000e+00 -7.411750000e-01
914500.0 -1.047406000e+00 -7.475250000e-01
924000.0 -1.048442000e+00 -7.581980000e-01
933500.0 -1.051165000e+00 -7.659250000e-01
943000.0 -1.053307000e+00 -7.746820000e-01
952500.0 -1.058223000e+00 -7.844460000e-01
962000.0 -1.058529000e+00 -7.926500000e-01
971500.0 -1.059992000e+00 -7.998380000e-01
981000.0 -1.062594000e+00 -8.079650000e-01
990500.0 -1.065601000e+00 -8.168100000e-01
1000000.0 -1.066891000e+00 -8.251270000e-01
1090000.0 -1.095888000e+00 -9.034190000e-01
1180000.0 -1.133831000e+00 -9.760700000e-01
1270000.0 -1.179448000e+00 -1.044133000e+00
1360000.0 -1.239723000e+00 -1.105664000e+00
1450000.0 -1.308098000e+00 -1.157593000e+00
1540000.0 -1.383341000e+00 -1.194435000e+00
1630000.0 -1.470497000e+00 -1.210713000e+00
1720000.0 -1.558279000e+00 -1.212047000e+00
1810000.0 -1.648552000e+00 -1.188701000e+00
1900000.0 -1.733026000e+00 -1.144429000e+00
1990000.0 -1.807134000e+00 -1.080735000e+00
2080000.0 -1.863822000e+00 -1.001903000e+00
2170000.0 -1.897975000e+00 -9.163220000e-01
2260000.0 -1.915474000e+00 -8.202050000e-01
2350000.0 -1.917002000e+00 -7.303710000e-01
2440000.0 -1.901169000e+00 -6.442770000e-01
2530000.0 -1.874200000e+00 -5.684170000e-01
2620000.0 -1.838909000e+00 -4.983280000e-01
2710000.0 -1.801648000e+00 -4.358740000e-01
2800000.0 -1.758579000e+00 -3.866430000e-01
2890000.0 -1.714254000e+00 -3.430200000e-01
2980000.0 -1.671569000e+00 -3.029820000e-01
3070000.0 -1.632802000e+00 -2.706410000e-01
3160000.0 -1.593502000e+00 -2.414850000e-01
3250000.0 -1.557085000e+00 -2.163750000e-01
3340000.0 -1.521226000e+00 -1.930090000e-01
3430000.0 -1.489316000e+00 -1.737880000e-01
3520000.0 -1.457659000e+00 -1.536160000e-01
3610000.0 -1.427880000e+00 -1.390460000e-01
3700000.0 -1.404155000e+00 -1.206130000e-01
3790000.0 -1.377558000e+00 -1.075340000e-01
3880000.0 -1.355326000e+00 -9.221300000e-02
3970000.0 -1.334221000e+00 -8.188100000e-02
4060000.0 -1.313577000e+00 -6.908000000e-02
4150000.0 -1.295463000e+00 -5.422400000e-02
4240000.0 -1.279019000e+00 -4.140100000e-02
4330000.0 -1.263636000e+00 -2.974800000e-02
4420000.0 -1.249843000e+00 -1.827600000e-02
4510000.0 -1.235762000e+00 -6.483000000e-03
4600000.0 -1.224078000e+00 3.941000000e-03
4690000.0 -1.214481000e+00 1.550400000e-02
4780000.0 -1.204108000e+00 2.586700000e-02
4870000.0 -1.194465000e+00 3.685100000e-02
4960000.0 -1.187133000e+00 4.813800000e-02
5050000.0 -1.172452000e+00 5.886400000e-02
5140000.0 -1.166544000e+00 6.905100000e-02
5230000.0 -1.161978000e+00 8.064600000e-02
5320000.0 -1.157534000e+00 9.056300000e-02
5410000.0 -1.152076000e+00 1.015010000e-01
5500000.0 -1.148334000e+00 1.111080000e-01
5590000.0 -1.143710000e+00 1.218280000e-01
5680000.0 -1.139186000e+00 1.314340000e-01
5770000.0 -1.135321000e+00 1.415510000e-01
5860000.0 -1.132352000e+00 1.503990000e-01
5950000.0 -1.129815000e+00 1.593600000e-01
6040000.0 -1.124968000e+00 1.677930000e-01
6130000.0 -1.122648000e+00 1.770980000e-01
6220000.0 -1.120924000e+00 1.855580000e-01
6310000.0 -1.117790000e+00 1.920400000e-01
6400000.0 -1.114502000e+00 1.994090000e-01
6490000.0 -1.113099000e+00 2.061590000e-01
6580000.0 -1.111032000e+00 2.122910000e-01
6670000.0 -1.108846000e+00 2.191270000e-01
6760000.0 -1.107714000e+00 2.231870000e-01
6850000.0 -1.105765000e+00 2.277810000e-01
6940000.0 -1.104851000e+00 2.328050000e-01
7030000.0 -1.103655000e+00 2.354900000e-01
7120000.0 -1.103026000e+00 2.388120000e-01
7210000.0 -1.101854000e+00 2.406810000e-01
7300000.0 -1.101164000e+00 2.429210000e-01
7390000.0 -1.102187000e+00 2.427240000e-01
7480000.0 -1.103541000e+00 2.428170000e-01
7570000.0 1.960430000e-01 1.073514000e+00
7660000.0 1.932440000e-01 1.074522000e+00
7750000.0 1.940880000e-01 1.074453000e+00
7840000.0 1.933970000e-01 1.074789000e+00
7930000.0 1.924620000e-01 1.075138000e+00
8020000.0 1.931520000e-01 1.075548000e+00
8110000.0 1.905500000e-01 1.076268000e+00
8200000.0 1.905370000e-01 1.076012000e+00
8290000.0 1.891540000e-01 1.077434000e+00
8380000.0 1.887860000e-01 1.077902000e+00
8470000.0 1.872430000e-01 1.078366000e+00
8560000.0 1.884820000e-01 1.078250000e+00
8650000.0 1.870270000e-01 1.079308000e+00
8740000.0 1.860030000e-01 1.079215000e+00
8830000.0 1.851380000e-01 1.079427000e+00
8920000.0 1.848750000e-01 1.079142000e+00
9010000.0 1.835240000e-01 1.080429000e+00
9100000.0 1.839010000e-01 1.080804000e+00
9190000.0 1.815530000e-01 1.081471000e+00
9280000.0 1.810750000e-01 1.082351000e+00
9370000.0 1.809240000e-01 1.083109000e+00
9460000.0 1.804560000e-01 1.083364000e+00
9550000.0 1.789730000e-01 1.084326000e+00
9640000.0 1.795780000e-01 1.085492000e+00
9730000.0 1.786680000e-01 1.084575000e+00
9820000.0 1.774550000e-01 1.085543000e+00
9910000.0 1.776400000e-01 1.086933000e+00
10000000.0 1.752510000e-01 1.087357000e+00
10900000.0 1.693570000e-01 1.094233000e+00
11800000.0 1.636530000e-01 1.102026000e+00
12700000.0 1.568580000e-01 1.110416000e+00
13600000.0 1.514450000e-01 1.118715000e+00
14500000.0 1.438740000e-01 1.127218000e+00
15400000.0 1.379780000e-01 1.135006000e+00
16300000.0 1.313640000e-01 1.144343000e+00
17200000.0 1.239230000e-01 1.154098000e+00
18100000.0 1.170730000e-01 1.163804000e+00
19000000.0 1.088810000e-01 1.173104000e+00
19900000.0 1.014330000e-01 1.182498000e+00
20800000.0 9.268000000e-02 1.191662000e+00
21700000.0 8.473000000e-02 1.202601000e+00
22600000.0 7.473200000e-02 1.211288000e+00
23500000.0 6.648700000e-02 1.221010000e+00
24400000.0 5.648300000e-02 1.230423000e+00
25300000.0 4.565200000e-02 1.241439000e+00
26200000.0 3.596100000e-02 1.252077000e+00
27100000.0 2.538700000e-02 1.262229000e+00
28000000.0 -8.229000000e-03 1.275563000e+00
28900000.0 2.378700000e-02 1.278668000e+00
29800000.0 -9.030000000e-03 1.291265000e+00
30700000.0 9.180000000e-04 1.299921000e+00
31600000.0 -5.754100000e-02 1.314949000e+00
32500000.0 -2.585800000e-02 1.319895000e+00
33400000.0 -8.530300000e-02 1.333466000e+00
34300000.0 -5.224700000e-02 1.339870000e+00
35200000.0 -1.137450000e-01 1.352500000e+00
36100000.0 -8.126400000e-02 1.360196000e+00
37000000.0 -1.225570000e-01 1.370041000e+00
37900000.0 -1.381130000e-01 1.379061000e+00
38800000.0 -1.535220000e-01 1.388914000e+00
39700000.0 -1.710830000e-01 1.395819000e+00
40600000.0 -1.889500000e-01 1.403629000e+00
41500000.0 -2.064080000e-01 1.413486000e+00
42400000.0 -2.246800000e-01 1.420647000e+00
43300000.0 -2.437830000e-01 1.428123000e+00
44200000.0 -2.637850000e-01 1.434822000e+00
45100000.0 -2.827190000e-01 1.441984000e+00
46000000.0 -3.030930000e-01 1.447841000e+00
46900000.0 -3.239580000e-01 1.453905000e+00
47800000.0 -3.442550000e-01 1.458841000e+00
48700000.0 -3.643670000e-01 1.463269000e+00
49600000.0 -3.864740000e-01 1.469375000e+00
50500000.0 -4.094590000e-01 1.471196000e+00
51400000.0 -4.315970000e-01 1.474855000e+00
52300000.0 -4.542230000e-01 1.477130000e+00
53200000.0 -4.788040000e-01 1.480057000e+00
54100000.0 -4.999240000e-01 1.480253000e+00
55000000.0 -5.234550000e-01 1.482692000e+00
55900000.0 -5.464370000e-01 1.481750000e+00
56800000.0 -5.705300000e-01 1.481588000e+00
57700000.0 -5.948720000e-01 1.478882000e+00
58600000.0 -6.198790000e-01 1.478004000e+00
59500000.0 -6.440880000e-01 1.475362000e+00
60400000.0 -6.681110000e-01 1.471530000e+00
61300000.0 -6.905420000e-01 1.467972000e+00
62200000.0 -7.162790000e-01 1.462816000e+00
63100000.0 -7.401850000e-01 1.458828000e+00
64000000.0 -7.636380000e-01 1.449973000e+00
64900000.0 -7.891800000e-01 1.443987000e+00
65800000.0 -8.131590000e-01 1.435739000e+00
66700000.0 -8.372790000e-01 1.428106000e+00
67600000.0 -8.601330000e-01 1.418673000e+00
68500000.0 -8.833230000e-01 1.407895000e+00
69400000.0 -9.070740000e-01 1.398258000e+00
70300000.0 -9.285690000e-01 1.386811000e+00
71200000.0 -9.527340000e-01 1.373463000e+00
72100000.0 -9.746700000e-01 1.361948000e+00
73000000.0 -9.971770000e-01 1.348350000e+00
73900000.0 -1.017924000e+00 1.334015000e+00
74800000.0 -1.039914000e+00 1.319788000e+00
75700000.0 -1.060973000e+00 1.306541000e+00
76600000.0 -1.081364000e+00 1.289458000e+00
77500000.0 -1.100244000e+00 1.273953000e+00
78400000.0 -1.120207000e+00 1.256112000e+00
79300000.0 -1.139721000e+00 1.237462000e+00
80200000.0 -1.157608000e+00 1.218839000e+00
81100000.0 -1.177593000e+00 1.200715000e+00
82000000.0 -1.193092000e+00 1.183535000e+00
82900000.0 -1.209973000e+00 1.163333000e+00
83800000.0 -1.226068000e+00 1.142014000e+00
84700000.0 -1.239501000e+00 1.120556000e+00
85600000.0 -1.255635000e+00 1.099694000e+00
86500000.0 -1.268742000e+00 1.079830000e+00
87400000.0 -1.281811000e+00 1.057960000e+00
88300000.0 -1.295074000e+00 1.036119000e+00
89200000.0 -1.307067000e+00 1.013434000e+00
90100000.0 -1.318596000e+00 9.912450000e-01
91000000.0 -1.327895000e+00 9.690800000e-01
91900000.0 -1.337206000e+00 9.460970000e-01
92800000.0 -1.347561000e+00 9.229040000e-01
93700000.0 -1.355982000e+00 9.004000000e-01
94600000.0 -1.361563000e+00 8.752910000e-01
95500000.0 -1.367896000e+00 8.523210000e-01
96400000.0 -1.373798000e+00 8.294300000e-01
97300000.0 -1.379739000e+00 8.067500000e-01
98200000.0 -1.385269000e+00 7.834680000e-01
99100000.0 -1.384800000e+00 7.620590000e-01
100000000.0 -1.391034000e+00 7.398360000e-01
109000000.0 -1.385547000e+00 5.204980000e-01
118000000.0 -1.331165000e+00 3.387760000e-01
127000000.0 -1.250331000e+00 1.991120000e-01
136000000.0 -1.133789000e+00 1.002210000e-01
145000000.0 -1.046698000e+00 3.012300000e-02
154000000.0 -1.000828000e+00 -8.540000000e-04
163000000.0 -1.002732000e+00 -3.728000000e-03
172000000.0 -1.004032000e+00 -5.348000000e-03
181000000.0 -1.006137000e+00 -8.522000000e-03
190000000.0 -1.007209000e+00 -9.470000000e-03
199000000.0 -1.008362000e+00 -9.853000000e-03
208000000.0 -1.009395000e+00 -1.069800000e-02
217000000.0 -1.011011000e+00 -1.090000000e-02
226000000.0 -1.011739000e+00 -1.197000000e-02
235000000.0 -1.010829000e+00 -1.083800000e-02
244000000.0 -1.009392000e+00 -1.088400000e-02
253000000.0 -1.009419000e+00 -1.065900000e-02
262000000.0 -1.008288000e+00 -8.795000000e-03
271000000.0 -1.006923000e+00 -6.811000000e-03
280000000.0 -1.004065000e+00 -6.112000000e-03
289000000.0 -1.001646000e+00 -2.407000000e-03
298000000.0 -1.000457000e+00 -1.380000000e-03
307000000.0 -1.002854000e+00 -1.630000000e-04
316000000.0 -1.006147000e+00 -1.185000000e-03
325000000.0 -1.007924000e+00 -1.509000000e-03
334000000.0 -1.011218000e+00 -3.101000000e-03
343000000.0 -1.012315000e+00 -2.474000000e-03
352000000.0 -1.014135000e+00 -3.429000000e-03
361000000.0 -1.014397000e+00 -3.811000000e-03
370000000.0 -1.014774000e+00 -5.681000000e-03
379000000.0 -1.014216000e+00 -5.243000000e-03
388000000.0 -1.023145000e+00 -3.859600000e-02
397000000.0 -1.021117000e+00 -3.698300000e-02
406000000.0 -1.014076000e+00 -2.092000000e-02
415000000.0 -1.011106000e+00 -4.765000000e-03
424000000.0 -1.008845000e+00 -2.222000000e-03
433000000.0 -1.004589000e+00 -3.167000000e-03
442000000.0 -1.001430000e+00 -7.400000000e-04
451000000.0 -9.991390000e-01 -6.490000000e-04
460000000.0 -1.004902000e+00 -3.620000000e-04
469000000.0 -1.007577000e+00 1.069000000e-03
478000000.0 -1.009684000e+00 1.645000000e-03
487000000.0 -1.012162000e+00 2.775000000e-03
496000000.0 -1.015045000e+00 8.490000000e-04
505000000.0 -1.015368000e+00 2.537000000e-03
514000000.0 -1.015303000e+00 3.211000000e-03
523000000.0 -1.016980000e+00 1.582000000e-03
532000000.0 -1.016185000e+00 2.157000000e-03
541000000.0 -1.014698000e+00 3.596000000e-03
550000000.0 -1.014140000e+00 2.243000000e-03
559000000.0 -1.011431000e+00 2.974000000e-03
568000000.0 -1.010161000e+00 2.154000000e-03
577000000.0 -1.009381000e+00 1.509000000e-03
586000000.0 -1.005119000e+00 2.220000000e-03
595000000.0 -9.996000000e-01 2.411000000e-03
604000000.0 -1.000276000e+00 1.708000000e-03
613000000.0 -1.002326000e+00 4.767000000e-03
622000000.0 -1.006758000e+00 7.934000000e-03
631000000.0 -1.004165000e+00 9.532000000e-03
640000000.0 -1.005733000e+00 1.092300000e-02
649000000.0 -1.012564000e+00 1.293600000e-02
658000000.0 -1.010363000e+00 1.078300000e-02
667000000.0 -1.008798000e+00 1.184000000e-02
676000000.0 -1.013593000e+00 9.657000000e-03
685000000.0 -1.008714000e+00 1.323900000e-02
694000000.0 -1.010576000e+00 1.373500000e-02
703000000.0 -1.006401000e+00 7.742000000e-03
712000000.0 -1.008094000e+00 9.181000000e-03
721000000.0 -1.007314000e+00 7.028000000e-03
730000000.0 -1.003555000e+00 5.822000000e-03
739000000.0 -1.000992000e+00 5.160000000e-04
748000000.0 -9.998700000e-01 2.146000000e-03
757000000.0 -1.000927000e+00 1.979000000e-03
766000000.0 -1.001768000e+00 4.089000000e-03
775000000.0 -9.995710000e-01 7.178000000e-03
784000000.0 -9.988750000e-01 5.223000000e-03
793000000.0 -9.979890000e-01 6.001000000e-03
802000000.0 -9.994730000e-01 6.725000000e-03
811000000.0 -9.986740000e-01 9.314000000e-03
820000000.0 -9.983650000e-01 1.110500000e-02
829000000.0 -1.000213000e+00 8.185000000e-03
838000000.0 -9.950420000e-01 9.005000000e-03
847000000.0 -9.967130000e-01 6.046000000e-03
856000000.0 -9.967880000e-01 6.907000000e-03
865000000.0 -9.964180000e-01 7.805000000e-03
874000000.0 -9.985240000e-01 3.869000000e-03
883000000.0 -9.928820000e-01 2.591000000e-03
892000000.0 -9.995740000e-01 -2.855000000e-03
901000000.0 -9.972880000e-01 -4.963000000e-03
910000000.0 -9.989080000e-01 -9.269000000e-03
919000000.0 -1.001939000e+00 -2.903000000e-03
928000000.0 -9.995390000e-01 -1.800000000e-03
937000000.0 -9.976480000e-01 -4.181000000e-03
946000000.0 -1.001071000e+00 -8.588000000e-03
955000000.0 -1.000918000e+00 -9.866000000e-03
964000000.0 -1.001585000e+00 -1.172000000e-03
973000000.0 -1.004229000e+00 -3.833000000e-03
982000000.0 -1.001311000e+00 -7.538000000e-03
991000000.0 -1.000681000e+00 -5.922000000e-03
1000000000.0 -1.002802000e+00 -5.878000000e-03
1004500000.0 -1.001841000e+00 -7.373000000e-03
1009000000.0 -9.994410000e-01 -5.614000000e-03
1013500000.0 -9.996580000e-01 -4.503000000e-03
1018000000.0 -1.002735000e+00 -9.064000000e-03
1022500000.0 -1.003254000e+00 -8.724000000e-03
1027000000.0 -1.003345000e+00 -4.595000000e-03
1031500000.0 -1.001792000e+00 -8.333000000e-03
1036000000.0 -1.002456000e+00 -6.475000000e-03
1040500000.0 -9.977900000e-01 -5.260000000e-03
1045000000.0 -1.001503000e+00 -5.795000000e-03
1049500000.0 -1.001901000e+00 -4.897000000e-03
1054000000.0 -1.000458000e+00 -5.233000000e-03
1058500000.0 -1.002132000e+00 -3.500000000e-05
1063000000.0 -1.000512000e+00 -1.996000000e-03
1067500000.0 -1.001359000e+00 -4.562000000e-03
1072000000.0 -1.002822000e+00 -7.128000000e-03
1076500000.0 -1.003496000e+00 -1.177400000e-02
1081000000.0 -1.003627000e+00 -7.485000000e-03
1085500000.0 -1.002331000e+00 -7.816000000e-03
1090000000.0 -1.009124000e+00 -9.730000000e-03
1094500000.0 -1.009336000e+00 -3.123000000e-03
1099000000.0 -1.011650000e+00 -8.371000000e-03
1103500000.0 -1.008231000e+00 -1.114000000e-02
1108000000.0 -1.004223000e+00 -7.577000000e-03
1112500000.0 -1.006283000e+00 -1.208800000e-02
1117000000.0 -1.008396000e+00 -1.587700000e-02
1121500000.0 -1.004398000e+00 -6.945000000e-03
1126000000.0 -1.012470000e+00 -9.422000000e-03
1130500000.0 -1.007839000e+00 2.266800000e-02
1135000000.0 -1.004935000e+00 8.241000000e-03
1139500000.0 -1.007926000e+00 2.263000000e-03
1144000000.0 -1.008075000e+00 -1.570900000e-02
1148500000.0 -1.016322000e+00 -3.714200000e-02
1153000000.0 -1.003139000e+00 -2.507200000e-02
1157500000.0 -1.005622000e+00 -1.557900000e-02
1162000000.0 -9.912530000e-01 2.619600000e-02
1166500000.0 -1.003662000e+00 -8.192000000e-03
1171000000.0 -1.001652000e+00 -1.017700000e-02
1175500000.0 -9.999760000e-01 -8.107000000e-03
1180000000.0 -1.003605000e+00 -3.717000000e-03
1184500000.0 -9.971630000e-01 9.070000000e-04
1189000000.0 -1.002346000e+00 -1.031900000e-02
1193500000.0 -9.981250000e-01 1.613000000e-03
1198000000.0 -9.957840000e-01 -6.408000000e-03
1202500000.0 -9.940370000e-01 8.400000000e-05
1207000000.0 -9.941280000e-01 -5.202000000e-03
1211500000.0 -9.964420000e-01 -9.600000000e-04
1216000000.0 -1.000904000e+00 -5.176000000e-03
1220500000.0 -9.993660000e-01 -6.726000000e-03
1225000000.0 -9.943030000e-01 -6.950000000e-03
1229500000.0 -1.003840000e+00 -5.864000000e-03
1234000000.0 -1.004328000e+00 -5.135000000e-03
1238500000.0 -1.000181000e+00 -1.849000000e-03
1243000000.0 -1.003276000e+00 -3.702000000e-03
1247500000.0 -1.007703000e+00 -5.808000000e-03
1252000000.0 -1.000738000e+00 6.230000000e-04
1256500000.0 -1.004382000e+00 -6.067000000e-03
1261000000.0 -1.005867000e+00 -1.947500000e-02
1265500000.0 -1.000895000e+00 -6.007000000e-03
1270000000.0 -1.006534000e+00 -1.188000000e-03
1274500000.0 -1.009451000e+00 -1.471100000e-02
1279000000.0 -1.001474000e+00 -3.960000000e-04
1283500000.0 -1.006884000e+00 -4.507000000e-03
1288000000.0 -1.004094000e+00 -7.445000000e-03
1292500000.0 -1.004307000e+00 -7.449000000e-03
1297000000.0 -1.004907000e+00 -9.054000000e-03
1301500000.0 -1.002787000e+00 -7.733000000e-03
1306000000.0 -9.998160000e-01 -5.440000000e-03
1310500000.0 -9.963500000e-01 1.388000000e-03
1315000000.0 -1.002711000e+00 -4.604000000e-03
1319500000.0 -9.974690000e-01 -5.987000000e-03
1324000000.0 -1.000849000e+00 -1.782500000e-02
1328500000.0 -9.965230000e-01 1.189500000e-02
1333000000.0 -9.893850000e-01 2.003000000e-02
1337500000.0 -9.959960000e-01 -4.504000000e-03
1342000000.0 -1.001949000e+00 -2.618600000e-02
1346500000.0 -9.925770000e-01 -9.090000000e-03
1351000000.0 -9.877280000e-01 1.197300000e-02
1355500000.0 -9.895160000e-01 4.548000000e-03
1360000000.0 -9.927090000e-01 -1.675100000e-02
1364500000.0 -1.003828000e+00 -2.586800000e-02
1369000000.0 -9.991830000e-01 -7.962000000e-03
1373500000.0 -1.004217000e+00 -2.453000000e-03
1378000000.0 -1.001839000e+00 -5.250000000e-03
1382500000.0 -1.004788000e+00 -3.386000000e-03
1387000000.0 -1.005339000e+00 -1.976000000e-03
1391500000.0 -1.005430000e+00 -6.311000000e-03
1396000000.0 -1.005638000e+00 -4.844000000e-03
1400500000.0 -1.007243000e+00 3.957000000e-03
1405000000.0 -1.000487000e+00 -1.660000000e-03
1409500000.0 -1.008120000e+00 -6.890000000e-03
1414000000.0 -1.006420000e+00 1.391000000e-03
1418500000.0 -1.012683000e+00 -4.373000000e-03
1423000000.0 -1.009339000e+00 -5.450000000e-03
1427500000.0 -1.010395000e+00 -1.530800000e-02
1432000000.0 -1.013656000e+00 -3.567000000e-03
1436500000.0 -1.011276000e+00 -3.810000000e-04
1441000000.0 -1.013132000e+00 3.200000000e-03
1445500000.0 -1.012723000e+00 -4.850000000e-04
1450000000.0 -1.009053000e+00 -6.424000000e-03
