! piloto_deriva / corto_deriva / r03
# HZ S RI R 50
50000.0 -9.988860000e-01 -3.703200000e-02
59500.0 -9.946980000e-01 -1.703900000e-02
69000.0 -9.993010000e-01 -5.399000000e-03
78500.0 -9.987530000e-01 -1.752000000e-03
88000.0 -9.987420000e-01 8.970000000e-04
97500.0 -9.992140000e-01 6.800000000e-05
107000.0 -9.994350000e-01 -2.161000000e-03
116500.0 -1.000286000e+00 -5.717000000e-03
126000.0 -1.000828000e+00 -1.107400000e-02
135500.0 -1.000425000e+00 -1.653100000e-02
145000.0 -9.998310000e-01 -2.266500000e-02
154500.0 -9.995340000e-01 -2.851600000e-02
164000.0 -9.997150000e-01 -3.627400000e-02
173500.0 -1.000050000e+00 -4.373400000e-02
183000.0 -1.000282000e+00 -5.160500000e-02
192500.0 -1.000231000e+00 -6.016700000e-02
202000.0 -1.000616000e+00 -6.805000000e-02
211500.0 -9.998170000e-01 -7.697600000e-02
221000.0 -1.000180000e+00 -8.620800000e-02
230500.0 -1.000878000e+00 -9.460600000e-02
240000.0 -1.000911000e+00 -1.029680000e-01
249500.0 -1.001170000e+00 -1.131740000e-01
259000.0 -1.000826000e+00 -1.214330000e-01
268500.0 -1.001120000e+00 -1.315910000e-01
278000.0 -1.001154000e+00 -1.404720000e-01
287500.0 -1.001661000e+00 -1.499030000e-01
297000.0 -1.001756000e+00 -1.586060000e-01
306500.0 -1.002048000e+00 -1.684910000e-01
316000.0 -1.002464000e+00 -1.775030000e-01
325500.0 -1.002379000e+00 -1.874970000e-01
335000.0 -1.002923000e+00 -1.962380000e-01
344500.0 -1.014749000e+00 -2.026110000e-01
354000.0 -1.002601000e+00 -2.151000000e-01
363500.0 -1.004537000e+00 -2.232110000e-01
373000.0 -1.004148000e+00 -2.326930000e-01
382500.0 -1.004557000e+00 -2.426480000e-01
392000.0 -1.004426000e+00 -2.518100000e-01
401500.0 -1.005320000e+00 -2.605970000e-01
411000.0 -1.005186000e+00 -2.702170000e-01
420500.0 -1.005372000e+00 -2.795450000e-01
430000.0 -1.004954000e+00 -2.898580000e-01
439500.0 -1.005400000e+00 -2.982680000e-01
449000.0 -1.005734000e+00 -3.079710000e-01
458500.0 -1.006719000e+00 -3.169700000e-01
468000.0 -1.005763000e+00 -3.259720000e-01
477500.0 -1.006107000e+00 -3.354850000e-01
487000.0 -1.006336000e+00 -3.455980000e-01
496500.0 -1.006663000e+00 -3.543920000e-01
506000.0 -1.007237000e+00 -3.632910000e-01
515500.0 -1.007501000e+00 -3.728610000e-01
525000.0 -1.007488000e+00 -3.815900000e-01
534500.0 -1.006926000e+00 -3.915050000e-01
544000.0 -1.008298000e+00 -4.011830000e-01
553500.0 -1.007625000e+00 -4.099490000e-01
563000.0 -1.009267000e+00 -4.201090000e-01
572500.0 -1.009714000e+00 -4.278550000e-01
582000.0 -1.010718000e+00 -4.373680000e-01
591500.0 -1.009757000e+00 -4.454580000e-01
601000.0 -1.011143000e+00 -4.547020000e-01
610500.0 -1.010574000e+00 -4.646640000e-01
620000.0 -1.011135000e+00 -4.728860000e-01
629500.0 -1.011984000e+00 -4.830170000e-01
639000.0 -1.012791000e+00 -4.913090000e-01
648500.0 -1.014239000e+00 -4.993200000e-01
658000.0 -1.014095000e+00 -5.102350000e-01
667500.0 -1.014956000e+00 -5.198630000e-01
677000.0 -1.015493000e+00 -5.279780000e-01
686500.0 -1.016061000e+00 -5.365330000e-01
696000.0 -1.016195000e+00 -5.457210000e-01
705500.0 -1.017505000e+00 -5.554230000e-01
715000.0 -1.018665000e+00 -5.632030000e-01
724500.0 -1.018566000e+00 -5.721060000e-01
734000.0 -1.019126000e+00 -5.814750000e-01
743500.0 -1.020671000e+00 -5.909700000e-01
753000.0 -1.022030000e+00 -5.984930000e-01
762500.0 -1.023210000e+00 -6.072180000e-01
772000.0 -1.024352000e+00 -6.171780000e-01
781500.0 -1.026235000e+00 -6.258370000e-01
791000.0 -1.026008000e+00 -6.344500000e-01
800500.0 -1.027364000e+00 -6.434030000e-01
810000.0 -1.028332000e+00 -6.525960000e-01
819500.0 -1.030647000e+00 -6.609580000e-01
829000.0 -1.031475000e+00 -6.700560000e-01
838500.0 -1.032850000e+00 -6.785880000e-01
848000.0 -1.033815000e+00 -6.866780000e-01
857500.0 -1.035885000e+00 -6.956530000e-01
867000.0 -1.037406000e+00 -7.046610000e-01
876500.0 -1.039151000e+00 -7.128180000e-01
886000.0 -1.040332000e+00 -7.232210000e-01
895500.0 -1.043070000e+00 -7.303600000e-01
905000.0 -1.044069000e+00 -7.390520000e-01
914500.0 -1.046443000e+00 -7.478310000e-01
924000.0 -1.049278000e+00 -7.568120000e-01
933500.0 -1.049876000e+00 -7.657890000e-01
943000.0 -1.052641000e+00 -7.746490000e-01
952500.0 -1.054259000e+00 -7.816490000e-01
962000.0 -1.058025000e+00 -7.898930000e-01
971500.0 -1.059817000e+00 -7.995780000e-01
981000.0 -1.061775000e+00 -8.073160000e-01
990500.0 -1.064437000e+00 -8.153380000e-01
1000000.0 -1.068043000e+00 -8.240630000e-01
1090000.0 -1.097293000e+00 -9.015900000e-01
1180000.0 -1.133444000e+00 -9.747340000e-01
1270000.0 -1.179798000e+00 -1.041304000e+00
1360000.0 -1.236779000e+00 -1.106264000e+00
1450000.0 -1.304279000e+00 -1.155253000e+00
1540000.0 -1.382588000e+00 -1.192253000e+00
1630000.0 -1.469300000e+00 -1.212113000e+00
1720000.0 -1.558338000e+00 -1.210728000e+00
1810000.0 -1.646289000e+00 -1.190115000e+00
1900000.0 -1.731875000e+00 -1.145658000e+00
1990000.0 -1.800773000e+00 -1.082578000e+00
2080000.0 -1.858665000e+00 -1.004061000e+00
2170000.0 -1.896531000e+00 -9.148140000e-01
2260000.0 -1.915983000e+00 -8.244450000e-01
2350000.0 -1.916770000e+00 -7.352300000e-01
2440000.0 -1.900568000e+00 -6.488360000e-01
2530000.0 -1.873944000e+00 -5.695440000e-01
2620000.0 -1.839236000e+00 -5.008680000e-01
2710000.0 -1.801653000e+00 -4.384170000e-01
2800000.0 -1.758691000e+00 -3.879490000e-01
2890000.0 -1.716826000e+00 -3.439930000e-01
2980000.0 -1.673369000e+00 -3.045930000e-01
3070000.0 -1.635158000e+00 -2.687550000e-01
3160000.0 -1.594552000e+00 -2.400800000e-01
3250000.0 -1.559271000e+00 -2.153260000e-01
3340000.0 -1.523002000e+00 -1.929200000e-01
3430000.0 -1.489462000e+00 -1.717230000e-01
3520000.0 -1.459028000e+00 -1.548970000e-01
3610000.0 -1.429467000e+00 -1.390590000e-01
3700000.0 -1.404685000e+00 -1.221390000e-01
3790000.0 -1.378542000e+00 -1.078960000e-01
3880000.0 -1.355488000e+00 -9.293000000e-02
3970000.0 -1.334051000e+00 -7.884900000e-02
4060000.0 -1.314734000e+00 -6.553000000e-02
4150000.0 -1.295915000e+00 -5.305600000e-02
4240000.0 -1.279428000e+00 -4.186700000e-02
4330000.0 -1.264082000e+00 -3.072700000e-02
4420000.0 -1.249483000e+00 -1.941100000e-02
4510000.0 -1.236142000e+00 -7.686000000e-03
4600000.0 -1.225052000e+00 3.812000000e-03
4690000.0 -1.214538000e+00 1.510000000e-02
4780000.0 -1.204904000e+00 2.766200000e-02
4870000.0 -1.196139000e+00 3.750600000e-02
4960000.0 -1.187532000e+00 4.994500000e-02
5050000.0 -1.173473000e+00 5.930900000e-02
5140000.0 -1.167048000e+00 7.007000000e-02
5230000.0 -1.161397000e+00 8.103000000e-02
5320000.0 -1.157224000e+00 9.086300000e-02
5410000.0 -1.152904000e+00 1.008200000e-01
5500000.0 -1.148927000e+00 1.118910000e-01
5590000.0 -1.143922000e+00 1.218160000e-01
5680000.0 -1.139735000e+00 1.319060000e-01
5770000.0 -1.136527000e+00 1.415470000e-01
5860000.0 -1.132531000e+00 1.503520000e-01
5950000.0 -1.129562000e+00 1.594910000e-01
6040000.0 -1.125490000e+00 1.682490000e-01
6130000.0 -1.122334000e+00 1.765670000e-01
6220000.0 -1.120199000e+00 1.839020000e-01
6310000.0 -1.116903000e+00 1.923920000e-01
6400000.0 -1.114844000e+00 2.004510000e-01
6490000.0 -1.111546000e+00 2.065990000e-01
6580000.0 -1.111866000e+00 2.127370000e-01
6670000.0 -1.109660000e+00 2.190110000e-01
6760000.0 -1.107697000e+00 2.220110000e-01
6850000.0 -1.105792000e+00 2.277780000e-01
6940000.0 -1.105954000e+00 2.332060000e-01
7030000.0 -1.103790000e+00 2.360830000e-01
7120000.0 -1.102795000e+00 2.386550000e-01
7210000.0 -1.102908000e+00 2.408500000e-01
7300000.0 -1.102165000e+00 2.426760000e-01
7390000.0 -1.102375000e+00 2.422700000e-01
7480000.0 -1.101498000e+00 2.428920000e-01
7570000.0 1.955500000e-01 1.073980000e+00
7660000.0 1.943200000e-01 1.074096000e+00
7750000.0 1.945270000e-01 1.074542000e+00
7840000.0 1.929500000e-01 1.074753000e+00
7930000.0 1.927610000e-01 1.075258000e+00
8020000.0 1.910450000e-01 1.075067000e+00
8110000.0 1.917890000e-01 1.076412000e+00
8200000.0 1.897130000e-01 1.075191000e+00
8290000.0 1.893100000e-01 1.076583000e+00
8380000.0 1.895400000e-01 1.076132000e+00
8470000.0 1.879930000e-01 1.077671000e+00
8560000.0 1.870850000e-01 1.077477000e+00
8650000.0 1.866610000e-01 1.078641000e+00
8740000.0 1.862610000e-01 1.079195000e+00
8830000.0 1.859030000e-01 1.078670000e+00
8920000.0 1.834460000e-01 1.080468000e+00
9010000.0 1.832950000e-01 1.080171000e+00
9100000.0 1.835620000e-01 1.080802000e+00
9190000.0 1.814230000e-01 1.081793000e+00
9280000.0 1.810430000e-01 1.082153000e+00
9370000.0 1.818270000e-01 1.082314000e+00
9460000.0 1.806390000e-01 1.082843000e+00
9550000.0 1.785880000e-01 1.084526000e+00
9640000.0 1.790800000e-01 1.085587000e+00
9730000.0 1.782740000e-01 1.085897000e+00
9820000.0 1.782440000e-01 1.085347000e+00
9910000.0 1.780020000e-01 1.086174000e+00
10000000.0 1.760550000e-01 1.087169000e+00
10900000.0 1.698290000e-01 1.094168000e+00
11800000.0 1.630330000e-01 1.102466000e+00
12700000.0 1.571210000e-01 1.110255000e+00
13600000.0 1.508270000e-01 1.118912000e+00
14500000.0 1.446910000e-01 1.126880000e+00
15400000.0 1.376240000e-01 1.136628000e+00
16300000.0 1.308020000e-01 1.145962000e+00
17200000.0 1.240990000e-01 1.153540000e+00
18100000.0 1.157360000e-01 1.162988000e+00
19000000.0 1.087350000e-01 1.172912000e+00
19900000.0 1.006730000e-01 1.182954000e+00
20800000.0 9.294000000e-02 1.191805000e+00
21700000.0 8.564000000e-02 1.202213000e+00
22600000.0 7.495900000e-02 1.211640000e+00
23500000.0 6.635600000e-02 1.221706000e+00
24400000.0 5.682300000e-02 1.231954000e+00
25300000.0 4.756300000e-02 1.241317000e+00
26200000.0 3.711300000e-02 1.252016000e+00
27100000.0 2.549300000e-02 1.262964000e+00
28000000.0 1.338400000e-02 1.271594000e+00
28900000.0 4.615000000e-02 1.269025000e+00
29800000.0 -9.375000000e-03 1.292218000e+00
30700000.0 -2.141000000e-02 1.302687000e+00
31600000.0 -3.473900000e-02 1.312806000e+00
32500000.0 -4.795700000e-02 1.321441000e+00
33400000.0 -6.203500000e-02 1.332194000e+00
34300000.0 -7.636400000e-02 1.342004000e+00
35200000.0 -9.052700000e-02 1.350985000e+00
36100000.0 -1.063390000e-01 1.361404000e+00
37000000.0 -1.225880000e-01 1.368551000e+00
37900000.0 -1.376370000e-01 1.378915000e+00
38800000.0 -1.541030000e-01 1.388490000e+00
39700000.0 -1.699620000e-01 1.395932000e+00
40600000.0 -1.885300000e-01 1.405890000e+00
41500000.0 -2.066390000e-01 1.412995000e+00
42400000.0 -2.248800000e-01 1.420033000e+00
43300000.0 -2.427850000e-01 1.428174000e+00
44200000.0 -2.617220000e-01 1.434547000e+00
45100000.0 -2.809830000e-01 1.441801000e+00
46000000.0 -3.027780000e-01 1.449200000e+00
46900000.0 -3.240440000e-01 1.454368000e+00
47800000.0 -3.430380000e-01 1.459198000e+00
48700000.0 -3.653900000e-01 1.463683000e+00
49600000.0 -3.873500000e-01 1.468455000e+00
50500000.0 -4.090830000e-01 1.472030000e+00
51400000.0 -4.314270000e-01 1.474990000e+00
52300000.0 -4.529180000e-01 1.477756000e+00
53200000.0 -4.771410000e-01 1.480019000e+00
54100000.0 -5.007950000e-01 1.480279000e+00
55000000.0 -5.239500000e-01 1.481745000e+00
55900000.0 -5.466920000e-01 1.481721000e+00
56800000.0 -5.716050000e-01 1.480742000e+00
57700000.0 -5.942700000e-01 1.480063000e+00
58600000.0 -6.195910000e-01 1.478623000e+00
59500000.0 -6.426320000e-01 1.473647000e+00
60400000.0 -6.674430000e-01 1.471584000e+00
61300000.0 -6.917520000e-01 1.466141000e+00
62200000.0 -7.150990000e-01 1.461439000e+00
63100000.0 -7.389810000e-01 1.456402000e+00
64000000.0 -7.648070000e-01 1.451146000e+00
64900000.0 -7.892050000e-01 1.443626000e+00
65800000.0 -8.114650000e-01 1.436155000e+00
66700000.0 -8.359820000e-01 1.427082000e+00
67600000.0 -8.598650000e-01 1.417862000e+00
68500000.0 -8.824390000e-01 1.407740000e+00
69400000.0 -9.085000000e-01 1.398274000e+00
70300000.0 -9.287730000e-01 1.387422000e+00
71200000.0 -9.510890000e-01 1.373563000e+00
72100000.0 -9.737640000e-01 1.361394000e+00
73000000.0 -9.959240000e-01 1.348286000e+00
73900000.0 -1.017508000e+00 1.334202000e+00
74800000.0 -1.040838000e+00 1.320886000e+00
75700000.0 -1.060846000e+00 1.304574000e+00
76600000.0 -1.081280000e+00 1.288600000e+00
77500000.0 -1.101189000e+00 1.272253000e+00
78400000.0 -1.119932000e+00 1.256167000e+00
79300000.0 -1.139542000e+00 1.237946000e+00
80200000.0 -1.157450000e+00 1.219270000e+00
81100000.0 -1.175124000e+00 1.200786000e+00
82000000.0 -1.194183000e+00 1.182103000e+00
82900000.0 -1.209996000e+00 1.162594000e+00
83800000.0 -1.224170000e+00 1.143143000e+00
84700000.0 -1.240360000e+00 1.121754000e+00
85600000.0 -1.254805000e+00 1.099677000e+00
86500000.0 -1.269383000e+00 1.080443000e+00
87400000.0 -1.283163000e+00 1.056276000e+00
88300000.0 -1.296633000e+00 1.035680000e+00
89200000.0 -1.306934000e+00 1.013415000e+00
90100000.0 -1.317623000e+00 9.912180000e-01
91000000.0 -1.328379000e+00 9.689930000e-01
91900000.0 -1.335711000e+00 9.455980000e-01
92800000.0 -1.348212000e+00 9.227200000e-01
93700000.0 -1.355009000e+00 8.993120000e-01
94600000.0 -1.362904000e+00 8.767360000e-01
95500000.0 -1.368520000e+00 8.533210000e-01
96400000.0 -1.374590000e+00 8.314990000e-01
97300000.0 -1.380608000e+00 8.051220000e-01
98200000.0 -1.382842000e+00 7.848270000e-01
99100000.0 -1.388093000e+00 7.611880000e-01
100000000.0 -1.390648000e+00 7.384790000e-01
109000000.0 -1.384523000e+00 5.215910000e-01
118000000.0 -1.331235000e+00 3.415130000e-01
127000000.0 -1.249059000e+00 1.998830000e-01
136000000.0 -1.134944000e+00 9.878100000e-02
145000000.0 -1.046204000e+00 3.042100000e-02
154000000.0 -1.000605000e+00 -7.120000000e-04
163000000.0 -1.002153000e+00 -3.361000000e-03
172000000.0 -1.004320000e+00 -5.656000000e-03
181000000.0 -1.006684000e+00 -7.983000000e-03
190000000.0 -1.007337000e+00 -9.214000000e-03
199000000.0 -1.008554000e+00 -1.114800000e-02
208000000.0 -1.009509000e+00 -1.177400000e-02
217000000.0 -1.010551000e+00 -1.137400000e-02
226000000.0 -1.009481000e+00 -1.200000000e-02
235000000.0 -1.009718000e+00 -1.197900000e-02
244000000.0 -1.009885000e+00 -1.216200000e-02
253000000.0 -1.009340000e+00 -9.403000000e-03
262000000.0 -1.007232000e+00 -7.813000000e-03
271000000.0 -1.005696000e+00 -7.188000000e-03
280000000.0 -1.006332000e+00 -2.302100000e-02
289000000.0 -1.003075000e+00 -4.057000000e-03
298000000.0 -9.975320000e-01 1.657100000e-02
307000000.0 -1.002651000e+00 -1.040000000e-04
316000000.0 -1.007417000e+00 -1.802400000e-02
325000000.0 -1.008187000e+00 -3.060000000e-04
334000000.0 -1.007768000e+00 1.424900000e-02
343000000.0 -1.012551000e+00 -3.246000000e-03
352000000.0 -1.023771000e+00 -5.542800000e-02
361000000.0 -1.014438000e+00 -2.653000000e-03
370000000.0 -1.016860000e+00 -2.144800000e-02
379000000.0 -1.004806000e+00 3.108800000e-02
388000000.0 -1.027356000e+00 -5.575800000e-02
397000000.0 -1.023284000e+00 -3.817500000e-02
406000000.0 -1.003286000e+00 3.009200000e-02
415000000.0 -1.010294000e+00 -3.898000000e-03
424000000.0 -1.010402000e+00 -4.123000000e-03
433000000.0 -1.006017000e+00 -1.877000000e-03
442000000.0 -1.002329000e+00 1.052000000e-03
451000000.0 -9.997200000e-01 9.280000000e-04
460000000.0 -1.004209000e+00 6.360000000e-04
469000000.0 -1.007592000e+00 2.626000000e-03
478000000.0 -1.009823000e+00 1.403000000e-03
487000000.0 -1.013222000e+00 8.020000000e-04
496000000.0 -1.013530000e+00 2.751000000e-03
505000000.0 -1.015978000e+00 2.958000000e-03
514000000.0 -1.018144000e+00 8.220000000e-04
523000000.0 -1.017640000e+00 2.427000000e-03
532000000.0 -1.017941000e+00 1.201000000e-03
541000000.0 -1.016379000e+00 3.801000000e-03
550000000.0 -1.014894000e+00 2.600000000e-03
559000000.0 -1.013910000e+00 4.888000000e-03
568000000.0 -1.011285000e+00 5.063000000e-03
577000000.0 -1.007822000e+00 8.160000000e-04
586000000.0 -1.005901000e+00 3.004000000e-03
595000000.0 -1.003541000e+00 4.880000000e-03
604000000.0 -9.998620000e-01 1.554000000e-03
613000000.0 -1.004463000e+00 5.800000000e-03
622000000.0 -1.006775000e+00 7.140000000e-03
631000000.0 -1.008497000e+00 7.829000000e-03
640000000.0 -1.011961000e+00 1.117000000e-02
649000000.0 -1.006877000e+00 1.162000000e-02
658000000.0 -1.009715000e+00 9.850000000e-03
667000000.0 -1.010100000e+00 1.193500000e-02
676000000.0 -1.013028000e+00 1.217800000e-02
685000000.0 -1.011722000e+00 1.519400000e-02
694000000.0 -1.009023000e+00 8.421000000e-03
703000000.0 -1.007347000e+00 1.702500000e-02
712000000.0 -1.006442000e+00 9.092000000e-03
721000000.0 -1.007606000e+00 7.955000000e-03
730000000.0 -1.005604000e+00 5.878000000e-03
739000000.0 -1.001567000e+00 1.710000000e-03
748000000.0 -9.982010000e-01 8.600000000e-04
757000000.0 -9.974980000e-01 4.539000000e-03
766000000.0 -9.991140000e-01 5.542000000e-03
775000000.0 -1.000170000e+00 7.298000000e-03
784000000.0 -9.968430000e-01 3.523000000e-03
793000000.0 -9.975420000e-01 4.986000000e-03
802000000.0 -9.991180000e-01 1.207100000e-02
811000000.0 -9.996390000e-01 7.711000000e-03
820000000.0 -9.959180000e-01 6.866000000e-03
829000000.0 -9.971350000e-01 8.393000000e-03
838000000.0 -9.958580000e-01 6.134000000e-03
847000000.0 -9.991760000e-01 8.027000000e-03
856000000.0 -9.983980000e-01 4.840000000e-03
865000000.0 -9.982310000e-01 5.379000000e-03
874000000.0 -9.994320000e-01 2.482000000e-03
883000000.0 -1.000000000e+00 2.910000000e-04
892000000.0 -9.940160000e-01 3.490000000e-03
901000000.0 -1.001571000e+00 -4.473000000e-03
910000000.0 -9.961460000e-01 1.169000000e-03
919000000.0 -9.976870000e-01 -1.870000000e-04
928000000.0 -9.997420000e-01 -4.857000000e-03
937000000.0 -1.002323000e+00 -6.337000000e-03
946000000.0 -9.979840000e-01 -6.077000000e-03
955000000.0 -9.992900000e-01 -7.110000000e-03
964000000.0 -9.996310000e-01 -4.573000000e-03
973000000.0 -1.001343000e+00 -5.727000000e-03
982000000.0 -1.002485000e+00 -1.049000000e-02
991000000.0 -9.990700000e-01 -8.018000000e-03
1000000000.0 -1.001243000e+00 -8.413000000e-03
1004500000.0 -1.001308000e+00 -8.661000000e-03
1009000000.0 -1.000462000e+00 -4.175000000e-03
1013500000.0 -1.002721000e+00 -1.218300000e-02
1018000000.0 -1.001536000e+00 -3.750000000e-03
1022500000.0 -1.000654000e+00 -9.190000000e-03
1027000000.0 -1.000823000e+00 -1.016800000e-02
1031500000.0 -1.001625000e+00 -8.320000000e-03
1036000000.0 -1.003604000e+00 -7.516000000e-03
1040500000.0 -1.001684000e+00 -5.949000000e-03
1045000000.0 -1.000358000e+00 -5.199000000e-03
1049500000.0 -1.002450000e+00 -7.799000000e-03
1054000000.0 -1.003223000e+00 -6.920000000e-03
1058500000.0 -1.000305000e+00 -8.689000000e-03
1063000000.0 -1.002608000e+00 -6.820000000e-03
1067500000.0 -1.002401000e+00 -6.444000000e-03
1072000000.0 -1.005365000e+00 -5.770000000e-03
1076500000.0 -1.006434000e+00 -2.819000000e-03
1081000000.0 -1.004431000e+00 -1.193400000e-02
1085500000.0 -1.006052000e+00 -9.527000000e-03
1090000000.0 -1.009750000e+00 -1.013300000e-02
1094500000.0 -1.006513000e+00 -1.169500000e-02
1099000000.0 -1.010760000e+00 -1.276800000e-02
1103500000.0 -1.003549000e+00 -1.153800000e-02
1108000000.0 -1.005215000e+00 -4.939000000e-03
1112500000.0 -1.006239000e+00 -5.786000000e-03
1117000000.0 -1.006383000e+00 -2.250600000e-02
1121500000.0 -1.007397000e+00 1.014000000e-02
1126000000.0 -9.930960000e-01 2.556100000e-02
1130500000.0 -1.006782000e+00 -1.103800000e-02
1135000000.0 -1.003547000e+00 7.456000000e-03
1139500000.0 -1.007744000e+00 -3.429000000e-03
1144000000.0 -1.023976000e+00 -7.503000000e-02
1148500000.0 -1.009344000e+00 -9.345000000e-03
1153000000.0 -1.007199000e+00 -6.136000000e-03
1157500000.0 -1.001515000e+00 -6.312000000e-03
1162000000.0 -1.007366000e+00 -9.317000000e-03
1166500000.0 -1.006353000e+00 -8.555000000e-03
1171000000.0 -1.003847000e+00 -3.869000000e-03
1175500000.0 -9.990160000e-01 -3.060000000e-03
1180000000.0 -9.997290000e-01 -5.994000000e-03
1184500000.0 -9.986130000e-01 -1.181400000e-02
1189000000.0 -1.002656000e+00 -7.156000000e-03
1193500000.0 -9.983120000e-01 -5.117000000e-03
1198000000.0 -9.961240000e-01 3.582000000e-03
1202500000.0 -9.983870000e-01 -3.420000000e-03
1207000000.0 -9.982440000e-01 -2.523000000e-03
1211500000.0 -9.982960000e-01 -1.899000000e-03
1216000000.0 -9.971590000e-01 -4.038000000e-03
1220500000.0 -1.006242000e+00 -4.021000000e-03
1225000000.0 -1.005660000e+00 1.822000000e-03
1229500000.0 -1.005486000e+00 -4.498000000e-03
1234000000.0 -1.002281000e+00 -6.236000000e-03
1238500000.0 -9.965300000e-01 -3.268000000e-03
1243000000.0 -1.009618000e+00 -7.940000000e-03
1247500000.0 -1.004183000e+00 -1.312200000e-02
1252000000.0 -1.005898000e+00 -1.575000000e-03
1256500000.0 -1.003212000e+00 -9.742000000e-03
1261000000.0 -1.004524000e+00 -1.171800000e-02
1265500000.0 -9.992470000e-01 -2.444000000e-03
1270000000.0 -1.008066000e+00 -1.041100000e-02
1274500000.0 -1.005054000e+00 -7.329000000e-03
1279000000.0 -1.005090000e+00 -6.514000000e-03
1283500000.0 -1.003788000e+00 -4.613000000e-03
1288000000.0 -1.000764000e+00 -6.501000000e-03
1292500000.0 -1.000507000e+00 -4.996000000e-03
1297000000.0 -1.004968000e+00 1.907000000e-03
1301500000.0 -1.001243000e+00 -1.364100000e-02
1306000000.0 -1.003665000e+00 -5.680000000e-03
1310500000.0 -9.996010000e-01 -9.066000000e-03
1315000000.0 -1.001426000e+00 -4.953000000e-03
1319500000.0 -1.000407000e+00 -1.303000000e-03
1324000000.0 -1.000865000e+00 -1.669300000e-02
1328500000.0 -9.988780000e-01 -8.434000000e-03
1333000000.0 -9.943790000e-01 5.918000000e-03
1337500000.0 -9.999780000e-01 -3.814000000e-03
1342000000.0 -9.922900000e-01 -4.860000000e-03
1346500000.0 -9.939980000e-01 3.839000000e-03
1351000000.0 -9.870990000e-01 -1.074000000e-03
1355500000.0 -9.951620000e-01 2.126000000e-03
1360000000.0 -9.999450000e-01 -4.705000000e-03
1364500000.0 -1.001904000e+00 -8.540000000e-04
1369000000.0 -9.983820000e-01 -9.970000000e-03
1373500000.0 -9.935580000e-01 -6.513000000e-03
1378000000.0 -1.002579000e+00 -3.890000000e-03
1382500000.0 -1.003827000e+00 3.470000000e-04
1387000000.0 -1.004553000e+00 1.358000000e-03
1391500000.0 -1.002878000e+00 -1.292000000e-03
1396000000.0 -1.006368000e+00 2.714000000e-03
1400500000.0 -1.005557000e+00 5.065000000e-03
1405000000.0 -1.005441000e+00 -3.000000000e-05
1409500000.0 -1.001720000e+00 -7.209000000e-03
1414000000.0 -1.007088000e+00 -3.982000000e-03
1418500000.0 -1.009601000e+00 -4.806000000e-03
1423000000.0 -1.007094000e+00 1.040300000e-02
1427500000.0 -1.008859000e+00 -7.372000000e-03
1432000000.0 -1.014125000e+00 -1.087900000e-02
1436500000.0 -1.012695000e+00 -4.779000000e-03
1441000000.0 -1.011509000e+00 -4.892000000e-03
1445500000.0 -1.011491000e+00 -3.513000000e-03
1450000000.0 -1.009611000e+00 -1.666000000e-03
