! piloto_deriva / corto_deriva / r16
# HZ S RI R 50
50000.0 -9.982290000e-01 -3.652300000e-02
59500.0 -9.982900000e-01 -1.841100000e-02
69000.0 -1.004703000e+00 -5.135000000e-03
78500.0 -9.987020000e-01 -1.313000000e-03
88000.0 -9.989760000e-01 5.430000000e-04
97500.0 -1.000432000e+00 6.360000000e-04
107000.0 -9.999270000e-01 -2.309000000e-03
116500.0 -1.000287000e+00 -6.564000000e-03
126000.0 -1.000124000e+00 -1.034100000e-02
135500.0 -9.992100000e-01 -1.585200000e-02
145000.0 -9.994400000e-01 -2.208800000e-02
154500.0 -9.998190000e-01 -2.897200000e-02
164000.0 -9.995220000e-01 -3.625900000e-02
173500.0 -9.995700000e-01 -4.424600000e-02
183000.0 -9.994120000e-01 -5.219800000e-02
192500.0 -9.998540000e-01 -6.019000000e-02
202000.0 -9.999840000e-01 -6.787000000e-02
211500.0 -9.996620000e-01 -7.683600000e-02
221000.0 -1.000183000e+00 -8.598100000e-02
230500.0 -1.001092000e+00 -9.456700000e-02
240000.0 -1.027559000e+00 -9.941800000e-02
249500.0 -1.001292000e+00 -1.133490000e-01
259000.0 -1.001433000e+00 -1.216510000e-01
268500.0 -1.002089000e+00 -1.313400000e-01
278000.0 -1.001372000e+00 -1.401250000e-01
287500.0 -1.000947000e+00 -1.496290000e-01
297000.0 -1.002741000e+00 -1.587390000e-01
306500.0 -1.001908000e+00 -1.689230000e-01
316000.0 -1.001954000e+00 -1.782130000e-01
325500.0 -1.003130000e+00 -1.869330000e-01
335000.0 -1.003041000e+00 -1.962400000e-01
344500.0 -1.002668000e+00 -2.056230000e-01
354000.0 -1.003671000e+00 -2.153880000e-01
363500.0 -1.003871000e+00 -2.233440000e-01
373000.0 -1.003404000e+00 -2.335890000e-01
382500.0 -1.004353000e+00 -2.430210000e-01
392000.0 -1.003879000e+00 -2.519980000e-01
401500.0 -1.003665000e+00 -2.615000000e-01
411000.0 -1.005536000e+00 -2.711280000e-01
420500.0 -1.005200000e+00 -2.793450000e-01
430000.0 -1.005109000e+00 -2.890550000e-01
439500.0 -1.005795000e+00 -2.988090000e-01
449000.0 -1.005503000e+00 -3.075070000e-01
458500.0 -1.005452000e+00 -3.181100000e-01
468000.0 -1.006576000e+00 -3.264000000e-01
477500.0 -1.006806000e+00 -3.367770000e-01
487000.0 -1.006419000e+00 -3.453820000e-01
496500.0 -1.006270000e+00 -3.538450000e-01
506000.0 -1.007732000e+00 -3.641020000e-01
515500.0 -1.008006000e+00 -3.741160000e-01
525000.0 -1.007431000e+00 -3.826570000e-01
534500.0 -1.007690000e+00 -3.915790000e-01
544000.0 -1.007984000e+00 -4.004670000e-01
553500.0 -1.008889000e+00 -4.094930000e-01
563000.0 -1.008961000e+00 -4.195110000e-01
572500.0 -1.010128000e+00 -4.285130000e-01
582000.0 -1.008571000e+00 -4.370810000e-01
591500.0 -1.010199000e+00 -4.472100000e-01
601000.0 -1.011704000e+00 -4.559970000e-01
610500.0 -1.011268000e+00 -4.644450000e-01
620000.0 -1.010962000e+00 -4.735950000e-01
629500.0 -1.011488000e+00 -4.827050000e-01
639000.0 -1.013261000e+00 -4.916980000e-01
648500.0 -1.012943000e+00 -5.004520000e-01
658000.0 -1.013867000e+00 -5.098230000e-01
667500.0 -1.014979000e+00 -5.187450000e-01
677000.0 -1.015025000e+00 -5.280360000e-01
686500.0 -1.015872000e+00 -5.379190000e-01
696000.0 -1.016101000e+00 -5.463400000e-01
705500.0 -1.016822000e+00 -5.546810000e-01
715000.0 -1.019032000e+00 -5.638430000e-01
724500.0 -1.018311000e+00 -5.729720000e-01
734000.0 -1.018244000e+00 -5.823310000e-01
743500.0 -1.020272000e+00 -5.913270000e-01
753000.0 -1.022027000e+00 -6.002500000e-01
762500.0 -1.023215000e+00 -6.087240000e-01
772000.0 -1.023863000e+00 -6.185090000e-01
781500.0 -1.025034000e+00 -6.263570000e-01
791000.0 -1.026740000e+00 -6.359500000e-01
800500.0 -1.027460000e+00 -6.443880000e-01
810000.0 -1.029372000e+00 -6.527540000e-01
819500.0 -1.030655000e+00 -6.607010000e-01
829000.0 -1.030777000e+00 -6.702060000e-01
838500.0 -1.032812000e+00 -6.782190000e-01
848000.0 -1.034776000e+00 -6.888020000e-01
857500.0 -1.035837000e+00 -6.965590000e-01
867000.0 -1.037393000e+00 -7.045400000e-01
876500.0 -1.038742000e+00 -7.143340000e-01
886000.0 -1.042403000e+00 -7.229370000e-01
895500.0 -1.043148000e+00 -7.312950000e-01
905000.0 -1.044408000e+00 -7.406590000e-01
914500.0 -1.046085000e+00 -7.492680000e-01
924000.0 -1.048553000e+00 -7.569450000e-01
933500.0 -1.049937000e+00 -7.658230000e-01
943000.0 -1.051822000e+00 -7.738100000e-01
952500.0 -1.054933000e+00 -7.838330000e-01
962000.0 -1.056873000e+00 -7.922430000e-01
971500.0 -1.059002000e+00 -7.999770000e-01
981000.0 -1.062821000e+00 -8.079220000e-01
990500.0 -1.064068000e+00 -8.162070000e-01
1000000.0 -1.066213000e+00 -8.256010000e-01
1090000.0 -1.095689000e+00 -9.026870000e-01
1180000.0 -1.132739000e+00 -9.751150000e-01
1270000.0 -1.181683000e+00 -1.044059000e+00
1360000.0 -1.238447000e+00 -1.106167000e+00
1450000.0 -1.307935000e+00 -1.156516000e+00
1540000.0 -1.384506000e+00 -1.194189000e+00
1630000.0 -1.469173000e+00 -1.213058000e+00
1720000.0 -1.560517000e+00 -1.211273000e+00
1810000.0 -1.649074000e+00 -1.188447000e+00
1900000.0 -1.734263000e+00 -1.143763000e+00
1990000.0 -1.805452000e+00 -1.082126000e+00
2080000.0 -1.863262000e+00 -1.005967000e+00
2170000.0 -1.900148000e+00 -9.138900000e-01
2260000.0 -1.916471000e+00 -8.241600000e-01
2350000.0 -1.914513000e+00 -7.318940000e-01
2440000.0 -1.899582000e+00 -6.479740000e-01
2530000.0 -1.874559000e+00 -5.693960000e-01
2620000.0 -1.839443000e+00 -4.986700000e-01
2710000.0 -1.803213000e+00 -4.385730000e-01
2800000.0 -1.758241000e+00 -3.861290000e-01
2890000.0 -1.714509000e+00 -3.417790000e-01
2980000.0 -1.726417000e+00 -3.457800000e-01
3070000.0 -1.633761000e+00 -2.721430000e-01
3160000.0 -1.592373000e+00 -2.406080000e-01
3250000.0 -1.556988000e+00 -2.158380000e-01
3340000.0 -1.523334000e+00 -1.935350000e-01
3430000.0 -1.489393000e+00 -1.718340000e-01
3520000.0 -1.458466000e+00 -1.531820000e-01
3610000.0 -1.429939000e+00 -1.382200000e-01
3700000.0 -1.402736000e+00 -1.211470000e-01
3790000.0 -1.376705000e+00 -1.049030000e-01
3880000.0 -1.355664000e+00 -9.440000000e-02
3970000.0 -1.334155000e+00 -8.045000000e-02
4060000.0 -1.312874000e+00 -6.592600000e-02
4150000.0 -1.295507000e+00 -5.381300000e-02
4240000.0 -1.278793000e+00 -4.253800000e-02
4330000.0 -1.264195000e+00 -3.055500000e-02
4420000.0 -1.248870000e+00 -2.033000000e-02
4510000.0 -1.237443000e+00 -6.882000000e-03
4600000.0 -1.224544000e+00 4.472000000e-03
4690000.0 -1.213531000e+00 1.587100000e-02
4780000.0 -1.203392000e+00 2.555700000e-02
4870000.0 -1.195605000e+00 3.856100000e-02
4960000.0 -1.187897000e+00 4.740300000e-02
5050000.0 -1.172865000e+00 5.827200000e-02
5140000.0 -1.166818000e+00 6.949000000e-02
5230000.0 -1.160836000e+00 8.078700000e-02
5320000.0 -1.156908000e+00 9.084800000e-02
5410000.0 -1.152525000e+00 1.010940000e-01
5500000.0 -1.147625000e+00 1.119050000e-01
5590000.0 -1.144990000e+00 1.220470000e-01
5680000.0 -1.139886000e+00 1.317190000e-01
5770000.0 -1.135708000e+00 1.413760000e-01
5860000.0 -1.131594000e+00 1.511910000e-01
5950000.0 -1.128028000e+00 1.610110000e-01
6040000.0 -1.125415000e+00 1.683010000e-01
6130000.0 -1.121836000e+00 1.764200000e-01
6220000.0 -1.119842000e+00 1.851120000e-01
6310000.0 -1.116610000e+00 1.923470000e-01
6400000.0 -1.114911000e+00 1.996730000e-01
6490000.0 -1.112224000e+00 2.071230000e-01
6580000.0 -1.110172000e+00 2.127760000e-01
6670000.0 -1.107614000e+00 2.185650000e-01
6760000.0 -1.107245000e+00 2.242300000e-01
6850000.0 -1.105765000e+00 2.283820000e-01
6940000.0 -1.105281000e+00 2.321560000e-01
7030000.0 -1.104173000e+00 2.357890000e-01
7120000.0 -1.103014000e+00 2.386290000e-01
7210000.0 -1.102161000e+00 2.403100000e-01
7300000.0 -1.102420000e+00 2.419460000e-01
7390000.0 -1.100924000e+00 2.420440000e-01
7480000.0 -1.101600000e+00 2.421290000e-01
7570000.0 1.963910000e-01 1.073349000e+00
7660000.0 1.952580000e-01 1.074397000e+00
7750000.0 1.943890000e-01 1.074810000e+00
7840000.0 1.940920000e-01 1.074691000e+00
7930000.0 1.913100000e-01 1.074421000e+00
8020000.0 1.914160000e-01 1.075579000e+00
8110000.0 1.923320000e-01 1.074884000e+00
8200000.0 1.910880000e-01 1.075813000e+00
8290000.0 1.910500000e-01 1.076713000e+00
8380000.0 1.881470000e-01 1.078115000e+00
8470000.0 1.879340000e-01 1.077379000e+00
8560000.0 1.869480000e-01 1.077787000e+00
8650000.0 1.869590000e-01 1.078734000e+00
8740000.0 1.860060000e-01 1.079345000e+00
8830000.0 1.851750000e-01 1.080586000e+00
8920000.0 1.842840000e-01 1.080812000e+00
9010000.0 1.826400000e-01 1.080929000e+00
9100000.0 1.827700000e-01 1.081384000e+00
9190000.0 1.828520000e-01 1.081375000e+00
9280000.0 1.818240000e-01 1.081303000e+00
9370000.0 1.813500000e-01 1.082477000e+00
9460000.0 1.807570000e-01 1.082459000e+00
9550000.0 1.789560000e-01 1.082780000e+00
9640000.0 1.783170000e-01 1.084798000e+00
9730000.0 1.776030000e-01 1.085755000e+00
9820000.0 1.764160000e-01 1.086537000e+00
9910000.0 1.774600000e-01 1.087304000e+00
10000000.0 1.760170000e-01 1.086514000e+00
10900000.0 1.695740000e-01 1.094793000e+00
11800000.0 1.631070000e-01 1.102703000e+00
12700000.0 1.567870000e-01 1.109972000e+00
13600000.0 1.510340000e-01 1.118646000e+00
14500000.0 1.457620000e-01 1.127183000e+00
15400000.0 1.376370000e-01 1.135974000e+00
16300000.0 1.305330000e-01 1.145346000e+00
17200000.0 1.241880000e-01 1.153572000e+00
18100000.0 1.160990000e-01 1.163622000e+00
19000000.0 1.094320000e-01 1.173232000e+00
19900000.0 1.014940000e-01 1.182363000e+00
20800000.0 9.266500000e-02 1.192348000e+00
21700000.0 8.456400000e-02 1.202000000e+00
22600000.0 7.588900000e-02 1.211771000e+00
23500000.0 6.679200000e-02 1.221572000e+00
24400000.0 5.625700000e-02 1.231285000e+00
25300000.0 4.626600000e-02 1.240988000e+00
26200000.0 3.657400000e-02 1.251963000e+00
27100000.0 2.444100000e-02 1.261430000e+00
28000000.0 1.471800000e-02 1.272303000e+00
28900000.0 2.292000000e-03 1.282917000e+00
29800000.0 -8.570000000e-03 1.293372000e+00
30700000.0 -2.239400000e-02 1.303167000e+00
31600000.0 -3.485600000e-02 1.312557000e+00
32500000.0 -4.839800000e-02 1.320607000e+00
33400000.0 -6.248400000e-02 1.331506000e+00
34300000.0 -7.699300000e-02 1.341541000e+00
35200000.0 -9.098100000e-02 1.350999000e+00
36100000.0 -1.052700000e-01 1.359957000e+00
37000000.0 -1.207780000e-01 1.370251000e+00
37900000.0 -1.379020000e-01 1.379026000e+00
38800000.0 -1.552580000e-01 1.388304000e+00
39700000.0 -1.708560000e-01 1.396588000e+00
40600000.0 -1.892270000e-01 1.403688000e+00
41500000.0 -2.059220000e-01 1.411296000e+00
42400000.0 -2.243330000e-01 1.421095000e+00
43300000.0 -2.433530000e-01 1.428676000e+00
44200000.0 -2.619280000e-01 1.435413000e+00
45100000.0 -2.827810000e-01 1.442121000e+00
46000000.0 -3.026370000e-01 1.447927000e+00
46900000.0 -3.229620000e-01 1.452990000e+00
47800000.0 -3.440030000e-01 1.459804000e+00
48700000.0 -3.657930000e-01 1.464096000e+00
49600000.0 -3.881370000e-01 1.467678000e+00
50500000.0 -4.074600000e-01 1.471342000e+00
51400000.0 -4.312660000e-01 1.475376000e+00
52300000.0 -4.535770000e-01 1.477223000e+00
53200000.0 -4.765550000e-01 1.480282000e+00
54100000.0 -4.994770000e-01 1.481092000e+00
55000000.0 -5.233500000e-01 1.481161000e+00
55900000.0 -5.472740000e-01 1.481012000e+00
56800000.0 -5.711720000e-01 1.481284000e+00
57700000.0 -5.951020000e-01 1.479769000e+00
58600000.0 -6.181680000e-01 1.477898000e+00
59500000.0 -6.167260000e-01 1.481435000e+00
60400000.0 -6.680520000e-01 1.471976000e+00
61300000.0 -6.917180000e-01 1.467404000e+00
62200000.0 -7.156230000e-01 1.463112000e+00
63100000.0 -7.144940000e-01 1.465935000e+00
64000000.0 -7.898850000e-01 1.441910000e+00
64900000.0 -7.620230000e-01 1.453131000e+00
65800000.0 -8.388620000e-01 1.424738000e+00
66700000.0 -8.111800000e-01 1.437990000e+00
67600000.0 -8.864710000e-01 1.407623000e+00
68500000.0 -8.589080000e-01 1.418889000e+00
69400000.0 -9.332250000e-01 1.386374000e+00
70300000.0 -9.301360000e-01 1.386258000e+00
71200000.0 -9.518590000e-01 1.374223000e+00
72100000.0 -9.756360000e-01 1.361718000e+00
73000000.0 -9.980230000e-01 1.349740000e+00
73900000.0 -1.019965000e+00 1.335030000e+00
74800000.0 -1.040748000e+00 1.320052000e+00
75700000.0 -1.061011000e+00 1.305795000e+00
76600000.0 -1.081218000e+00 1.288310000e+00
77500000.0 -1.100674000e+00 1.272361000e+00
78400000.0 -1.120262000e+00 1.256735000e+00
79300000.0 -1.140491000e+00 1.237625000e+00
80200000.0 -1.158341000e+00 1.220436000e+00
81100000.0 -1.176255000e+00 1.200832000e+00
82000000.0 -1.192561000e+00 1.181807000e+00
82900000.0 -1.209372000e+00 1.162441000e+00
83800000.0 -1.225288000e+00 1.142729000e+00
84700000.0 -1.240104000e+00 1.120877000e+00
85600000.0 -1.255841000e+00 1.100770000e+00
86500000.0 -1.270710000e+00 1.078930000e+00
87400000.0 -1.281078000e+00 1.058029000e+00
88300000.0 -1.294886000e+00 1.036438000e+00
89200000.0 -1.306545000e+00 1.014884000e+00
90100000.0 -1.316313000e+00 9.914710000e-01
91000000.0 -1.328039000e+00 9.675680000e-01
91900000.0 -1.337816000e+00 9.445100000e-01
92800000.0 -1.345927000e+00 9.222230000e-01
93700000.0 -1.354654000e+00 8.992580000e-01
94600000.0 -1.362045000e+00 8.764240000e-01
95500000.0 -1.368973000e+00 8.534320000e-01
96400000.0 -1.374944000e+00 8.298860000e-01
97300000.0 -1.381261000e+00 8.066560000e-01
98200000.0 -1.384681000e+00 7.836770000e-01
99100000.0 -1.387390000e+00 7.619240000e-01
100000000.0 -1.390669000e+00 7.384510000e-01
109000000.0 -1.384831000e+00 5.205380000e-01
118000000.0 -1.331364000e+00 3.391170000e-01
127000000.0 -1.250556000e+00 2.006950000e-01
136000000.0 -1.134927000e+00 1.001870000e-01
145000000.0 -1.047592000e+00 3.016600000e-02
154000000.0 -9.999990000e-01 -1.270000000e-03
163000000.0 -1.002627000e+00 -3.476000000e-03
172000000.0 -1.004929000e+00 -7.182000000e-03
181000000.0 -1.005648000e+00 -7.358000000e-03
190000000.0 -1.007243000e+00 -9.951000000e-03
199000000.0 -1.008499000e+00 -1.083400000e-02
208000000.0 -1.009112000e+00 -1.247400000e-02
217000000.0 -1.009671000e+00 -1.188000000e-02
226000000.0 -1.010728000e+00 -1.142300000e-02
235000000.0 -1.010622000e+00 -9.830000000e-03
244000000.0 -1.009851000e+00 -1.118600000e-02
253000000.0 -1.008832000e+00 -9.478000000e-03
262000000.0 -1.008016000e+00 -7.768000000e-03
271000000.0 -1.006842000e+00 -6.863000000e-03
280000000.0 -1.004830000e+00 -5.885000000e-03
289000000.0 -1.003323000e+00 -3.795000000e-03
298000000.0 -1.001376000e+00 -1.011000000e-03
307000000.0 -1.002635000e+00 -7.310000000e-04
316000000.0 -1.006292000e+00 -7.200000000e-04
325000000.0 -1.007067000e+00 -7.900000000e-04
334000000.0 -1.011488000e+00 -1.841000000e-03
343000000.0 -1.013032000e+00 -1.904000000e-03
352000000.0 -1.013125000e+00 -4.423000000e-03
361000000.0 -1.022582000e+00 -3.786500000e-02
370000000.0 -1.015443000e+00 -3.381000000e-03
379000000.0 -1.014454000e+00 -5.056000000e-03
388000000.0 -1.014443000e+00 -4.357000000e-03
397000000.0 -1.011650000e+00 -2.861000000e-03
406000000.0 -1.011098000e+00 -3.314000000e-03
415000000.0 -1.013072000e+00 -2.083500000e-02
424000000.0 -1.008275000e+00 -1.614000000e-03
433000000.0 -1.006028000e+00 -1.304000000e-03
442000000.0 -1.002986000e+00 -2.650000000e-04
451000000.0 -1.000267000e+00 3.490000000e-04
460000000.0 -1.003965000e+00 -1.143000000e-03
469000000.0 -1.006831000e+00 1.797000000e-03
478000000.0 -1.010407000e+00 1.978000000e-03
487000000.0 -1.011931000e+00 7.920000000e-04
496000000.0 -1.014509000e+00 2.474000000e-03
505000000.0 -1.016408000e+00 2.331000000e-03
514000000.0 -1.016595000e+00 1.249000000e-03
523000000.0 -1.015688000e+00 1.015000000e-03
532000000.0 -1.016753000e+00 4.824000000e-03
541000000.0 -1.015646000e+00 4.452000000e-03
550000000.0 -1.011915000e+00 -5.300000000e-05
559000000.0 -1.013101000e+00 2.193000000e-03
568000000.0 -1.010491000e+00 3.699000000e-03
577000000.0 -1.010585000e+00 -1.060000000e-03
586000000.0 -1.006232000e+00 3.240000000e-04
595000000.0 -1.001291000e+00 1.239000000e-03
604000000.0 -1.001061000e+00 -4.800000000e-05
613000000.0 -1.001785000e+00 2.660000000e-03
622000000.0 -1.005827000e+00 7.937000000e-03
631000000.0 -1.008475000e+00 6.332000000e-03
640000000.0 -1.007824000e+00 1.080000000e-02
649000000.0 -1.008180000e+00 7.543000000e-03
658000000.0 -1.013062000e+00 1.212700000e-02
667000000.0 -1.012672000e+00 1.247000000e-02
676000000.0 -1.011850000e+00 1.319500000e-02
685000000.0 -1.009514000e+00 8.686000000e-03
694000000.0 -1.011632000e+00 8.235000000e-03
703000000.0 -1.010558000e+00 1.348200000e-02
712000000.0 -1.001223000e+00 1.077200000e-02
721000000.0 -1.009417000e+00 4.211000000e-03
730000000.0 -1.004884000e+00 7.165000000e-03
739000000.0 -1.002667000e+00 5.020000000e-03
748000000.0 -9.990780000e-01 2.175000000e-03
757000000.0 -9.970550000e-01 3.114000000e-03
766000000.0 -1.000039000e+00 3.869000000e-03
775000000.0 -9.975970000e-01 5.158000000e-03
784000000.0 -1.000212000e+00 7.603000000e-03
793000000.0 -1.000084000e+00 6.028000000e-03
802000000.0 -9.991340000e-01 9.129000000e-03
811000000.0 -9.999470000e-01 5.894000000e-03
820000000.0 -9.998690000e-01 6.284000000e-03
829000000.0 -9.941440000e-01 1.004800000e-02
838000000.0 -9.988810000e-01 1.579000000e-03
847000000.0 -9.962610000e-01 5.737000000e-03
856000000.0 -9.995640000e-01 3.557000000e-03
865000000.0 -9.960350000e-01 3.911000000e-03
874000000.0 -9.975050000e-01 1.411000000e-03
883000000.0 -9.955180000e-01 3.682000000e-03
892000000.0 -9.966600000e-01 -3.798000000e-03
901000000.0 -1.002805000e+00 -1.069000000e-03
910000000.0 -9.998330000e-01 2.361000000e-03
919000000.0 -9.985940000e-01 -2.117000000e-03
928000000.0 -9.986830000e-01 -1.600000000e-04
937000000.0 -1.000441000e+00 -1.257000000e-03
946000000.0 -1.000352000e+00 -6.378000000e-03
955000000.0 -1.003079000e+00 -7.468000000e-03
964000000.0 -9.993830000e-01 -9.704000000e-03
973000000.0 -1.000795000e+00 -9.863000000e-03
982000000.0 -1.000405000e+00 -1.123700000e-02
991000000.0 -1.001271000e+00 -7.252000000e-03
1000000000.0 -1.002962000e+00 -4.248000000e-03
1004500000.0 -1.002865000e+00 -1.146100000e-02
1009000000.0 -1.000175000e+00 -5.621000000e-03
1013500000.0 -1.001279000e+00 -9.011000000e-03
1018000000.0 -1.001910000e+00 -4.939000000e-03
1022500000.0 -1.003750000e+00 -8.292000000e-03
1027000000.0 -1.000020000e+00 -5.780000000e-03
1031500000.0 -1.001776000e+00 -6.696000000e-03
1036000000.0 -9.985510000e-01 -3.454000000e-03
1040500000.0 -1.002210000e+00 -4.534000000e-03
1045000000.0 -1.000498000e+00 -4.521000000e-03
1049500000.0 -1.000562000e+00 -5.920000000e-03
1054000000.0 -1.001226000e+00 -1.162600000e-02
1058500000.0 -1.004088000e+00 -8.150000000e-03
1063000000.0 -1.001907000e+00 -5.913000000e-03
1067500000.0 -1.005149000e+00 -8.808000000e-03
1072000000.0 -1.003708000e+00 -2.902000000e-03
1076500000.0 -1.003257000e+00 -1.078300000e-02
1081000000.0 -1.008161000e+00 -1.204200000e-02
1085500000.0 -1.007092000e+00 -1.321100000e-02
1090000000.0 -1.008646000e+00 -9.963000000e-03
1094500000.0 -1.008172000e+00 -1.299600000e-02
1099000000.0 -1.010103000e+00 -6.011000000e-03
1103500000.0 -1.002085000e+00 -7.245000000e-03
1108000000.0 -1.007528000e+00 -1.332900000e-02
1112500000.0 -1.009407000e+00 -8.027000000e-03
1117000000.0 -1.007441000e+00 -6.260000000e-03
1121500000.0 -1.009684000e+00 -1.298000000e-02
1126000000.0 -1.005828000e+00 -5.091000000e-03
1130500000.0 -1.024268000e+00 -8.152100000e-02
1135000000.0 -1.000436000e+00 4.440000000e-03
1139500000.0 -1.007961000e+00 -7.237000000e-03
1144000000.0 -1.006502000e+00 -1.366300000e-02
1148500000.0 -1.002552000e+00 -2.290200000e-02
1153000000.0 -9.973870000e-01 -7.340000000e-04
1157500000.0 -9.875310000e-01 2.197600000e-02
1162000000.0 -1.003422000e+00 -6.199000000e-03
1166500000.0 -1.003012000e+00 -2.559000000e-03
1171000000.0 -1.000178000e+00 -1.043000000e-02
1175500000.0 -9.996470000e-01 -3.229000000e-03
1180000000.0 -1.001328000e+00 -8.258000000e-03
1184500000.0 -1.000690000e+00 -5.893000000e-03
1189000000.0 -1.002676000e+00 2.348000000e-03
1193500000.0 -1.000769000e+00 -2.042000000e-03
1198000000.0 -9.964390000e-01 -2.468000000e-03
1202500000.0 -1.001438000e+00 -5.804000000e-03
1207000000.0 -1.000009000e+00 -6.210000000e-04
1211500000.0 -9.988860000e-01 -6.303000000e-03
1216000000.0 -1.000310000e+00 -4.508000000e-03
1220500000.0 -9.976660000e-01 -6.393000000e-03
1225000000.0 -9.949580000e-01 -6.909000000e-03
1229500000.0 -9.998810000e-01 -4.029000000e-03
1234000000.0 -1.005701000e+00 -6.873000000e-03
1238500000.0 -1.007328000e+00 -4.053000000e-03
1243000000.0 -1.000723000e+00 -1.031800000e-02
1247500000.0 -1.003867000e+00 -8.291000000e-03
1252000000.0 -1.005423000e+00 -3.523000000e-03
1256500000.0 -1.004523000e+00 -4.828000000e-03
1261000000.0 -1.008738000e+00 -1.221000000e-02
1265500000.0 -1.004025000e+00 -6.829000000e-03
1270000000.0 -1.004653000e+00 -8.074000000e-03
1274500000.0 -1.007639000e+00 -2.542000000e-03
1279000000.0 -1.007648000e+00 -6.012000000e-03
1283500000.0 -1.006855000e+00 -7.940000000e-03
1288000000.0 -1.002348000e+00 -4.592000000e-03
1292500000.0 -1.001265000e+00 -1.593000000e-03
1297000000.0 -1.007512000e+00 -6.610000000e-04
1301500000.0 -1.124630000e+00 -6.784000000e-02
1306000000.0 -1.002513000e+00 -5.850000000e-03
1310500000.0 -1.000256000e+00 -2.726000000e-03
1315000000.0 -1.001159000e+00 -8.647000000e-03
1319500000.0 -9.935670000e-01 -6.962000000e-03
1324000000.0 -1.001173000e+00 -3.520000000e-03
1328500000.0 -9.956610000e-01 5.534000000e-03
1333000000.0 -9.972730000e-01 6.240000000e-04
1337500000.0 -9.906730000e-01 -1.228000000e-03
1342000000.0 -9.925750000e-01 -8.260000000e-03
1346500000.0 -9.962550000e-01 -1.532000000e-03
1351000000.0 -9.934790000e-01 5.973000000e-03
1355500000.0 -9.930180000e-01 -5.154000000e-03
1360000000.0 -9.906960000e-01 -9.210000000e-04
1364500000.0 -9.983870000e-01 -1.060700000e-02
1369000000.0 -9.944550000e-01 -2.773000000e-03
1373500000.0 -9.984410000e-01 -4.099000000e-03
1378000000.0 -1.001639000e+00 -5.059000000e-03
1382500000.0 -9.979440000e-01 5.446000000e-03
1387000000.0 -1.008366000e+00 -4.680000000e-03
1391500000.0 -1.003939000e+00 -1.425000000e-03
1396000000.0 -1.006951000e+00 -2.016000000e-03
1400500000.0 -1.004028000e+00 1.657000000e-03
1405000000.0 -1.003234000e+00 -7.100000000e-03
1409500000.0 -1.006747000e+00 -9.812000000e-03
1414000000.0 -1.007413000e+00 1.789000000e-03
1418500000.0 -1.006152000e+00 -2.921000000e-03
1423000000.0 -1.006922000e+00 3.396000000e-03
1427500000.0 -1.009415000e+00 -7.797000000e-03
1432000000.0 -1.010387000e+00 -7.699000000e-03
1436500000.0 -1.012682000e+00 -6.855000000e-03
1441000000.0 -1.011281000e+00 -4.782000000e-03
1445500000.0 -1.009684000e+00 -1.298500000e-02
1450000000.0 -1.010578000e+00 -3.385000000e-03
