! piloto_deriva / sol_corto / r01
# HZ S RI R 50
50000.0 1.008315000e+00 -7.065200000e-02
59500.0 1.003648000e+00 -5.654300000e-02
69000.0 1.004094000e+00 -4.312200000e-02
78500.0 1.002792000e+00 -2.877200000e-02
88000.0 1.000618000e+00 -1.785100000e-02
97500.0 1.000997000e+00 -4.351000000e-03
107000.0 1.000311000e+00 7.407000000e-03
116500.0 9.998470000e-01 2.035700000e-02
126000.0 1.000868000e+00 3.406900000e-02
135500.0 1.000143000e+00 4.441000000e-02
145000.0 1.001504000e+00 5.733200000e-02
154500.0 1.002255000e+00 6.991900000e-02
164000.0 1.002026000e+00 8.169700000e-02
173500.0 1.001658000e+00 9.404300000e-02
183000.0 1.002824000e+00 1.053610000e-01
192500.0 1.002672000e+00 1.162670000e-01
202000.0 1.003356000e+00 1.283380000e-01
211500.0 1.003316000e+00 1.391980000e-01
221000.0 1.003807000e+00 1.510910000e-01
230500.0 1.004171000e+00 1.632700000e-01
240000.0 1.006391000e+00 2.107110000e-01
249500.0 1.005204000e+00 1.849700000e-01
259000.0 1.005400000e+00 1.965200000e-01
268500.0 1.005127000e+00 2.078390000e-01
278000.0 1.005373000e+00 2.186090000e-01
287500.0 1.005493000e+00 2.307540000e-01
297000.0 1.005802000e+00 2.402680000e-01
306500.0 1.005515000e+00 2.517670000e-01
316000.0 1.005461000e+00 2.626540000e-01
325500.0 1.006879000e+00 2.737670000e-01
335000.0 1.007610000e+00 2.847620000e-01
344500.0 1.007356000e+00 2.947430000e-01
354000.0 1.007728000e+00 3.056610000e-01
363500.0 1.007206000e+00 3.167220000e-01
373000.0 1.007203000e+00 3.271020000e-01
382500.0 1.007390000e+00 3.377950000e-01
392000.0 1.008026000e+00 3.480460000e-01
401500.0 1.008310000e+00 3.588500000e-01
411000.0 1.008737000e+00 3.691580000e-01
420500.0 1.009362000e+00 3.790430000e-01
430000.0 1.008821000e+00 3.896870000e-01
439500.0 1.009484000e+00 3.989930000e-01
449000.0 1.009846000e+00 4.093000000e-01
458500.0 1.009798000e+00 4.196850000e-01
468000.0 1.009712000e+00 4.300310000e-01
477500.0 1.011005000e+00 4.408210000e-01
487000.0 1.010640000e+00 4.503470000e-01
496500.0 1.011303000e+00 4.599010000e-01
506000.0 1.012264000e+00 4.704010000e-01
515500.0 1.012457000e+00 4.798540000e-01
525000.0 1.012486000e+00 4.905500000e-01
534500.0 1.012353000e+00 5.001170000e-01
544000.0 1.013682000e+00 5.101930000e-01
553500.0 1.013764000e+00 5.205200000e-01
563000.0 1.013900000e+00 5.297200000e-01
572500.0 1.014353000e+00 5.391370000e-01
582000.0 1.015020000e+00 5.490660000e-01
591500.0 1.015150000e+00 5.592320000e-01
601000.0 1.016160000e+00 5.687090000e-01
610500.0 1.017114000e+00 5.783370000e-01
620000.0 1.016904000e+00 5.888400000e-01
629500.0 1.018710000e+00 5.981750000e-01
639000.0 1.017856000e+00 6.073860000e-01
648500.0 1.020263000e+00 6.170210000e-01
658000.0 1.020226000e+00 6.270380000e-01
667500.0 1.021241000e+00 6.363210000e-01
677000.0 1.021498000e+00 6.458180000e-01
686500.0 1.022292000e+00 6.542110000e-01
696000.0 1.022430000e+00 6.639060000e-01
705500.0 1.023824000e+00 6.739100000e-01
715000.0 1.025106000e+00 6.820210000e-01
724500.0 1.026278000e+00 6.924760000e-01
734000.0 1.026417000e+00 7.021060000e-01
743500.0 1.028374000e+00 7.109070000e-01
753000.0 1.029475000e+00 7.206660000e-01
762500.0 1.030635000e+00 7.295040000e-01
772000.0 1.031264000e+00 7.400450000e-01
781500.0 1.031411000e+00 7.489060000e-01
791000.0 1.034175000e+00 7.590830000e-01
800500.0 1.035383000e+00 7.679260000e-01
810000.0 1.036618000e+00 7.759140000e-01
819500.0 1.038285000e+00 7.850640000e-01
829000.0 1.040093000e+00 7.945420000e-01
838500.0 1.041602000e+00 8.024460000e-01
848000.0 1.043220000e+00 8.127930000e-01
857500.0 1.044529000e+00 8.219980000e-01
867000.0 1.046847000e+00 8.309060000e-01
876500.0 1.048026000e+00 8.403240000e-01
886000.0 1.049490000e+00 8.484720000e-01
895500.0 1.051909000e+00 8.573930000e-01
905000.0 1.054867000e+00 8.672600000e-01
914500.0 1.056706000e+00 8.750610000e-01
924000.0 1.059005000e+00 8.863570000e-01
933500.0 1.060885000e+00 8.947600000e-01
943000.0 1.061659000e+00 9.030490000e-01
952500.0 1.064780000e+00 9.123200000e-01
962000.0 1.067385000e+00 9.205990000e-01
971500.0 1.070493000e+00 9.284920000e-01
981000.0 1.073252000e+00 9.382650000e-01
990500.0 1.075328000e+00 9.458750000e-01
1000000.0 1.078498000e+00 9.548760000e-01
1090000.0 1.106099000e+00 1.034850000e+00
1180000.0 1.144877000e+00 1.110029000e+00
1270000.0 1.192861000e+00 1.179290000e+00
1360000.0 1.253286000e+00 1.243150000e+00
1450000.0 1.322642000e+00 1.295275000e+00
1540000.0 1.401909000e+00 1.333346000e+00
1630000.0 1.488651000e+00 1.352549000e+00
1720000.0 1.574213000e+00 1.354623000e+00
1810000.0 1.666291000e+00 1.339455000e+00
1900000.0 1.751153000e+00 1.297347000e+00
1990000.0 1.829556000e+00 1.239031000e+00
2080000.0 1.889691000e+00 1.164158000e+00
2170000.0 1.935157000e+00 1.083755000e+00
2260000.0 1.957777000e+00 9.916490000e-01
2350000.0 1.966721000e+00 9.023420000e-01
2440000.0 1.958279000e+00 8.173920000e-01
2530000.0 1.943224000e+00 7.351370000e-01
2620000.0 1.913882000e+00 6.624130000e-01
2710000.0 1.880836000e+00 5.997670000e-01
2800000.0 1.843763000e+00 5.418580000e-01
2890000.0 1.806370000e+00 4.930590000e-01
2980000.0 1.766999000e+00 4.473790000e-01
3070000.0 1.728445000e+00 4.111260000e-01
3160000.0 1.690912000e+00 3.744620000e-01
3250000.0 1.653760000e+00 3.474200000e-01
3340000.0 1.621376000e+00 3.192210000e-01
3430000.0 1.588931000e+00 2.938760000e-01
3520000.0 1.557655000e+00 2.722760000e-01
3610000.0 1.529796000e+00 2.527160000e-01
3700000.0 1.503312000e+00 2.334430000e-01
3790000.0 1.479308000e+00 2.142480000e-01
3880000.0 1.455129000e+00 1.995210000e-01
3970000.0 1.434866000e+00 1.823310000e-01
4060000.0 1.414497000e+00 1.649390000e-01
4150000.0 1.397181000e+00 1.497400000e-01
4240000.0 1.380260000e+00 1.363280000e-01
4330000.0 1.364120000e+00 1.215680000e-01
4420000.0 1.350863000e+00 1.088190000e-01
4510000.0 1.338090000e+00 9.529700000e-02
4600000.0 1.327056000e+00 8.118500000e-02
4690000.0 1.316985000e+00 6.917100000e-02
4780000.0 1.307637000e+00 5.495000000e-02
4870000.0 1.299980000e+00 4.253200000e-02
4960000.0 1.293025000e+00 3.044400000e-02
5050000.0 1.276102000e+00 1.742000000e-02
5140000.0 1.271752000e+00 5.455000000e-03
5230000.0 1.268222000e+00 -6.315000000e-03
5320000.0 1.263772000e+00 -1.932100000e-02
5410000.0 1.258742000e+00 -3.070200000e-02
5500000.0 1.254413000e+00 -4.205600000e-02
5590000.0 1.251260000e+00 -5.530500000e-02
5680000.0 1.248253000e+00 -6.449700000e-02
5770000.0 1.244644000e+00 -7.718900000e-02
5860000.0 1.242410000e+00 -8.667100000e-02
5950000.0 1.239497000e+00 -9.779900000e-02
6040000.0 1.237430000e+00 -1.086690000e-01
6130000.0 1.234760000e+00 -1.174800000e-01
6220000.0 1.232985000e+00 -1.260980000e-01
6310000.0 1.230728000e+00 -1.368410000e-01
6400000.0 1.228550000e+00 -1.433320000e-01
6490000.0 1.225993000e+00 -1.512860000e-01
6580000.0 1.225219000e+00 -1.590600000e-01
6670000.0 1.223835000e+00 -1.669640000e-01
6760000.0 1.221674000e+00 -1.710580000e-01
6850000.0 1.222088000e+00 -1.779150000e-01
6940000.0 1.221590000e+00 -1.811240000e-01
7030000.0 1.219435000e+00 -1.852220000e-01
7120000.0 1.218914000e+00 -1.896700000e-01
7210000.0 1.220194000e+00 -1.917810000e-01
7300000.0 1.219474000e+00 -1.929770000e-01
7390000.0 1.219551000e+00 -1.932520000e-01
7480000.0 1.220346000e+00 -1.936050000e-01
7570000.0 -2.430120000e-01 -1.259928000e+00
7660000.0 -2.422980000e-01 -1.258891000e+00
7750000.0 -2.404630000e-01 -1.260255000e+00
7840000.0 -2.405880000e-01 -1.259685000e+00
7930000.0 -2.399310000e-01 -1.260123000e+00
8020000.0 -2.386070000e-01 -1.260836000e+00
8110000.0 -2.386610000e-01 -1.261385000e+00
8200000.0 -2.369200000e-01 -1.263456000e+00
8290000.0 -2.377860000e-01 -1.262757000e+00
8380000.0 -2.366430000e-01 -1.263401000e+00
8470000.0 -2.357490000e-01 -1.264715000e+00
8560000.0 -2.345260000e-01 -1.263404000e+00
8650000.0 -2.343560000e-01 -1.265154000e+00
8740000.0 -2.330190000e-01 -1.266358000e+00
8830000.0 -2.325740000e-01 -1.266609000e+00
8920000.0 -2.317280000e-01 -1.267496000e+00
9010000.0 -2.320840000e-01 -1.268074000e+00
9100000.0 -2.311610000e-01 -1.267470000e+00
9190000.0 -2.305290000e-01 -1.269451000e+00
9280000.0 -2.291370000e-01 -1.269965000e+00
9370000.0 -2.292020000e-01 -1.270588000e+00
9460000.0 -2.270010000e-01 -1.270851000e+00
9550000.0 -2.292330000e-01 -1.272491000e+00
9640000.0 -2.265850000e-01 -1.272388000e+00
9730000.0 -2.256900000e-01 -1.272617000e+00
9820000.0 -2.253950000e-01 -1.274056000e+00
9910000.0 -2.249460000e-01 -1.274486000e+00
10000000.0 -2.250280000e-01 -1.275725000e+00
10900000.0 -2.191850000e-01 -1.283758000e+00
11800000.0 -2.120740000e-01 -1.293472000e+00
12700000.0 -2.071230000e-01 -1.303171000e+00
13600000.0 -2.006770000e-01 -1.314785000e+00
14500000.0 -1.946410000e-01 -1.326074000e+00
15400000.0 -1.881060000e-01 -1.337322000e+00
16300000.0 -1.813670000e-01 -1.349682000e+00
17200000.0 -1.748570000e-01 -1.361887000e+00
18100000.0 -1.689640000e-01 -1.371813000e+00
19000000.0 -1.616700000e-01 -1.385780000e+00
19900000.0 -1.529360000e-01 -1.397800000e+00
20800000.0 -1.453590000e-01 -1.409695000e+00
21700000.0 -1.374060000e-01 -1.423929000e+00
22600000.0 -1.278050000e-01 -1.435421000e+00
23500000.0 -1.171580000e-01 -1.449999000e+00
24400000.0 -1.080900000e-01 -1.463025000e+00
25300000.0 -9.834300000e-02 -1.477383000e+00
26200000.0 -8.697600000e-02 -1.490694000e+00
27100000.0 -7.619300000e-02 -1.504849000e+00
28000000.0 -6.385700000e-02 -1.518936000e+00
28900000.0 -5.286800000e-02 -1.533248000e+00
29800000.0 -3.943000000e-02 -1.548262000e+00
30700000.0 -2.475400000e-02 -1.564360000e+00
31600000.0 -1.161700000e-02 -1.576697000e+00
32500000.0 3.198000000e-03 -1.592347000e+00
33400000.0 1.770800000e-02 -1.606218000e+00
34300000.0 3.552500000e-02 -1.620586000e+00
35200000.0 5.115600000e-02 -1.635804000e+00
36100000.0 6.859500000e-02 -1.650070000e+00
37000000.0 8.761300000e-02 -1.665822000e+00
37900000.0 1.062010000e-01 -1.678410000e+00
38800000.0 1.258640000e-01 -1.692868000e+00
39700000.0 1.447210000e-01 -1.707530000e+00
40600000.0 1.680400000e-01 -1.721197000e+00
41500000.0 1.881620000e-01 -1.735593000e+00
42400000.0 2.117580000e-01 -1.749717000e+00
43300000.0 2.376360000e-01 -1.763821000e+00
44200000.0 2.600750000e-01 -1.775103000e+00
45100000.0 2.859170000e-01 -1.787728000e+00
46000000.0 3.105050000e-01 -1.800664000e+00
46900000.0 3.387180000e-01 -1.813272000e+00
47800000.0 3.675390000e-01 -1.824437000e+00
48700000.0 3.970230000e-01 -1.834208000e+00
49600000.0 4.251610000e-01 -1.842964000e+00
50500000.0 4.573930000e-01 -1.852815000e+00
51400000.0 4.889040000e-01 -1.860071000e+00
52300000.0 5.209590000e-01 -1.867315000e+00
53200000.0 5.569760000e-01 -1.873796000e+00
54100000.0 5.900330000e-01 -1.879574000e+00
55000000.0 6.236000000e-01 -1.881669000e+00
55900000.0 6.587710000e-01 -1.886302000e+00
56800000.0 6.970530000e-01 -1.884972000e+00
57700000.0 7.356010000e-01 -1.884506000e+00
58600000.0 7.701710000e-01 -1.883353000e+00
59500000.0 8.108080000e-01 -1.881485000e+00
60400000.0 8.491170000e-01 -1.878697000e+00
61300000.0 8.877420000e-01 -1.869539000e+00
62200000.0 9.274900000e-01 -1.863984000e+00
63100000.0 9.661070000e-01 -1.850812000e+00
64000000.0 1.006132000e+00 -1.839865000e+00
64900000.0 1.046866000e+00 -1.828874000e+00
65800000.0 1.084638000e+00 -1.811784000e+00
66700000.0 1.122117000e+00 -1.796632000e+00
67600000.0 1.159371000e+00 -1.775852000e+00
68500000.0 1.197747000e+00 -1.755050000e+00
69400000.0 1.234725000e+00 -1.733553000e+00
70300000.0 1.267773000e+00 -1.710024000e+00
71200000.0 1.304858000e+00 -1.684711000e+00
72100000.0 1.337479000e+00 -1.657862000e+00
73000000.0 1.367443000e+00 -1.628888000e+00
73900000.0 1.398400000e+00 -1.599909000e+00
74800000.0 1.427363000e+00 -1.567991000e+00
75700000.0 1.454222000e+00 -1.534127000e+00
76600000.0 1.479843000e+00 -1.501472000e+00
77500000.0 1.505630000e+00 -1.467834000e+00
78400000.0 1.528240000e+00 -1.432135000e+00
79300000.0 1.547382000e+00 -1.395461000e+00
80200000.0 1.565321000e+00 -1.357171000e+00
81100000.0 1.584653000e+00 -1.322820000e+00
82000000.0 1.598313000e+00 -1.284533000e+00
82900000.0 1.613559000e+00 -1.247195000e+00
83800000.0 1.625730000e+00 -1.211844000e+00
84700000.0 1.635090000e+00 -1.173945000e+00
85600000.0 1.645370000e+00 -1.136091000e+00
86500000.0 1.651595000e+00 -1.099958000e+00
87400000.0 1.655586000e+00 -1.063265000e+00
88300000.0 1.660680000e+00 -1.028416000e+00
89200000.0 1.663894000e+00 -9.909740000e-01
90100000.0 1.664797000e+00 -9.584530000e-01
91000000.0 1.664374000e+00 -9.219690000e-01
91900000.0 1.664986000e+00 -8.887070000e-01
92800000.0 1.659620000e+00 -8.533650000e-01
93700000.0 1.657402000e+00 -8.243680000e-01
94600000.0 1.652810000e+00 -7.920020000e-01
95500000.0 1.647543000e+00 -7.617130000e-01
96400000.0 1.640753000e+00 -7.309480000e-01
97300000.0 1.634564000e+00 -7.023700000e-01
98200000.0 1.627246000e+00 -6.750770000e-01
99100000.0 1.618303000e+00 -6.479140000e-01
100000000.0 1.609102000e+00 -6.211460000e-01
109000000.0 1.502102000e+00 -3.996580000e-01
118000000.0 1.377381000e+00 -2.445510000e-01
127000000.0 1.258829000e+00 -1.387140000e-01
136000000.0 1.147494000e+00 -6.874600000e-02
145000000.0 1.049232000e+00 -1.976400000e-02
154000000.0 1.001032000e+00 3.570000000e-04
163000000.0 1.001192000e+00 1.012000000e-03
172000000.0 1.002545000e+00 -3.130000000e-04
181000000.0 1.003642000e+00 -1.298000000e-03
190000000.0 1.004323000e+00 -1.657000000e-03
199000000.0 1.005282000e+00 -1.369000000e-03
208000000.0 1.004950000e+00 -1.909000000e-03
217000000.0 1.005478000e+00 -2.016000000e-03
226000000.0 1.005086000e+00 -2.069000000e-03
235000000.0 1.006638000e+00 -8.850000000e-04
244000000.0 1.006541000e+00 -5.410000000e-04
253000000.0 1.005847000e+00 -2.366000000e-03
262000000.0 1.005804000e+00 -1.957000000e-03
271000000.0 1.004825000e+00 -8.230000000e-04
280000000.0 1.003447000e+00 4.400000000e-05
289000000.0 1.001959000e+00 1.360000000e-04
298000000.0 1.002270000e+00 -8.910000000e-04
307000000.0 1.001972000e+00 -1.300000000e-04
316000000.0 1.003839000e+00 4.710000000e-04
325000000.0 1.004408000e+00 4.560000000e-04
334000000.0 1.006394000e+00 9.180000000e-04
343000000.0 1.003354000e+00 -2.196000000e-03
352000000.0 1.005507000e+00 -1.261000000e-03
361000000.0 1.175789000e+00 1.976600000e-02
370000000.0 1.006803000e+00 1.300000000e-03
379000000.0 1.006036000e+00 7.100000000e-04
388000000.0 1.001583000e+00 -3.678300000e-02
397000000.0 1.004366000e+00 -1.670700000e-02
406000000.0 9.867020000e-01 -4.786900000e-02
415000000.0 1.003749000e+00 -1.487000000e-03
424000000.0 1.002914000e+00 1.998000000e-03
433000000.0 1.001402000e+00 -3.350000000e-04
442000000.0 1.000566000e+00 5.690000000e-04
451000000.0 9.995940000e-01 1.842000000e-03
460000000.0 1.001609000e+00 6.320000000e-04
469000000.0 1.002220000e+00 4.399000000e-03
478000000.0 1.004138000e+00 5.231000000e-03
487000000.0 1.005773000e+00 4.362000000e-03
496000000.0 1.006966000e+00 4.148000000e-03
505000000.0 1.007604000e+00 5.528000000e-03
514000000.0 1.007972000e+00 5.116000000e-03
523000000.0 1.008319000e+00 8.290000000e-03
532000000.0 1.010575000e+00 8.975000000e-03
541000000.0 1.008803000e+00 8.569000000e-03
550000000.0 1.008558000e+00 9.301000000e-03
559000000.0 1.008993000e+00 7.780000000e-03
568000000.0 1.008950000e+00 7.930000000e-03
577000000.0 1.004826000e+00 8.291000000e-03
586000000.0 1.003920000e+00 8.223000000e-03
595000000.0 1.002853000e+00 1.135500000e-02
604000000.0 1.005311000e+00 5.001000000e-03
613000000.0 1.007275000e+00 8.248000000e-03
622000000.0 1.008428000e+00 9.805000000e-03
631000000.0 1.011941000e+00 8.724000000e-03
640000000.0 1.014480000e+00 1.362700000e-02
649000000.0 1.017479000e+00 9.597000000e-03
658000000.0 1.015522000e+00 1.195200000e-02
667000000.0 1.021362000e+00 1.155000000e-02
676000000.0 1.016605000e+00 1.180600000e-02
685000000.0 1.018533000e+00 1.073300000e-02
694000000.0 1.014210000e+00 7.630000000e-03
703000000.0 1.015312000e+00 6.995000000e-03
712000000.0 1.010813000e+00 3.501000000e-03
721000000.0 1.014026000e+00 4.419000000e-03
730000000.0 1.009408000e+00 4.662000000e-03
739000000.0 1.005956000e+00 2.490000000e-03
748000000.0 1.000788000e+00 -1.703000000e-03
757000000.0 1.001869000e+00 1.125000000e-03
766000000.0 1.006048000e+00 -3.410000000e-04
775000000.0 1.010322000e+00 6.750000000e-04
784000000.0 1.014606000e+00 -6.564000000e-03
793000000.0 1.016235000e+00 -4.126000000e-03
802000000.0 1.017630000e+00 -2.548000000e-03
811000000.0 1.017182000e+00 -5.168000000e-03
820000000.0 1.017419000e+00 -5.994000000e-03
829000000.0 1.017648000e+00 -7.569000000e-03
838000000.0 1.015850000e+00 -5.312000000e-03
847000000.0 1.018709000e+00 -6.423000000e-03
856000000.0 1.014367000e+00 8.660000000e-04
865000000.0 1.011620000e+00 -3.996000000e-03
874000000.0 1.011459000e+00 -6.464000000e-03
883000000.0 1.006823000e+00 1.055000000e-03
892000000.0 1.005564000e+00 1.078000000e-03
901000000.0 1.000011000e+00 2.030000000e-04
910000000.0 9.986170000e-01 -3.151000000e-03
919000000.0 1.002467000e+00 -5.690000000e-03
928000000.0 1.003685000e+00 -8.335000000e-03
937000000.0 1.004235000e+00 -1.033700000e-02
946000000.0 1.005297000e+00 -5.691000000e-03
955000000.0 1.003080000e+00 -8.098000000e-03
964000000.0 1.006350000e+00 -1.651900000e-02
973000000.0 1.003769000e+00 -1.187600000e-02
982000000.0 1.005611000e+00 -1.087700000e-02
991000000.0 1.002710000e+00 -9.199000000e-03
1000000000.0 1.005575000e+00 -3.373000000e-03
1004500000.0 1.003485000e+00 -6.201000000e-03
1009000000.0 1.003880000e+00 -7.667000000e-03
1013500000.0 1.003327000e+00 -6.536000000e-03
1018000000.0 1.001690000e+00 -4.081000000e-03
1022500000.0 1.002579000e+00 -2.708000000e-03
1027000000.0 1.001959000e+00 -5.529000000e-03
1031500000.0 1.000886000e+00 -2.622000000e-03
1036000000.0 1.003760000e+00 -2.970000000e-03
1040500000.0 1.003531000e+00 -2.462000000e-03
1045000000.0 1.003500000e+00 -1.353000000e-03
1049500000.0 1.002333000e+00 -5.713000000e-03
1054000000.0 9.978680000e-01 9.420000000e-04
1058500000.0 1.002936000e+00 -4.824000000e-03
1063000000.0 9.989860000e-01 -6.142000000e-03
1067500000.0 9.988460000e-01 -2.510000000e-03
1072000000.0 1.002589000e+00 -7.850000000e-04
1076500000.0 1.000635000e+00 -8.500000000e-05
1081000000.0 9.985610000e-01 -5.629000000e-03
1085500000.0 1.004147000e+00 -4.814000000e-03
1090000000.0 1.003184000e+00 5.800000000e-04
1094500000.0 1.006130000e+00 1.534000000e-03
1099000000.0 1.004530000e+00 -4.564000000e-03
1103500000.0 1.002900000e+00 -2.967000000e-03
1108000000.0 1.001144000e+00 -3.375000000e-03
1112500000.0 1.005735000e+00 -3.652000000e-03
1117000000.0 1.002085000e+00 -1.116900000e-02
1121500000.0 9.961060000e-01 -7.257200000e-02
1126000000.0 1.004113000e+00 -3.914000000e-03
1130500000.0 1.005159000e+00 -9.039000000e-03
1135000000.0 1.000474000e+00 -3.798500000e-02
1139500000.0 1.005825000e+00 -2.423000000e-03
1144000000.0 1.006130000e+00 -2.653000000e-03
1148500000.0 9.989780000e-01 -2.158000000e-03
1153000000.0 1.014305000e+00 3.590500000e-02
1157500000.0 1.007539000e+00 -4.230000000e-04
1162000000.0 1.003385000e+00 -5.326000000e-03
1166500000.0 1.002926000e+00 -4.609000000e-03
1171000000.0 1.000908000e+00 -7.197000000e-03
1175500000.0 1.004728000e+00 -1.977000000e-03
1180000000.0 1.007373000e+00 -5.801000000e-03
1184500000.0 1.007879000e+00 -2.758000000e-03
1189000000.0 1.003891000e+00 -1.700000000e-03
1193500000.0 1.003187000e+00 -8.982000000e-03
1198000000.0 1.002119000e+00 2.983000000e-03
1202500000.0 1.001187000e+00 -7.335000000e-03
1207000000.0 1.004189000e+00 -5.123000000e-03
1211500000.0 1.006763000e+00 -9.508000000e-03
1216000000.0 9.998640000e-01 -1.048600000e-02
1220500000.0 1.002474000e+00 -3.801000000e-03
1225000000.0 1.006276000e+00 -6.403000000e-03
1229500000.0 1.005994000e+00 4.925000000e-03
1234000000.0 1.005619000e+00 -2.873000000e-03
1238500000.0 1.003433000e+00 -1.135700000e-02
1243000000.0 1.005695000e+00 -6.063000000e-03
1247500000.0 1.001719000e+00 -3.776000000e-03
1252000000.0 1.012155000e+00 -5.800000000e-04
1256500000.0 1.005475000e+00 -7.053000000e-03
1261000000.0 1.001951000e+00 -5.420000000e-03
1265500000.0 1.007495000e+00 -7.974000000e-03
1270000000.0 1.003223000e+00 -4.556000000e-03
1274500000.0 1.004584000e+00 -2.619000000e-03
1279000000.0 1.006264000e+00 4.594000000e-03
1283500000.0 1.000298000e+00 4.400000000e-04
1288000000.0 9.957930000e-01 -2.986000000e-03
1292500000.0 1.005167000e+00 1.224000000e-03
1297000000.0 1.006024000e+00 -4.950000000e-03
1301500000.0 9.880980000e-01 -1.239410000e-01
1306000000.0 1.002654000e+00 5.610000000e-04
1310500000.0 1.003655000e+00 -1.381000000e-03
1315000000.0 1.006897000e+00 -2.749000000e-03
1319500000.0 1.000045000e+00 -1.717500000e-02
1324000000.0 1.007268000e+00 1.203300000e-02
1328500000.0 1.004654000e+00 1.873300000e-02
1333000000.0 1.002599000e+00 9.336000000e-03
1337500000.0 1.002771000e+00 -2.338300000e-02
1342000000.0 1.007648000e+00 1.227300000e-02
1346500000.0 1.009471000e+00 2.126900000e-02
1351000000.0 1.005309000e+00 1.825400000e-02
1355500000.0 1.003078000e+00 1.096600000e-02
1360000000.0 9.994250000e-01 4.540000000e-03
1364500000.0 1.006667000e+00 1.333800000e-02
1369000000.0 1.004289000e+00 1.457000000e-02
1373500000.0 1.005945000e+00 2.030200000e-02
1378000000.0 1.003059000e+00 6.958000000e-03
1382500000.0 1.003648000e+00 6.085000000e-03
1387000000.0 1.004925000e+00 1.219800000e-02
1391500000.0 9.996340000e-01 9.373000000e-03
1396000000.0 1.007775000e+00 1.930400000e-02
1400500000.0 1.004978000e+00 9.501000000e-03
1405000000.0 1.001819000e+00 1.309800000e-02
1409500000.0 1.009121000e+00 1.855100000e-02
1414000000.0 1.007602000e+00 1.649500000e-02
1418500000.0 1.003696000e+00 9.381000000e-03
1423000000.0 1.004343000e+00 1.651200000e-02
1427500000.0 1.016988000e+00 1.702700000e-02
1432000000.0 1.000851000e+00 1.101100000e-02
1436500000.0 1.003412000e+00 1.184800000e-02
1441000000.0 1.002803000e+00 1.132300000e-02
1445500000.0 1.001355000e+00 1.052900000e-02
1450000000.0 1.003007000e+00 1.332500000e-02
