! piloto_deriva / sol_carga / r03
# HZ S RI R 50
50000.0 -3.625000000e-03 -2.590000000e-02
59500.0 -2.986000000e-03 -1.771900000e-02
69000.0 -4.532000000e-03 -1.155500000e-02
78500.0 -2.192000000e-03 -7.632000000e-03
88000.0 -1.134000000e-03 -4.092000000e-03
97500.0 -5.770000000e-04 -1.129000000e-03
107000.0 -6.270000000e-04 1.819000000e-03
116500.0 -4.880000000e-04 3.831000000e-03
126000.0 4.130000000e-04 4.911000000e-03
135500.0 -1.200000000e-04 7.361000000e-03
145000.0 7.640000000e-04 8.003000000e-03
154500.0 1.020000000e-03 8.989000000e-03
164000.0 9.710000000e-04 1.004000000e-02
173500.0 1.238000000e-03 1.154800000e-02
183000.0 1.278000000e-03 1.226300000e-02
192500.0 1.491000000e-03 1.306900000e-02
202000.0 1.308000000e-03 1.292900000e-02
211500.0 1.969000000e-03 1.403900000e-02
221000.0 2.199000000e-03 1.490600000e-02
230500.0 2.089000000e-03 1.512900000e-02
240000.0 1.777000000e-03 1.513800000e-02
249500.0 2.852000000e-03 1.649400000e-02
259000.0 2.509000000e-03 1.681900000e-02
268500.0 2.511000000e-03 1.668500000e-02
278000.0 2.750000000e-03 1.747600000e-02
287500.0 2.684000000e-03 1.763800000e-02
297000.0 2.744000000e-03 1.828600000e-02
306500.0 3.159000000e-03 1.908000000e-02
316000.0 2.769000000e-03 1.865400000e-02
325500.0 2.897000000e-03 1.931600000e-02
335000.0 2.621000000e-03 1.962700000e-02
344500.0 -6.085000000e-03 3.153000000e-03
354000.0 2.896000000e-03 1.933100000e-02
363500.0 3.252000000e-03 2.039000000e-02
373000.0 3.350000000e-03 2.095100000e-02
382500.0 3.788000000e-03 2.049800000e-02
392000.0 4.181000000e-03 2.071000000e-02
401500.0 3.839000000e-03 2.103100000e-02
411000.0 4.531000000e-03 2.198600000e-02
420500.0 4.166000000e-03 2.154900000e-02
430000.0 4.298000000e-03 2.156900000e-02
439500.0 5.026000000e-03 2.310200000e-02
449000.0 3.908000000e-03 2.230100000e-02
458500.0 4.544000000e-03 2.291700000e-02
468000.0 4.868000000e-03 2.223400000e-02
477500.0 4.823000000e-03 2.216600000e-02
487000.0 4.561000000e-03 2.254100000e-02
496500.0 4.481000000e-03 2.372600000e-02
506000.0 4.525000000e-03 2.377300000e-02
515500.0 4.575000000e-03 2.380600000e-02
525000.0 5.440000000e-03 2.345100000e-02
534500.0 5.595000000e-03 2.367500000e-02
544000.0 5.588000000e-03 2.320400000e-02
553500.0 5.130000000e-03 2.475400000e-02
563000.0 5.346000000e-03 2.389300000e-02
572500.0 5.587000000e-03 2.505800000e-02
582000.0 5.328000000e-03 2.466000000e-02
591500.0 5.492000000e-03 2.519300000e-02
601000.0 5.319000000e-03 2.513500000e-02
610500.0 5.649000000e-03 2.488100000e-02
620000.0 5.997000000e-03 2.527700000e-02
629500.0 6.019000000e-03 2.503900000e-02
639000.0 6.036000000e-03 2.580000000e-02
648500.0 5.959000000e-03 2.496800000e-02
658000.0 6.373000000e-03 2.483200000e-02
667500.0 5.488000000e-03 2.478300000e-02
677000.0 5.939000000e-03 2.585600000e-02
686500.0 6.200000000e-03 2.521200000e-02
696000.0 5.891000000e-03 2.555700000e-02
705500.0 6.839000000e-03 2.626300000e-02
715000.0 6.834000000e-03 2.613700000e-02
724500.0 7.094000000e-03 2.526400000e-02
734000.0 6.372000000e-03 2.579000000e-02
743500.0 6.846000000e-03 2.710400000e-02
753000.0 6.484000000e-03 2.653600000e-02
762500.0 6.420000000e-03 2.655400000e-02
772000.0 6.839000000e-03 2.656300000e-02
781500.0 7.263000000e-03 2.660600000e-02
791000.0 7.724000000e-03 2.686500000e-02
800500.0 7.297000000e-03 2.785100000e-02
810000.0 7.361000000e-03 2.729100000e-02
819500.0 7.460000000e-03 2.723200000e-02
829000.0 7.218000000e-03 2.686000000e-02
838500.0 7.988000000e-03 2.662000000e-02
848000.0 8.831000000e-03 2.784300000e-02
857500.0 8.775000000e-03 2.634300000e-02
867000.0 8.711000000e-03 2.672600000e-02
876500.0 7.519000000e-03 2.645700000e-02
886000.0 8.922000000e-03 2.776600000e-02
895500.0 9.355000000e-03 2.817200000e-02
905000.0 8.070000000e-03 2.691000000e-02
914500.0 9.208000000e-03 2.785200000e-02
924000.0 8.801000000e-03 2.734600000e-02
933500.0 7.949000000e-03 2.775700000e-02
943000.0 9.100000000e-03 2.789600000e-02
952500.0 9.022000000e-03 2.699800000e-02
962000.0 7.343000000e-03 2.684700000e-02
971500.0 9.645000000e-03 2.776300000e-02
981000.0 1.050400000e-02 2.603400000e-02
990500.0 8.750000000e-03 2.730600000e-02
1000000.0 1.020700000e-02 2.692400000e-02
1090000.0 1.109800000e-02 2.700100000e-02
1180000.0 1.225300000e-02 2.633300000e-02
1270000.0 1.391000000e-02 2.902900000e-02
1360000.0 1.398600000e-02 2.601900000e-02
1450000.0 1.488400000e-02 2.663400000e-02
1540000.0 1.703700000e-02 2.585100000e-02
1630000.0 1.743700000e-02 2.500900000e-02
1720000.0 1.823800000e-02 2.251500000e-02
1810000.0 1.888700000e-02 2.111900000e-02
1900000.0 1.874300000e-02 1.961200000e-02
1990000.0 1.924600000e-02 1.792200000e-02
2080000.0 1.679500000e-02 1.645300000e-02
2170000.0 1.714900000e-02 1.462100000e-02
2260000.0 1.642500000e-02 1.290600000e-02
2350000.0 1.434600000e-02 1.210600000e-02
2440000.0 1.420700000e-02 1.026300000e-02
2530000.0 1.141000000e-02 9.715000000e-03
2620000.0 9.721000000e-03 9.468000000e-03
2710000.0 8.942000000e-03 8.698000000e-03
2800000.0 7.727000000e-03 8.504000000e-03
2890000.0 5.693000000e-03 8.340000000e-03
2980000.0 6.333000000e-03 8.320000000e-03
3070000.0 6.642000000e-03 8.001000000e-03
3160000.0 4.532000000e-03 8.609000000e-03
3250000.0 2.950000000e-03 8.615000000e-03
3340000.0 3.603000000e-03 7.435000000e-03
3430000.0 2.121000000e-03 8.931000000e-03
3520000.0 2.141000000e-03 8.709000000e-03
3610000.0 2.040000000e-03 1.037700000e-02
3700000.0 1.252000000e-03 9.503000000e-03
3790000.0 6.800000000e-04 1.074800000e-02
3880000.0 -3.900000000e-05 1.030500000e-02
3970000.0 -4.200000000e-05 9.781000000e-03
4060000.0 -4.460000000e-04 9.250000000e-03
4150000.0 -1.354000000e-03 8.909000000e-03
4240000.0 -9.640000000e-04 9.617000000e-03
4330000.0 -1.578000000e-03 9.132000000e-03
4420000.0 -2.731000000e-03 9.137000000e-03
4510000.0 -2.178000000e-03 9.300000000e-03
4600000.0 -2.137000000e-03 9.890000000e-03
4690000.0 -1.679000000e-03 8.381000000e-03
4780000.0 -2.499000000e-03 9.788000000e-03
4870000.0 -2.747000000e-03 9.548000000e-03
4960000.0 -3.214000000e-03 9.628000000e-03
5050000.0 -2.819000000e-03 8.667000000e-03
5140000.0 -2.481000000e-03 9.311000000e-03
5230000.0 -2.899000000e-03 9.795000000e-03
5320000.0 -2.185000000e-03 9.576000000e-03
5410000.0 -2.223000000e-03 9.924000000e-03
5500000.0 -3.132000000e-03 9.662000000e-03
5590000.0 -2.532000000e-03 9.775000000e-03
5680000.0 -2.378000000e-03 8.863000000e-03
5770000.0 -3.394000000e-03 9.528000000e-03
5860000.0 -3.597000000e-03 9.374000000e-03
5950000.0 -3.500000000e-03 8.651000000e-03
6040000.0 -2.711000000e-03 9.032000000e-03
6130000.0 -2.489000000e-03 9.094000000e-03
6220000.0 -2.806000000e-03 9.085000000e-03
6310000.0 -3.121000000e-03 9.132000000e-03
6400000.0 -3.184000000e-03 9.388000000e-03
6490000.0 -2.731000000e-03 9.321000000e-03
6580000.0 -3.457000000e-03 8.349000000e-03
6670000.0 -3.835000000e-03 8.255000000e-03
6760000.0 -3.834000000e-03 8.953000000e-03
6850000.0 -3.716000000e-03 8.049000000e-03
6940000.0 -3.134000000e-03 8.353000000e-03
7030000.0 -2.471000000e-03 8.412000000e-03
7120000.0 -3.531000000e-03 7.871000000e-03
7210000.0 -3.787000000e-03 8.065000000e-03
7300000.0 -3.689000000e-03 8.160000000e-03
7390000.0 -4.378000000e-03 7.987000000e-03
7480000.0 -3.567000000e-03 8.612000000e-03
7570000.0 -1.777100000e-02 2.066000000e-03
7660000.0 -1.886700000e-02 6.170000000e-04
7750000.0 -1.883600000e-02 1.319000000e-03
7840000.0 -1.861900000e-02 1.301000000e-03
7930000.0 -1.911500000e-02 1.109000000e-03
8020000.0 -1.935600000e-02 6.010000000e-04
8110000.0 -1.920600000e-02 1.347000000e-03
8200000.0 -1.860500000e-02 9.530000000e-04
8290000.0 -1.804300000e-02 5.260000000e-04
8380000.0 -1.905600000e-02 6.080000000e-04
8470000.0 -1.850700000e-02 1.288000000e-03
8560000.0 -1.805000000e-02 7.540000000e-04
8650000.0 -1.850400000e-02 1.934000000e-03
8740000.0 -1.908000000e-02 1.358000000e-03
8830000.0 -1.877500000e-02 1.380000000e-03
8920000.0 -1.839400000e-02 1.513000000e-03
9010000.0 -1.846600000e-02 1.183000000e-03
9100000.0 -1.867300000e-02 1.021000000e-03
9190000.0 -1.748200000e-02 2.210000000e-04
9280000.0 -1.821600000e-02 1.100000000e-04
9370000.0 -1.847100000e-02 1.455000000e-03
9460000.0 -1.894800000e-02 5.070000000e-04
9550000.0 -1.753300000e-02 3.940000000e-04
9640000.0 -1.821100000e-02 1.290000000e-04
9730000.0 -1.894000000e-02 3.890000000e-04
9820000.0 -1.816300000e-02 -6.500000000e-05
9910000.0 -1.886500000e-02 5.590000000e-04
10000000.0 -1.875200000e-02 1.029000000e-03
10900000.0 -1.843700000e-02 2.180000000e-04
11800000.0 -1.845600000e-02 1.095000000e-03
12700000.0 -1.772300000e-02 -4.070000000e-04
13600000.0 -1.790300000e-02 1.750000000e-04
14500000.0 -1.897500000e-02 1.700000000e-05
15400000.0 -1.872000000e-02 2.190000000e-04
16300000.0 -1.787700000e-02 -2.100000000e-05
17200000.0 -1.938100000e-02 -2.730000000e-04
18100000.0 -1.874700000e-02 -3.490000000e-04
19000000.0 -1.811200000e-02 -6.860000000e-04
19900000.0 -1.875600000e-02 -1.195000000e-03
20800000.0 -1.761100000e-02 -1.536000000e-03
21700000.0 -1.755500000e-02 -1.793000000e-03
22600000.0 -1.907000000e-02 -8.810000000e-04
23500000.0 -1.826400000e-02 -7.770000000e-04
24400000.0 -1.875000000e-02 -1.086000000e-03
25300000.0 -1.856600000e-02 -1.105000000e-03
26200000.0 -1.770100000e-02 -1.900000000e-03
27100000.0 -1.798800000e-02 -2.420000000e-03
28000000.0 -1.840300000e-02 -2.401000000e-03
28900000.0 -1.849900000e-02 -2.297000000e-03
29800000.0 -1.899800000e-02 -2.041000000e-03
30700000.0 -1.908300000e-02 -1.861000000e-03
31600000.0 -1.878200000e-02 -2.937000000e-03
32500000.0 -1.842000000e-02 -3.097000000e-03
33400000.0 -1.852500000e-02 -3.132000000e-03
34300000.0 -1.826300000e-02 -3.471000000e-03
35200000.0 -1.872600000e-02 -2.546000000e-03
36100000.0 -1.791400000e-02 -4.557000000e-03
37000000.0 -1.821400000e-02 -4.041000000e-03
37900000.0 -1.938000000e-02 -4.584000000e-03
38800000.0 -1.777200000e-02 -4.734000000e-03
39700000.0 -1.831900000e-02 -4.429000000e-03
40600000.0 -1.693600000e-02 -5.455000000e-03
41500000.0 -1.878800000e-02 -4.356000000e-03
42400000.0 -1.796400000e-02 -4.973000000e-03
43300000.0 -1.760000000e-02 -6.532000000e-03
44200000.0 -1.759400000e-02 -5.728000000e-03
45100000.0 -1.887100000e-02 -6.209000000e-03
46000000.0 -1.761400000e-02 -6.488000000e-03
46900000.0 -1.588000000e-02 -7.554000000e-03
47800000.0 -1.762300000e-02 -6.343000000e-03
48700000.0 -1.676700000e-02 -6.515000000e-03
49600000.0 -1.578800000e-02 -7.839000000e-03
50500000.0 -1.680300000e-02 -7.663000000e-03
51400000.0 -1.756300000e-02 -9.087000000e-03
52300000.0 -1.753900000e-02 -7.245000000e-03
53200000.0 -1.637300000e-02 -8.188000000e-03
54100000.0 -1.654500000e-02 -7.744000000e-03
55000000.0 -1.584200000e-02 -9.895000000e-03
55900000.0 -1.630800000e-02 -8.742000000e-03
56800000.0 -1.552700000e-02 -8.788000000e-03
57700000.0 -1.566900000e-02 -8.912000000e-03
58600000.0 -1.435700000e-02 -9.534000000e-03
59500000.0 -1.374200000e-02 -9.980000000e-03
60400000.0 -1.371000000e-02 -1.152600000e-02
61300000.0 -1.426200000e-02 -1.033700000e-02
62200000.0 -1.486200000e-02 -1.017400000e-02
63100000.0 -1.325500000e-02 -1.000600000e-02
64000000.0 -1.362600000e-02 -1.050500000e-02
64900000.0 -1.401300000e-02 -1.153200000e-02
65800000.0 -1.341000000e-02 -1.246000000e-02
66700000.0 -1.273500000e-02 -1.092000000e-02
67600000.0 -1.451100000e-02 -1.138700000e-02
68500000.0 -1.251400000e-02 -1.094100000e-02
69400000.0 -1.095900000e-02 -1.079000000e-02
70300000.0 -1.152000000e-02 -1.259700000e-02
71200000.0 -1.087800000e-02 -1.253600000e-02
72100000.0 -1.051500000e-02 -1.192400000e-02
73000000.0 -1.124600000e-02 -1.206300000e-02
73900000.0 -1.069900000e-02 -1.199600000e-02
74800000.0 -9.147000000e-03 -1.319800000e-02
75700000.0 -1.069000000e-02 -1.179200000e-02
76600000.0 -9.481000000e-03 -1.118000000e-02
77500000.0 -9.375000000e-03 -1.256300000e-02
78400000.0 -8.733000000e-03 -1.224600000e-02
79300000.0 -7.008000000e-03 -1.191800000e-02
80200000.0 -7.517000000e-03 -1.214000000e-02
81100000.0 -7.032000000e-03 -1.225000000e-02
82000000.0 -6.741000000e-03 -1.114200000e-02
82900000.0 -9.034000000e-03 -1.228300000e-02
83800000.0 -4.827000000e-03 -1.077100000e-02
84700000.0 -6.466000000e-03 -1.090900000e-02
85600000.0 -4.611000000e-03 -1.233100000e-02
86500000.0 -6.623000000e-03 -1.095300000e-02
87400000.0 -4.678000000e-03 -1.065500000e-02
88300000.0 -5.893000000e-03 -9.369000000e-03
89200000.0 -5.125000000e-03 -1.204200000e-02
90100000.0 -4.916000000e-03 -1.055700000e-02
91000000.0 -3.094000000e-03 -1.013400000e-02
91900000.0 -5.147000000e-03 -1.124000000e-02
92800000.0 -3.863000000e-03 -9.491000000e-03
93700000.0 -3.325000000e-03 -9.361000000e-03
94600000.0 -3.197000000e-03 -9.541000000e-03
95500000.0 -4.250000000e-03 -1.023100000e-02
96400000.0 -3.632000000e-03 -8.475000000e-03
97300000.0 -4.437000000e-03 -8.615000000e-03
98200000.0 -1.881000000e-03 -8.242000000e-03
99100000.0 -2.291000000e-03 -7.275000000e-03
100000000.0 -1.749000000e-03 -7.882000000e-03
109000000.0 -1.245000000e-03 -6.363000000e-03
118000000.0 -8.360000000e-04 -5.817000000e-03
127000000.0 -3.580000000e-04 -1.988000000e-03
136000000.0 -5.400000000e-05 -2.028000000e-03
145000000.0 -4.750000000e-04 -8.040000000e-04
154000000.0 -1.144000000e-03 1.470000000e-04
163000000.0 -6.600000000e-05 8.000000000e-06
172000000.0 -5.970000000e-04 1.700000000e-04
181000000.0 -5.400000000e-05 8.200000000e-05
190000000.0 -2.760000000e-04 5.660000000e-04
199000000.0 -4.230000000e-04 -5.600000000e-05
208000000.0 -6.780000000e-04 4.290000000e-04
217000000.0 -3.340000000e-04 -3.700000000e-04
226000000.0 -4.850000000e-04 -7.600000000e-05
235000000.0 -4.860000000e-04 2.670000000e-04
244000000.0 -6.080000000e-04 3.300000000e-04
253000000.0 -4.260000000e-04 2.780000000e-04
262000000.0 -3.850000000e-04 4.170000000e-04
271000000.0 -1.960000000e-04 2.120000000e-04
280000000.0 -6.340000000e-04 3.370000000e-04
289000000.0 -6.170000000e-04 4.400000000e-05
298000000.0 -9.310000000e-04 -1.540000000e-04
307000000.0 -7.370000000e-04 4.170000000e-04
316000000.0 -9.630000000e-04 4.220000000e-04
325000000.0 -3.500000000e-04 5.220000000e-04
334000000.0 -6.120000000e-04 1.430000000e-04
343000000.0 -1.000000000e-03 3.130000000e-04
352000000.0 -8.430000000e-04 5.320000000e-04
361000000.0 -5.470000000e-04 7.120000000e-04
370000000.0 -1.740000000e-04 2.520000000e-04
379000000.0 -1.251000000e-03 -7.800000000e-05
388000000.0 -4.920000000e-04 5.500000000e-05
397000000.0 -8.550000000e-04 4.850000000e-04
406000000.0 -1.216000000e-03 5.190000000e-04
415000000.0 -6.000000000e-04 4.790000000e-04
424000000.0 -1.254000000e-03 4.760000000e-04
433000000.0 -1.104000000e-03 3.830000000e-04
442000000.0 -9.040000000e-04 7.550000000e-04
451000000.0 -5.380000000e-04 1.670000000e-04
460000000.0 -1.015000000e-03 8.430000000e-04
469000000.0 -9.160000000e-04 1.236000000e-03
478000000.0 -9.040000000e-04 3.420000000e-04
487000000.0 -1.699000000e-03 4.300000000e-04
496000000.0 -9.970000000e-04 4.520000000e-04
505000000.0 -8.960000000e-04 3.400000000e-04
514000000.0 -1.482000000e-03 4.940000000e-04
523000000.0 -1.498000000e-03 6.560000000e-04
532000000.0 -6.540000000e-04 -3.190000000e-04
541000000.0 -1.408000000e-03 5.400000000e-05
550000000.0 -9.500000000e-04 5.500000000e-05
559000000.0 -1.134000000e-03 -3.470000000e-04
568000000.0 -6.080000000e-04 -2.920000000e-04
577000000.0 -9.290000000e-04 -4.620000000e-04
586000000.0 -1.150000000e-03 -5.540000000e-04
595000000.0 -1.974000000e-03 -1.209000000e-03
604000000.0 -1.888000000e-03 8.800000000e-05
613000000.0 -1.357000000e-03 -7.410000000e-04
622000000.0 -2.132000000e-03 -4.980000000e-04
631000000.0 -1.644000000e-03 -1.190000000e-04
640000000.0 -1.102000000e-03 -7.500000000e-04
649000000.0 -8.820000000e-04 -5.860000000e-04
658000000.0 -1.442000000e-03 -1.920000000e-04
667000000.0 -1.034000000e-03 -2.390000000e-04
676000000.0 -7.330000000e-04 8.100000000e-05
685000000.0 -8.690000000e-04 1.460000000e-04
694000000.0 -6.230000000e-04 -8.860000000e-04
703000000.0 -9.240000000e-04 -5.980000000e-04
712000000.0 -4.680000000e-04 -4.850000000e-04
721000000.0 -7.770000000e-04 -4.900000000e-05
730000000.0 -3.130000000e-04 -9.600000000e-05
739000000.0 -8.270000000e-04 -4.530000000e-04
748000000.0 -5.360000000e-04 -2.090000000e-04
757000000.0 -1.347000000e-03 -1.310000000e-04
766000000.0 -1.102000000e-03 1.054000000e-03
775000000.0 -7.150000000e-04 -2.260000000e-04
784000000.0 -6.270000000e-04 4.990000000e-04
793000000.0 -9.340000000e-04 5.220000000e-04
802000000.0 -1.827000000e-03 6.910000000e-04
811000000.0 -9.680000000e-04 -1.600000000e-05
820000000.0 -9.990000000e-04 1.014000000e-03
829000000.0 -8.170000000e-04 5.920000000e-04
838000000.0 -1.071000000e-03 8.770000000e-04
847000000.0 -7.140000000e-04 5.850000000e-04
856000000.0 -4.340000000e-04 2.130000000e-04
865000000.0 -1.369000000e-03 3.770000000e-04
874000000.0 -8.500000000e-04 6.550000000e-04
883000000.0 -1.329000000e-03 2.560000000e-04
892000000.0 -9.820000000e-04 3.740000000e-04
901000000.0 -1.536000000e-03 9.510000000e-04
910000000.0 -1.463000000e-03 5.990000000e-04
919000000.0 -1.054000000e-03 8.930000000e-04
928000000.0 -1.467000000e-03 4.610000000e-04
937000000.0 -1.517000000e-03 6.810000000e-04
946000000.0 -1.396000000e-03 5.160000000e-04
955000000.0 -1.136000000e-03 1.393000000e-03
964000000.0 -1.591000000e-03 5.590000000e-04
973000000.0 -1.043000000e-03 7.880000000e-04
982000000.0 -1.607000000e-03 2.010000000e-04
991000000.0 -1.642000000e-03 6.630000000e-04
1000000000.0 -2.024000000e-03 9.140000000e-04
1004500000.0 -1.545000000e-03 6.420000000e-04
1009000000.0 -1.339000000e-03 6.380000000e-04
1013500000.0 -1.296000000e-03 4.880000000e-04
1018000000.0 -1.451000000e-03 5.540000000e-04
1022500000.0 -1.412000000e-03 1.333000000e-03
1027000000.0 -1.363000000e-03 1.493000000e-03
1031500000.0 -1.133000000e-03 6.000000000e-04
1036000000.0 -5.580000000e-04 1.643000000e-03
1040500000.0 -1.083000000e-03 1.467000000e-03
1045000000.0 -4.760000000e-04 1.179000000e-03
1049500000.0 -1.430000000e-03 8.630000000e-04
1054000000.0 -2.158000000e-03 1.242000000e-03
1058500000.0 -8.150000000e-04 1.710000000e-03
1063000000.0 -1.669000000e-03 5.510000000e-04
1067500000.0 -9.660000000e-04 1.587000000e-03
1072000000.0 -1.710000000e-03 1.260000000e-04
1076500000.0 -1.173000000e-03 1.224000000e-03
1081000000.0 -1.056000000e-03 5.380000000e-04
1085500000.0 -1.477000000e-03 1.362000000e-03
1090000000.0 -1.137000000e-03 8.930000000e-04
1094500000.0 -9.010000000e-04 1.357000000e-03
1099000000.0 -1.060000000e-03 4.490000000e-04
1103500000.0 -6.720000000e-04 1.052000000e-03
1108000000.0 -4.220000000e-04 9.180000000e-04
1112500000.0 -1.117000000e-03 1.219000000e-03
1117000000.0 -8.150000000e-04 1.200000000e-03
1121500000.0 -6.143000000e-03 -4.630000000e-04
1126000000.0 -1.462000000e-03 5.660000000e-04
1130500000.0 -2.410000000e-04 2.423000000e-03
1135000000.0 -1.002000000e-03 9.890000000e-04
1139500000.0 2.280000000e-03 2.412000000e-03
1144000000.0 1.364000000e-03 2.207000000e-03
1148500000.0 1.157000000e-03 1.885000000e-03
1153000000.0 -4.158000000e-03 -2.300000000e-04
1157500000.0 -9.900000000e-04 1.532000000e-03
1162000000.0 -6.890000000e-04 1.536000000e-03
1166500000.0 -1.613000000e-03 6.910000000e-04
1171000000.0 -1.230000000e-03 7.920000000e-04
1175500000.0 -1.197000000e-03 1.173000000e-03
1180000000.0 -1.347000000e-03 1.091000000e-03
1184500000.0 -8.370000000e-04 9.860000000e-04
1189000000.0 -9.270000000e-04 1.683000000e-03
1193500000.0 -1.149000000e-03 7.700000000e-04
1198000000.0 -7.250000000e-04 9.340000000e-04
1202500000.0 -7.110000000e-04 1.571000000e-03
1207000000.0 -8.020000000e-04 1.094000000e-03
1211500000.0 -1.189000000e-03 1.647000000e-03
1216000000.0 -1.149000000e-03 1.097000000e-03
1220500000.0 -9.080000000e-04 1.186000000e-03
1225000000.0 -1.665000000e-03 9.970000000e-04
1229500000.0 -7.030000000e-04 8.800000000e-04
1234000000.0 -1.010000000e-03 1.297000000e-03
1238500000.0 -1.192000000e-03 1.417000000e-03
1243000000.0 -8.240000000e-04 1.052000000e-03
1247500000.0 -9.510000000e-04 1.806000000e-03
1252000000.0 -1.515000000e-03 1.228000000e-03
1256500000.0 -1.632000000e-03 2.460000000e-04
1261000000.0 -1.749000000e-03 1.000000000e-03
1265500000.0 -2.194000000e-03 2.600000000e-04
1270000000.0 -8.790000000e-04 5.560000000e-04
1274500000.0 -9.850000000e-04 7.880000000e-04
1279000000.0 -1.715000000e-03 6.330000000e-04
1283500000.0 -7.150000000e-04 1.730000000e-04
1288000000.0 -1.690000000e-03 6.150000000e-04
1292500000.0 -1.102000000e-03 -1.060000000e-04
1297000000.0 -1.268000000e-03 -5.900000000e-05
1301500000.0 -1.446000000e-03 5.500000000e-04
1306000000.0 -1.851000000e-03 6.040000000e-04
1310500000.0 -1.704000000e-03 -1.550000000e-04
1315000000.0 -1.724000000e-03 1.520000000e-04
1319500000.0 -1.421000000e-03 -7.800000000e-04
1324000000.0 -1.640000000e-03 1.077000000e-03
1328500000.0 -1.473000000e-03 -4.210000000e-04
1333000000.0 -2.052000000e-03 3.000000000e-04
1337500000.0 -1.491000000e-03 4.180000000e-04
1342000000.0 -1.661000000e-03 -1.035000000e-03
1346500000.0 -1.419000000e-03 4.300000000e-05
1351000000.0 -1.463000000e-03 -5.350000000e-04
1355500000.0 -1.466000000e-03 -3.100000000e-05
1360000000.0 -2.198000000e-03 -3.600000000e-05
1364500000.0 -1.776000000e-03 -5.960000000e-04
1369000000.0 -1.371000000e-03 3.500000000e-05
1373500000.0 -1.681000000e-03 6.300000000e-05
1378000000.0 -1.338000000e-03 -6.400000000e-05
1382500000.0 -9.520000000e-04 7.630000000e-04
1387000000.0 -9.470000000e-04 -3.860000000e-04
1391500000.0 -2.043000000e-03 -4.330000000e-04
1396000000.0 -2.026000000e-03 -2.140000000e-04
1400500000.0 -1.366000000e-03 2.410000000e-04
1405000000.0 -9.750000000e-04 -4.220000000e-04
1409500000.0 -1.584000000e-03 -4.890000000e-04
1414000000.0 -1.979000000e-03 8.200000000e-04
1418500000.0 -1.665000000e-03 2.290000000e-04
1423000000.0 -1.975000000e-03 3.410000000e-04
1427500000.0 -2.017000000e-03 -1.399000000e-03
1432000000.0 -1.288000000e-03 -1.017000000e-03
1436500000.0 -1.462000000e-03 -5.780000000e-04
1441000000.0 -1.545000000e-03 -5.350000000e-04
1445500000.0 -8.110000000e-04 1.380000000e-04
1450000000.0 -1.391000000e-03 4.590000000e-04
