! piloto_deriva / corto_deriva / r33
# HZ S RI R 50
50000.0 -9.996400000e-01 -3.796900000e-02
59500.0 -9.978950000e-01 -1.710500000e-02
69000.0 -9.983620000e-01 -7.342000000e-03
78500.0 -9.995600000e-01 -1.225000000e-03
88000.0 -9.992990000e-01 5.800000000e-05
97500.0 -9.991920000e-01 -5.720000000e-04
107000.0 -1.000022000e+00 -2.398000000e-03
116500.0 -1.000317000e+00 -5.814000000e-03
126000.0 -1.001065000e+00 -1.029900000e-02
135500.0 -9.991360000e-01 -1.644900000e-02
145000.0 -9.997870000e-01 -2.282000000e-02
154500.0 -9.998270000e-01 -2.878400000e-02
164000.0 -1.000143000e+00 -3.630300000e-02
173500.0 -1.000489000e+00 -4.347200000e-02
183000.0 -1.000151000e+00 -5.217500000e-02
192500.0 -1.000290000e+00 -6.020700000e-02
202000.0 -1.000504000e+00 -6.897000000e-02
211500.0 -1.001033000e+00 -7.727900000e-02
221000.0 -1.000507000e+00 -8.649100000e-02
230500.0 -1.000665000e+00 -9.472300000e-02
240000.0 -1.000742000e+00 -1.031990000e-01
249500.0 -1.001257000e+00 -1.133490000e-01
259000.0 -1.000961000e+00 -1.223240000e-01
268500.0 -1.001068000e+00 -1.319760000e-01
278000.0 -1.001876000e+00 -1.412570000e-01
287500.0 -1.001862000e+00 -1.502080000e-01
297000.0 -1.001698000e+00 -1.603430000e-01
306500.0 -1.002389000e+00 -1.684310000e-01
316000.0 -1.001868000e+00 -1.776580000e-01
325500.0 -1.002350000e+00 -1.864980000e-01
335000.0 -1.002699000e+00 -1.974420000e-01
344500.0 -1.003433000e+00 -2.056480000e-01
354000.0 -1.002726000e+00 -2.147600000e-01
363500.0 -1.003897000e+00 -2.248700000e-01
373000.0 -1.004440000e+00 -2.336170000e-01
382500.0 -1.003211000e+00 -2.424400000e-01
392000.0 -1.003921000e+00 -2.522960000e-01
401500.0 -1.004655000e+00 -2.616510000e-01
411000.0 -1.005149000e+00 -2.712880000e-01
420500.0 -1.004439000e+00 -2.810250000e-01
430000.0 -1.005105000e+00 -2.903150000e-01
439500.0 -1.006205000e+00 -2.992550000e-01
449000.0 -1.005875000e+00 -3.088120000e-01
458500.0 -1.006381000e+00 -3.182840000e-01
468000.0 -1.006057000e+00 -3.274550000e-01
477500.0 -1.006417000e+00 -3.371380000e-01
487000.0 -1.006302000e+00 -3.453660000e-01
496500.0 -1.006397000e+00 -3.551840000e-01
506000.0 -1.007188000e+00 -3.636280000e-01
515500.0 -1.006427000e+00 -3.734380000e-01
525000.0 -1.008024000e+00 -3.829660000e-01
534500.0 -1.008082000e+00 -3.921450000e-01
544000.0 -1.008075000e+00 -4.011570000e-01
553500.0 -1.009103000e+00 -4.104470000e-01
563000.0 -1.009188000e+00 -4.203340000e-01
572500.0 -1.009608000e+00 -4.284280000e-01
582000.0 -1.009955000e+00 -4.376700000e-01
591500.0 -1.010102000e+00 -4.471720000e-01
601000.0 -1.011097000e+00 -4.567070000e-01
610500.0 -1.010910000e+00 -4.656480000e-01
620000.0 -1.012537000e+00 -4.748910000e-01
629500.0 -1.012506000e+00 -4.840630000e-01
639000.0 -1.013002000e+00 -4.928750000e-01
648500.0 -1.013945000e+00 -5.014160000e-01
658000.0 -1.014379000e+00 -5.108650000e-01
667500.0 -1.015288000e+00 -5.201320000e-01
677000.0 -1.016211000e+00 -5.280690000e-01
686500.0 -1.016545000e+00 -5.380840000e-01
696000.0 -1.016912000e+00 -5.479520000e-01
705500.0 -1.018181000e+00 -5.556460000e-01
715000.0 -1.018728000e+00 -5.649950000e-01
724500.0 -1.020169000e+00 -5.735670000e-01
734000.0 -1.020555000e+00 -5.824650000e-01
743500.0 -1.021450000e+00 -5.912780000e-01
753000.0 -1.021522000e+00 -6.008590000e-01
762500.0 -1.022545000e+00 -6.093620000e-01
772000.0 -1.024333000e+00 -6.173360000e-01
781500.0 -1.025325000e+00 -6.272330000e-01
791000.0 -1.027841000e+00 -6.358950000e-01
800500.0 -1.028365000e+00 -6.435890000e-01
810000.0 -1.028702000e+00 -6.533960000e-01
819500.0 -1.030986000e+00 -6.628950000e-01
829000.0 -1.032192000e+00 -6.711300000e-01
838500.0 -1.031289000e+00 -6.805190000e-01
848000.0 -1.035097000e+00 -6.903340000e-01
857500.0 -1.037164000e+00 -6.974910000e-01
867000.0 -1.038090000e+00 -7.063560000e-01
876500.0 -1.040584000e+00 -7.152350000e-01
886000.0 -1.041663000e+00 -7.249960000e-01
895500.0 -1.043387000e+00 -7.327980000e-01
905000.0 -1.045164000e+00 -7.406500000e-01
914500.0 -1.046583000e+00 -7.482670000e-01
924000.0 -1.048702000e+00 -7.586600000e-01
933500.0 -1.051233000e+00 -7.660210000e-01
943000.0 -1.054416000e+00 -7.745940000e-01
952500.0 -1.056469000e+00 -7.838510000e-01
962000.0 -1.058158000e+00 -7.916990000e-01
971500.0 -1.061153000e+00 -7.995260000e-01
981000.0 -1.061957000e+00 -8.092890000e-01
990500.0 -1.065108000e+00 -8.170740000e-01
1000000.0 -1.067477000e+00 -8.256050000e-01
1090000.0 -1.097406000e+00 -9.017140000e-01
1180000.0 -1.136564000e+00 -9.768460000e-01
1270000.0 -1.182688000e+00 -1.045996000e+00
1360000.0 -1.239794000e+00 -1.106796000e+00
1450000.0 -1.310797000e+00 -1.156511000e+00
1540000.0 -1.384646000e+00 -1.192182000e+00
1630000.0 -1.470420000e+00 -1.214275000e+00
1720000.0 -1.561329000e+00 -1.211116000e+00
1810000.0 -1.648944000e+00 -1.187701000e+00
1900000.0 -1.736625000e+00 -1.144857000e+00
1990000.0 -1.807008000e+00 -1.081394000e+00
2080000.0 -1.864298000e+00 -1.001116000e+00
2170000.0 -1.898673000e+00 -9.137270000e-01
2260000.0 -1.915683000e+00 -8.201900000e-01
2350000.0 -1.916625000e+00 -7.267210000e-01
2440000.0 -1.898423000e+00 -6.434430000e-01
2530000.0 -1.873497000e+00 -5.674710000e-01
2620000.0 -1.840379000e+00 -4.958680000e-01
2710000.0 -1.800637000e+00 -4.372680000e-01
2800000.0 -1.759051000e+00 -3.833490000e-01
2890000.0 -1.714683000e+00 -3.733690000e-01
2980000.0 -1.675249000e+00 -3.016440000e-01
3070000.0 -1.633990000e+00 -2.701950000e-01
3160000.0 -1.592349000e+00 -2.416280000e-01
3250000.0 -1.557043000e+00 -2.135340000e-01
3340000.0 -1.520321000e+00 -1.936150000e-01
3430000.0 -1.488019000e+00 -1.731490000e-01
3520000.0 -1.458594000e+00 -1.543790000e-01
3610000.0 -1.428814000e+00 -1.380980000e-01
3700000.0 -1.400285000e+00 -1.226690000e-01
3790000.0 -1.377447000e+00 -1.072450000e-01
3880000.0 -1.353721000e+00 -9.441100000e-02
3970000.0 -1.334211000e+00 -7.965100000e-02
4060000.0 -1.312840000e+00 -6.729700000e-02
4150000.0 -1.295498000e+00 -5.362400000e-02
4240000.0 -1.279301000e+00 -4.241000000e-02
4330000.0 -1.264237000e+00 -3.040300000e-02
4420000.0 -1.248778000e+00 -1.836000000e-02
4510000.0 -1.234751000e+00 -7.229000000e-03
4600000.0 -1.223494000e+00 4.052000000e-03
4690000.0 -1.213640000e+00 1.581000000e-02
4780000.0 -1.203422000e+00 2.578600000e-02
4870000.0 -1.194687000e+00 3.732400000e-02
4960000.0 -1.186658000e+00 4.737700000e-02
5050000.0 -1.173205000e+00 5.903500000e-02
5140000.0 -1.167838000e+00 6.958900000e-02
5230000.0 -1.161800000e+00 7.983600000e-02
5320000.0 -1.158040000e+00 9.043100000e-02
5410000.0 -1.152595000e+00 1.014930000e-01
5500000.0 -1.147863000e+00 1.122880000e-01
5590000.0 -1.143222000e+00 1.224650000e-01
5680000.0 -1.139537000e+00 1.320690000e-01
5770000.0 -1.135844000e+00 1.398040000e-01
5860000.0 -1.132847000e+00 1.511630000e-01
5950000.0 -1.128944000e+00 1.598880000e-01
6040000.0 -1.125072000e+00 1.675920000e-01
6130000.0 -1.121963000e+00 1.759500000e-01
6220000.0 -1.118769000e+00 1.846230000e-01
6310000.0 -1.117549000e+00 1.914930000e-01
6400000.0 -1.113064000e+00 2.000000000e-01
6490000.0 -1.113310000e+00 2.068350000e-01
6580000.0 -1.110805000e+00 2.128910000e-01
6670000.0 -1.108830000e+00 2.185510000e-01
6760000.0 -1.107244000e+00 2.242920000e-01
6850000.0 -1.106056000e+00 2.284320000e-01
6940000.0 -1.103654000e+00 2.311330000e-01
7030000.0 -1.103818000e+00 2.360700000e-01
7120000.0 -1.102220000e+00 2.382080000e-01
7210000.0 -1.101831000e+00 2.416280000e-01
7300000.0 -1.102495000e+00 2.417250000e-01
7390000.0 -1.102368000e+00 2.427720000e-01
7480000.0 -1.102789000e+00 2.419750000e-01
7570000.0 1.960250000e-01 1.073700000e+00
7660000.0 1.943460000e-01 1.073506000e+00
7750000.0 1.944680000e-01 1.075040000e+00
7840000.0 1.926400000e-01 1.074465000e+00
7930000.0 1.926700000e-01 1.075069000e+00
8020000.0 1.923080000e-01 1.073866000e+00
8110000.0 1.909020000e-01 1.075337000e+00
8200000.0 1.908130000e-01 1.075696000e+00
8290000.0 1.895890000e-01 1.076481000e+00
8380000.0 1.892940000e-01 1.076703000e+00
8470000.0 1.875590000e-01 1.076438000e+00
8560000.0 1.873530000e-01 1.078513000e+00
8650000.0 1.861340000e-01 1.078190000e+00
8740000.0 1.855580000e-01 1.077748000e+00
8830000.0 1.846460000e-01 1.079103000e+00
8920000.0 1.847250000e-01 1.080187000e+00
9010000.0 1.833140000e-01 1.081236000e+00
9100000.0 1.832500000e-01 1.080749000e+00
9190000.0 1.822810000e-01 1.081682000e+00
9280000.0 1.814470000e-01 1.081605000e+00
9370000.0 1.804950000e-01 1.082421000e+00
9460000.0 1.799260000e-01 1.082603000e+00
9550000.0 1.799710000e-01 1.084559000e+00
9640000.0 1.799270000e-01 1.085297000e+00
9730000.0 1.787100000e-01 1.085728000e+00
9820000.0 1.782180000e-01 1.085500000e+00
9910000.0 1.774330000e-01 1.087057000e+00
10000000.0 1.758940000e-01 1.086968000e+00
10900000.0 1.692370000e-01 1.094601000e+00
11800000.0 1.641720000e-01 1.102507000e+00
12700000.0 1.566520000e-01 1.110170000e+00
13600000.0 1.699210000e-01 1.113531000e+00
14500000.0 1.443040000e-01 1.126630000e+00
15400000.0 1.567140000e-01 1.131148000e+00
16300000.0 1.309790000e-01 1.145176000e+00
17200000.0 1.229350000e-01 1.153909000e+00
18100000.0 9.657900000e-02 1.168783000e+00
19000000.0 1.282840000e-01 1.169036000e+00
19900000.0 8.111900000e-02 1.185975000e+00
20800000.0 1.123310000e-01 1.188612000e+00
21700000.0 6.291000000e-02 1.205416000e+00
22600000.0 7.452200000e-02 1.212378000e+00
23500000.0 6.693400000e-02 1.221984000e+00
24400000.0 5.749200000e-02 1.230328000e+00
25300000.0 4.688200000e-02 1.241004000e+00
26200000.0 3.560600000e-02 1.250908000e+00
27100000.0 2.509700000e-02 1.260653000e+00
28000000.0 1.399100000e-02 1.272701000e+00
28900000.0 3.065000000e-03 1.282022000e+00
29800000.0 -9.735000000e-03 1.291721000e+00
30700000.0 -2.163400000e-02 1.301169000e+00
31600000.0 -3.423600000e-02 1.312359000e+00
32500000.0 -4.760900000e-02 1.321604000e+00
33400000.0 -6.146400000e-02 1.331808000e+00
34300000.0 -7.660500000e-02 1.342287000e+00
35200000.0 -9.027000000e-02 1.350432000e+00
36100000.0 -1.058340000e-01 1.360462000e+00
37000000.0 -1.224960000e-01 1.371126000e+00
37900000.0 -1.379300000e-01 1.378690000e+00
38800000.0 -1.541800000e-01 1.387848000e+00
39700000.0 -1.713620000e-01 1.396787000e+00
40600000.0 -1.886260000e-01 1.405043000e+00
41500000.0 -2.062280000e-01 1.413449000e+00
42400000.0 -2.268800000e-01 1.421606000e+00
43300000.0 -2.444680000e-01 1.427292000e+00
44200000.0 -2.618250000e-01 1.434356000e+00
45100000.0 -2.825590000e-01 1.441920000e+00
46000000.0 -3.024590000e-01 1.447881000e+00
46900000.0 -3.232870000e-01 1.453216000e+00
47800000.0 -3.434940000e-01 1.459135000e+00
48700000.0 -3.639670000e-01 1.463361000e+00
49600000.0 -3.863040000e-01 1.467154000e+00
50500000.0 -4.086030000e-01 1.471731000e+00
51400000.0 -4.334990000e-01 1.475114000e+00
52300000.0 -4.544030000e-01 1.477977000e+00
53200000.0 -4.768930000e-01 1.479693000e+00
54100000.0 -5.005440000e-01 1.480069000e+00
55000000.0 -5.235450000e-01 1.481667000e+00
55900000.0 -5.479810000e-01 1.481248000e+00
56800000.0 -5.702080000e-01 1.482010000e+00
57700000.0 -5.941700000e-01 1.479849000e+00
58600000.0 -6.201120000e-01 1.477879000e+00
59500000.0 -6.429260000e-01 1.474737000e+00
60400000.0 -6.682280000e-01 1.472039000e+00
61300000.0 -6.898600000e-01 1.468652000e+00
62200000.0 -7.169040000e-01 1.461726000e+00
63100000.0 -7.406620000e-01 1.456456000e+00
64000000.0 -7.650460000e-01 1.450677000e+00
64900000.0 -7.894620000e-01 1.444296000e+00
65800000.0 -8.128040000e-01 1.436498000e+00
66700000.0 -8.360980000e-01 1.428471000e+00
67600000.0 -8.592280000e-01 1.419097000e+00
68500000.0 -8.848300000e-01 1.407442000e+00
69400000.0 -9.063140000e-01 1.397481000e+00
70300000.0 -9.290770000e-01 1.386499000e+00
71200000.0 -9.532370000e-01 1.374582000e+00
72100000.0 -9.763140000e-01 1.361974000e+00
73000000.0 -9.980460000e-01 1.348746000e+00
73900000.0 -1.019079000e+00 1.333833000e+00
74800000.0 -1.039276000e+00 1.320662000e+00
75700000.0 -1.061080000e+00 1.305319000e+00
76600000.0 -1.081614000e+00 1.288495000e+00
77500000.0 -1.100327000e+00 1.271829000e+00
78400000.0 -1.120517000e+00 1.254900000e+00
79300000.0 -1.138971000e+00 1.236478000e+00
80200000.0 -1.157771000e+00 1.219464000e+00
81100000.0 -1.176703000e+00 1.200774000e+00
82000000.0 -1.192891000e+00 1.180940000e+00
82900000.0 -1.208758000e+00 1.162650000e+00
83800000.0 -1.224792000e+00 1.143110000e+00
84700000.0 -1.240288000e+00 1.122419000e+00
85600000.0 -1.255150000e+00 1.100260000e+00
86500000.0 -1.268942000e+00 1.078218000e+00
87400000.0 -1.283156000e+00 1.058563000e+00
88300000.0 -1.294456000e+00 1.035901000e+00
89200000.0 -1.306117000e+00 1.012989000e+00
90100000.0 -1.316438000e+00 9.911120000e-01
91000000.0 -1.328702000e+00 9.683500000e-01
91900000.0 -1.339281000e+00 9.451890000e-01
92800000.0 -1.346753000e+00 9.212890000e-01
93700000.0 -1.355377000e+00 8.990290000e-01
94600000.0 -1.361814000e+00 8.766560000e-01
95500000.0 -1.368718000e+00 8.525610000e-01
96400000.0 -1.374187000e+00 8.295010000e-01
97300000.0 -1.380907000e+00 8.070930000e-01
98200000.0 -1.383598000e+00 7.835230000e-01
99100000.0 -1.388590000e+00 7.606390000e-01
100000000.0 -1.390517000e+00 7.381860000e-01
109000000.0 -1.385056000e+00 5.208290000e-01
118000000.0 -1.330419000e+00 3.381700000e-01
127000000.0 -1.248625000e+00 2.012640000e-01
136000000.0 -1.133893000e+00 1.009240000e-01
145000000.0 -1.046465000e+00 2.929100000e-02
154000000.0 -1.000766000e+00 -1.850000000e-03
163000000.0 -1.002779000e+00 -4.263000000e-03
172000000.0 -1.005965000e+00 -6.090000000e-03
181000000.0 -1.006083000e+00 -7.010000000e-03
190000000.0 -1.007964000e+00 -8.445000000e-03
199000000.0 -1.007900000e+00 -1.075400000e-02
208000000.0 -1.009459000e+00 -1.073400000e-02
217000000.0 -1.009891000e+00 -1.082900000e-02
226000000.0 -1.010718000e+00 -1.227400000e-02
235000000.0 -1.009911000e+00 -1.061900000e-02
244000000.0 -1.009978000e+00 -1.058500000e-02
253000000.0 -1.009023000e+00 -9.484000000e-03
262000000.0 -1.007482000e+00 -8.577000000e-03
271000000.0 -1.006516000e+00 -6.644000000e-03
280000000.0 -1.005316000e+00 -4.985000000e-03
289000000.0 -1.002726000e+00 -4.586000000e-03
298000000.0 -1.000309000e+00 -8.960000000e-04
307000000.0 -1.002789000e+00 -2.721000000e-03
316000000.0 -1.005094000e+00 -2.003000000e-03
325000000.0 -1.008027000e+00 -1.440000000e-03
334000000.0 -1.008700000e+00 -2.112000000e-03
343000000.0 -1.011443000e+00 -1.543000000e-03
352000000.0 -1.013526000e+00 -4.877000000e-03
361000000.0 -1.014540000e+00 -4.428000000e-03
370000000.0 -1.014366000e+00 -5.190000000e-03
379000000.0 -1.014686000e+00 -5.828000000e-03
388000000.0 -1.004666000e+00 2.873200000e-02
397000000.0 -1.012874000e+00 -5.038000000e-03
406000000.0 -1.012898000e+00 -3.352000000e-03
415000000.0 -1.007560000e+00 1.346200000e-02
424000000.0 -1.008112000e+00 -1.638000000e-03
433000000.0 -1.006729000e+00 -4.833000000e-03
442000000.0 -1.003152000e+00 1.826000000e-03
451000000.0 -1.002835000e+00 -3.530000000e-04
460000000.0 -1.004409000e+00 -9.200000000e-04
469000000.0 -1.007102000e+00 -2.750000000e-04
478000000.0 -1.009781000e+00 9.200000000e-04
487000000.0 -1.012535000e+00 8.120000000e-04
496000000.0 -1.015177000e+00 1.722000000e-03
505000000.0 -1.014606000e+00 2.985000000e-03
514000000.0 -1.016571000e+00 2.210000000e-03
523000000.0 -1.017273000e+00 4.241000000e-03
532000000.0 -1.015399000e+00 3.103000000e-03
541000000.0 -1.014678000e+00 4.361000000e-03
550000000.0 -1.015931000e+00 3.712000000e-03
559000000.0 -1.013460000e+00 3.137000000e-03
568000000.0 -1.011366000e+00 7.110000000e-04
577000000.0 -1.008770000e+00 3.190000000e-03
586000000.0 -1.006284000e+00 8.830000000e-04
595000000.0 -1.003788000e+00 2.215000000e-03
604000000.0 -1.001622000e+00 4.150000000e-03
613000000.0 -1.004798000e+00 3.033000000e-03
622000000.0 -1.007666000e+00 8.977000000e-03
631000000.0 -1.007456000e+00 3.275000000e-03
640000000.0 -1.009776000e+00 9.487000000e-03
649000000.0 -1.012733000e+00 7.500000000e-03
658000000.0 -1.009510000e+00 1.200400000e-02
667000000.0 -1.011471000e+00 1.371300000e-02
676000000.0 -1.013006000e+00 9.149000000e-03
685000000.0 -1.011053000e+00 1.089600000e-02
694000000.0 -1.006441000e+00 1.386100000e-02
703000000.0 -1.011946000e+00 1.349700000e-02
712000000.0 -1.005312000e+00 1.172200000e-02
721000000.0 -1.008044000e+00 6.250000000e-03
730000000.0 -1.003923000e+00 3.884000000e-03
739000000.0 -1.003753000e+00 5.700000000e-03
748000000.0 -1.000008000e+00 2.120000000e-04
757000000.0 -9.970100000e-01 1.834000000e-03
766000000.0 -9.993140000e-01 5.576000000e-03
775000000.0 -9.995210000e-01 3.245000000e-03
784000000.0 -9.986760000e-01 5.536000000e-03
793000000.0 -9.988960000e-01 7.677000000e-03
802000000.0 -9.982980000e-01 9.417000000e-03
811000000.0 -9.981240000e-01 1.238100000e-02
820000000.0 -9.983340000e-01 8.266000000e-03
829000000.0 -9.958420000e-01 7.941000000e-03
838000000.0 -9.997700000e-01 8.661000000e-03
847000000.0 -9.979300000e-01 4.157000000e-03
856000000.0 -1.000879000e+00 2.840000000e-03
865000000.0 -1.000871000e+00 2.032000000e-03
874000000.0 -9.987700000e-01 1.375000000e-03
883000000.0 -9.965630000e-01 7.040000000e-04
892000000.0 -9.992930000e-01 3.960000000e-03
901000000.0 -9.995180000e-01 -2.714000000e-03
910000000.0 -9.973470000e-01 -1.722000000e-03
919000000.0 -9.972490000e-01 -1.985000000e-03
928000000.0 -1.001230000e+00 -6.498000000e-03
937000000.0 -1.001798000e+00 -4.745000000e-03
946000000.0 -9.992020000e-01 -2.700000000e-03
955000000.0 -9.991450000e-01 -1.178000000e-03
964000000.0 -1.002638000e+00 -1.067200000e-02
973000000.0 -1.004452000e+00 -1.130400000e-02
982000000.0 -1.001814000e+00 -4.115000000e-03
991000000.0 -1.002845000e+00 -8.469000000e-03
1000000000.0 -1.001607000e+00 -8.450000000e-03
1004500000.0 -1.001554000e+00 -7.757000000e-03
1009000000.0 -1.004674000e+00 -9.047000000e-03
1013500000.0 -1.002485000e+00 -6.845000000e-03
1018000000.0 -1.003785000e+00 -1.097100000e-02
1022500000.0 -1.001898000e+00 -4.434000000e-03
1027000000.0 -1.003285000e+00 -4.462000000e-03
1031500000.0 -1.002011000e+00 -6.669000000e-03
1036000000.0 -1.003064000e+00 -2.591000000e-03
1040500000.0 -1.004307000e+00 -1.066600000e-02
1045000000.0 -1.002431000e+00 -7.846000000e-03
1049500000.0 -1.002673000e+00 -3.277000000e-03
1054000000.0 -1.000706000e+00 -9.161000000e-03
1058500000.0 -1.000706000e+00 -1.041000000e-02
1063000000.0 -1.005041000e+00 -9.911000000e-03
1067500000.0 -1.004113000e+00 -1.001700000e-02
1072000000.0 -1.003899000e+00 -6.867000000e-03
1076500000.0 -1.002515000e+00 -9.285000000e-03
1081000000.0 -1.006359000e+00 -1.126900000e-02
1085500000.0 -1.002443000e+00 -1.438000000e-02
1090000000.0 -1.007122000e+00 -8.610000000e-03
1094500000.0 -1.007173000e+00 -1.336200000e-02
1099000000.0 -1.006883000e+00 -1.095700000e-02
1103500000.0 -1.006977000e+00 -9.570000000e-04
1108000000.0 -1.004101000e+00 -1.128100000e-02
1112500000.0 -1.011330000e+00 -1.539500000e-02
1117000000.0 -1.004109000e+00 -1.066200000e-02
1121500000.0 -1.006094000e+00 -1.073000000e-02
1126000000.0 -1.009878000e+00 -1.248900000e-02
1130500000.0 -1.008517000e+00 -8.976000000e-03
1135000000.0 -1.009067000e+00 -1.007500000e-02
1139500000.0 -1.010166000e+00 -1.211100000e-02
1144000000.0 -1.003777000e+00 -9.790000000e-03
1148500000.0 -1.000031000e+00 -6.065000000e-03
1153000000.0 -1.004920000e+00 5.760000000e-03
1157500000.0 -1.009166000e+00 -6.364000000e-03
1162000000.0 -1.004244000e+00 -6.804000000e-03
1166500000.0 -1.000881000e+00 -1.530900000e-02
1171000000.0 -1.004225000e+00 -3.949000000e-03
1175500000.0 -1.000609000e+00 -5.815000000e-03
1180000000.0 -9.991120000e-01 1.452100000e-02
1184500000.0 -1.005026000e+00 -3.473000000e-03
1189000000.0 -9.991050000e-01 -2.823500000e-02
1193500000.0 -9.945280000e-01 -2.580000000e-04
1198000000.0 -9.917330000e-01 1.418100000e-02
1202500000.0 -1.001058000e+00 -2.462000000e-03
1207000000.0 -9.963070000e-01 -1.547700000e-02
1211500000.0 -1.000703000e+00 -4.065000000e-03
1216000000.0 -9.983680000e-01 1.128200000e-02
1220500000.0 -9.966630000e-01 -1.652000000e-03
1225000000.0 -1.003972000e+00 -2.076500000e-02
1229500000.0 -1.003598000e+00 -8.430000000e-03
1234000000.0 -1.003499000e+00 9.970000000e-04
1238500000.0 -1.004421000e+00 -6.697000000e-03
1243000000.0 -1.003990000e+00 -5.510000000e-03
1247500000.0 -1.003505000e+00 -4.291000000e-03
1252000000.0 -1.001276000e+00 -4.564000000e-03
1256500000.0 -1.008839000e+00 -6.233000000e-03
1261000000.0 -1.002109000e+00 -1.741000000e-03
1265500000.0 -1.006291000e+00 -3.752000000e-03
1270000000.0 -1.008148000e+00 -1.438000000e-02
1274500000.0 -1.007588000e+00 -1.254800000e-02
1279000000.0 -1.001133000e+00 3.440000000e-03
1283500000.0 -1.007941000e+00 -3.386000000e-03
1288000000.0 -1.003536000e+00 -8.931000000e-03
1292500000.0 -9.981130000e-01 -4.703000000e-03
1297000000.0 -1.002378000e+00 -4.395000000e-03
1301500000.0 -9.990690000e-01 -5.931000000e-03
1306000000.0 -1.002057000e+00 -2.364000000e-03
1310500000.0 -1.004772000e+00 -7.998000000e-03
1315000000.0 -9.992210000e-01 -4.285000000e-03
1319500000.0 -9.967700000e-01 -9.172000000e-03
1324000000.0 -9.942060000e-01 -3.906000000e-03
1328500000.0 -9.958900000e-01 -4.620000000e-04
1333000000.0 -9.970520000e-01 -6.153000000e-03
1337500000.0 -9.900440000e-01 -4.199000000e-03
1342000000.0 -9.978930000e-01 -3.692000000e-03
1346500000.0 -9.887600000e-01 -4.880000000e-03
1351000000.0 -9.880820000e-01 -1.911000000e-03
1355500000.0 -9.933530000e-01 -4.356000000e-03
1360000000.0 -9.996270000e-01 -1.706000000e-03
1364500000.0 -9.974780000e-01 -3.206000000e-03
1369000000.0 -1.001154000e+00 -1.242600000e-02
1373500000.0 -1.003540000e+00 2.131000000e-03
1378000000.0 -1.001279000e+00 -3.446000000e-03
1382500000.0 -1.003294000e+00 4.849000000e-03
1387000000.0 -1.002585000e+00 4.190000000e-04
1391500000.0 -1.000529000e+00 -5.861000000e-03
1396000000.0 -1.001111000e+00 3.050000000e-04
1400500000.0 -1.006672000e+00 5.015000000e-03
1405000000.0 -1.007087000e+00 -6.913000000e-03
1409500000.0 -1.001854000e+00 1.538000000e-03
1414000000.0 -1.008568000e+00 -4.308000000e-03
1418500000.0 -1.007557000e+00 -1.544000000e-03
1423000000.0 -1.013353000e+00 -3.466000000e-03
1427500000.0 -1.011259000e+00 -3.619000000e-03
1432000000.0 -1.009197000e+00 -9.361000000e-03
1436500000.0 -1.010842000e+00 -1.900000000e-04
1441000000.0 -1.008070000e+00 -6.942000000e-03
1445500000.0 -1.008276000e+00 -4.973000000e-03
1450000000.0 -1.008858000e+00 -2.624000000e-03
