! piloto_deriva / corto_deriva / r41
# HZ S RI R 50
50000.0 -9.979240000e-01 -3.641800000e-02
59500.0 -9.973990000e-01 -1.723100000e-02
69000.0 -9.981780000e-01 -9.049000000e-03
78500.0 -9.991230000e-01 -1.332000000e-03
88000.0 -9.981410000e-01 3.920000000e-04
97500.0 -9.998480000e-01 8.790000000e-04
107000.0 -9.995920000e-01 -2.321000000e-03
116500.0 -1.000129000e+00 -6.639000000e-03
126000.0 -9.987270000e-01 -1.028500000e-02
135500.0 -9.996820000e-01 -1.598000000e-02
145000.0 -9.996800000e-01 -2.262600000e-02
154500.0 -9.999240000e-01 -2.980300000e-02
164000.0 -1.000085000e+00 -3.654400000e-02
173500.0 -9.999780000e-01 -4.456300000e-02
183000.0 -9.999640000e-01 -5.319800000e-02
192500.0 -1.000501000e+00 -6.023800000e-02
202000.0 -1.000279000e+00 -6.838400000e-02
211500.0 -1.000144000e+00 -7.722900000e-02
221000.0 -1.000281000e+00 -8.590700000e-02
230500.0 -1.000302000e+00 -9.537200000e-02
240000.0 -1.001667000e+00 -1.043490000e-01
249500.0 -1.000572000e+00 -1.130440000e-01
259000.0 -1.001596000e+00 -1.219150000e-01
268500.0 -1.001641000e+00 -1.311290000e-01
278000.0 -1.001858000e+00 -1.411890000e-01
287500.0 -1.002321000e+00 -1.496680000e-01
297000.0 -1.001371000e+00 -1.592730000e-01
306500.0 -1.002454000e+00 -1.695480000e-01
316000.0 -1.002647000e+00 -1.780190000e-01
325500.0 -1.002979000e+00 -1.874790000e-01
335000.0 -1.003020000e+00 -1.968370000e-01
344500.0 -1.002367000e+00 -2.063020000e-01
354000.0 -1.003582000e+00 -2.156580000e-01
363500.0 -1.004404000e+00 -2.248300000e-01
373000.0 -1.003914000e+00 -2.346090000e-01
382500.0 -1.004210000e+00 -2.441000000e-01
392000.0 -1.004904000e+00 -2.526160000e-01
401500.0 -1.004608000e+00 -2.614150000e-01
411000.0 -1.004563000e+00 -2.715310000e-01
420500.0 -1.004636000e+00 -2.806870000e-01
430000.0 -1.004933000e+00 -2.901380000e-01
439500.0 -1.006049000e+00 -2.990730000e-01
449000.0 -1.005521000e+00 -3.088990000e-01
458500.0 -1.006114000e+00 -3.175580000e-01
468000.0 -1.006293000e+00 -3.277590000e-01
477500.0 -1.006515000e+00 -3.369540000e-01
487000.0 -1.005773000e+00 -3.460010000e-01
496500.0 -1.006761000e+00 -3.558590000e-01
506000.0 -1.007660000e+00 -3.642890000e-01
515500.0 -1.006771000e+00 -3.736310000e-01
525000.0 -1.007273000e+00 -3.829230000e-01
534500.0 -1.007458000e+00 -3.928420000e-01
544000.0 -1.008107000e+00 -4.010050000e-01
553500.0 -1.009417000e+00 -4.105490000e-01
563000.0 -1.008727000e+00 -4.193580000e-01
572500.0 -1.009406000e+00 -4.284990000e-01
582000.0 -1.010002000e+00 -4.378830000e-01
591500.0 -1.010866000e+00 -4.475630000e-01
601000.0 -1.010031000e+00 -4.574210000e-01
610500.0 -1.011158000e+00 -4.663590000e-01
620000.0 -1.011584000e+00 -4.753460000e-01
629500.0 -1.011845000e+00 -4.839430000e-01
639000.0 -1.013301000e+00 -4.924570000e-01
648500.0 -1.014044000e+00 -5.012610000e-01
658000.0 -1.014939000e+00 -5.105560000e-01
667500.0 -1.015618000e+00 -5.196070000e-01
677000.0 -1.015968000e+00 -5.298170000e-01
686500.0 -1.016410000e+00 -5.382290000e-01
696000.0 -1.016692000e+00 -5.460470000e-01
705500.0 -1.017762000e+00 -5.552850000e-01
715000.0 -1.019360000e+00 -5.653380000e-01
724500.0 -1.019725000e+00 -5.740450000e-01
734000.0 -1.020077000e+00 -5.838410000e-01
743500.0 -1.022286000e+00 -5.918900000e-01
753000.0 -1.022528000e+00 -6.002920000e-01
762500.0 -1.023785000e+00 -6.090080000e-01
772000.0 -1.024038000e+00 -6.190150000e-01
781500.0 -1.024775000e+00 -6.271220000e-01
791000.0 -1.026424000e+00 -6.364440000e-01
800500.0 -1.027472000e+00 -6.447550000e-01
810000.0 -1.029503000e+00 -6.528810000e-01
819500.0 -1.029047000e+00 -6.629860000e-01
829000.0 -1.032233000e+00 -6.712970000e-01
838500.0 -1.034515000e+00 -6.797000000e-01
848000.0 -1.035184000e+00 -6.891080000e-01
857500.0 -1.038024000e+00 -6.979240000e-01
867000.0 -1.037067000e+00 -7.076460000e-01
876500.0 -1.040471000e+00 -7.157950000e-01
886000.0 -1.041845000e+00 -7.234180000e-01
895500.0 -1.045983000e+00 -7.320000000e-01
905000.0 -1.045336000e+00 -7.413290000e-01
914500.0 -1.047770000e+00 -7.490980000e-01
924000.0 -1.049833000e+00 -7.577500000e-01
933500.0 -1.051984000e+00 -7.676210000e-01
943000.0 -1.055574000e+00 -7.756380000e-01
952500.0 -1.053530000e+00 -7.838960000e-01
962000.0 -1.060885000e+00 -7.931910000e-01
971500.0 -1.060186000e+00 -8.010870000e-01
981000.0 -1.063469000e+00 -8.085410000e-01
990500.0 -1.065618000e+00 -8.195570000e-01
1000000.0 -1.068452000e+00 -8.259160000e-01
1090000.0 -1.095898000e+00 -9.030540000e-01
1180000.0 -1.135173000e+00 -9.761560000e-01
1270000.0 -1.183339000e+00 -1.046877000e+00
1360000.0 -1.241273000e+00 -1.106776000e+00
1450000.0 -1.308662000e+00 -1.155702000e+00
1540000.0 -1.386697000e+00 -1.194762000e+00
1630000.0 -1.472450000e+00 -1.212834000e+00
1720000.0 -1.563744000e+00 -1.208468000e+00
1810000.0 -1.654086000e+00 -1.188218000e+00
1900000.0 -1.736855000e+00 -1.144383000e+00
1990000.0 -1.808788000e+00 -1.080053000e+00
2080000.0 -1.863194000e+00 -1.001364000e+00
2170000.0 -1.901897000e+00 -9.105540000e-01
2260000.0 -1.917430000e+00 -8.209850000e-01
2350000.0 -1.919501000e+00 -7.292140000e-01
2440000.0 -1.901287000e+00 -6.439580000e-01
2530000.0 -1.873709000e+00 -5.660630000e-01
2620000.0 -1.837835000e+00 -4.956970000e-01
2710000.0 -1.798450000e+00 -4.372870000e-01
2800000.0 -1.757708000e+00 -3.840510000e-01
2890000.0 -1.714307000e+00 -3.398240000e-01
2980000.0 -1.671729000e+00 -3.031520000e-01
3070000.0 -1.633120000e+00 -2.701940000e-01
3160000.0 -1.592620000e+00 -2.409160000e-01
3250000.0 -1.554801000e+00 -2.140450000e-01
3340000.0 -1.522164000e+00 -1.923360000e-01
3430000.0 -1.488066000e+00 -1.713940000e-01
3520000.0 -1.458004000e+00 -1.536750000e-01
3610000.0 -1.429553000e+00 -1.376060000e-01
3700000.0 -1.401626000e+00 -1.208920000e-01
3790000.0 -1.376719000e+00 -1.057320000e-01
3880000.0 -1.353689000e+00 -9.356200000e-02
3970000.0 -1.333433000e+00 -8.038500000e-02
4060000.0 -1.314211000e+00 -6.778100000e-02
4150000.0 -1.295802000e+00 -5.443800000e-02
4240000.0 -1.278031000e+00 -4.260200000e-02
4330000.0 -1.263888000e+00 -2.928200000e-02
4420000.0 -1.248237000e+00 -1.942700000e-02
4510000.0 -1.234352000e+00 -7.264000000e-03
4600000.0 -1.223953000e+00 3.253000000e-03
4690000.0 -1.213191000e+00 1.679300000e-02
4780000.0 -1.202891000e+00 2.654100000e-02
4870000.0 -1.194973000e+00 3.644400000e-02
4960000.0 -1.187032000e+00 4.816700000e-02
5050000.0 -1.172084000e+00 5.839500000e-02
5140000.0 -1.167807000e+00 6.942900000e-02
5230000.0 -1.161846000e+00 7.946400000e-02
5320000.0 -1.156456000e+00 9.003500000e-02
5410000.0 -1.152343000e+00 1.010430000e-01
5500000.0 -1.147538000e+00 1.105470000e-01
5590000.0 -1.143022000e+00 1.219640000e-01
5680000.0 -1.139536000e+00 1.309660000e-01
5770000.0 -1.135041000e+00 1.420970000e-01
5860000.0 -1.132120000e+00 1.503040000e-01
5950000.0 -1.129032000e+00 1.594900000e-01
6040000.0 -1.125376000e+00 1.679170000e-01
6130000.0 -1.122490000e+00 1.756150000e-01
6220000.0 -1.120325000e+00 1.847010000e-01
6310000.0 -1.116584000e+00 1.922290000e-01
6400000.0 -1.114581000e+00 2.005960000e-01
6490000.0 -1.112238000e+00 2.067030000e-01
6580000.0 -1.110124000e+00 2.129400000e-01
6670000.0 -1.108309000e+00 2.188210000e-01
6760000.0 -1.106860000e+00 2.227630000e-01
6850000.0 -1.106499000e+00 2.288310000e-01
6940000.0 -1.104229000e+00 2.327010000e-01
7030000.0 -1.104347000e+00 2.348360000e-01
7120000.0 -1.102678000e+00 2.390650000e-01
7210000.0 -1.102389000e+00 2.407740000e-01
7300000.0 -1.102347000e+00 2.415170000e-01
7390000.0 -1.102412000e+00 2.424100000e-01
7480000.0 -1.102504000e+00 2.419530000e-01
7570000.0 1.956750000e-01 1.073447000e+00
7660000.0 1.954940000e-01 1.073857000e+00
7750000.0 1.940720000e-01 1.073601000e+00
7840000.0 1.921810000e-01 1.075493000e+00
7930000.0 1.921120000e-01 1.074831000e+00
8020000.0 1.904070000e-01 1.074920000e+00
8110000.0 1.909580000e-01 1.076085000e+00
8200000.0 1.897900000e-01 1.075754000e+00
8290000.0 1.893250000e-01 1.076286000e+00
8380000.0 1.887900000e-01 1.077698000e+00
8470000.0 1.888490000e-01 1.076748000e+00
8560000.0 1.872140000e-01 1.078592000e+00
8650000.0 1.864710000e-01 1.077967000e+00
8740000.0 1.865450000e-01 1.078355000e+00
8830000.0 1.857850000e-01 1.079037000e+00
8920000.0 1.846960000e-01 1.079548000e+00
9010000.0 1.836460000e-01 1.080605000e+00
9100000.0 1.816220000e-01 1.080582000e+00
9190000.0 1.822180000e-01 1.081802000e+00
9280000.0 1.814390000e-01 1.081737000e+00
9370000.0 1.808030000e-01 1.082436000e+00
9460000.0 1.809330000e-01 1.083538000e+00
9550000.0 1.799690000e-01 1.084160000e+00
9640000.0 1.786570000e-01 1.084799000e+00
9730000.0 1.778220000e-01 1.086065000e+00
9820000.0 1.775330000e-01 1.085286000e+00
9910000.0 1.772540000e-01 1.086659000e+00
10000000.0 1.756830000e-01 1.087191000e+00
10900000.0 1.697490000e-01 1.094128000e+00
11800000.0 1.630860000e-01 1.102484000e+00
12700000.0 1.579390000e-01 1.109275000e+00
13600000.0 1.510280000e-01 1.118346000e+00
14500000.0 1.434710000e-01 1.127478000e+00
15400000.0 1.385580000e-01 1.136428000e+00
16300000.0 1.307550000e-01 1.145621000e+00
17200000.0 1.243400000e-01 1.154958000e+00
18100000.0 1.172580000e-01 1.162750000e+00
19000000.0 1.079430000e-01 1.172243000e+00
19900000.0 1.014170000e-01 1.182203000e+00
20800000.0 9.288600000e-02 1.192120000e+00
21700000.0 8.436800000e-02 1.202047000e+00
22600000.0 7.455700000e-02 1.211779000e+00
23500000.0 6.617100000e-02 1.220991000e+00
24400000.0 5.705900000e-02 1.232792000e+00
25300000.0 4.705000000e-02 1.240966000e+00
26200000.0 3.741100000e-02 1.250782000e+00
27100000.0 2.545300000e-02 1.262001000e+00
28000000.0 1.401200000e-02 1.271934000e+00
28900000.0 3.073000000e-03 1.281731000e+00
29800000.0 -1.013800000e-02 1.292899000e+00
30700000.0 -2.156700000e-02 1.302018000e+00
31600000.0 -3.533400000e-02 1.312142000e+00
32500000.0 -4.878000000e-02 1.323437000e+00
33400000.0 -6.106900000e-02 1.331297000e+00
34300000.0 -7.616500000e-02 1.340807000e+00
35200000.0 -9.078000000e-02 1.351417000e+00
36100000.0 -1.064480000e-01 1.361224000e+00
37000000.0 -1.213320000e-01 1.369847000e+00
37900000.0 -1.382880000e-01 1.378721000e+00
38800000.0 -1.289740000e-01 1.386354000e+00
39700000.0 -1.711410000e-01 1.396740000e+00
40600000.0 -1.887100000e-01 1.403970000e+00
41500000.0 -2.067250000e-01 1.412710000e+00
42400000.0 -2.244370000e-01 1.421980000e+00
43300000.0 -2.195140000e-01 1.429938000e+00
44200000.0 -2.874790000e-01 1.434550000e+00
45100000.0 -2.578460000e-01 1.444345000e+00
46000000.0 -3.269860000e-01 1.444788000e+00
46900000.0 -2.984750000e-01 1.456914000e+00
47800000.0 -3.699690000e-01 1.456995000e+00
48700000.0 -3.654290000e-01 1.464117000e+00
49600000.0 -3.878970000e-01 1.468001000e+00
50500000.0 -4.085000000e-01 1.471761000e+00
51400000.0 -4.315180000e-01 1.474488000e+00
52300000.0 -4.536020000e-01 1.478117000e+00
53200000.0 -4.755700000e-01 1.479586000e+00
54100000.0 -4.995860000e-01 1.480292000e+00
55000000.0 -5.221010000e-01 1.481644000e+00
55900000.0 -5.460560000e-01 1.481385000e+00
56800000.0 -5.716960000e-01 1.481342000e+00
57700000.0 -5.945610000e-01 1.479941000e+00
58600000.0 -6.197560000e-01 1.477433000e+00
59500000.0 -6.432670000e-01 1.475175000e+00
60400000.0 -6.665340000e-01 1.471761000e+00
61300000.0 -6.915240000e-01 1.466605000e+00
62200000.0 -7.162080000e-01 1.462320000e+00
63100000.0 -7.414290000e-01 1.457070000e+00
64000000.0 -7.643550000e-01 1.450835000e+00
64900000.0 -7.896400000e-01 1.442080000e+00
65800000.0 -8.120540000e-01 1.436378000e+00
66700000.0 -8.361060000e-01 1.427600000e+00
67600000.0 -8.607720000e-01 1.417029000e+00
68500000.0 -8.836190000e-01 1.408540000e+00
69400000.0 -9.072270000e-01 1.397555000e+00
70300000.0 -9.301780000e-01 1.386446000e+00
71200000.0 -9.522670000e-01 1.375566000e+00
72100000.0 -9.754710000e-01 1.361485000e+00
73000000.0 -9.960080000e-01 1.348828000e+00
73900000.0 -1.018411000e+00 1.334696000e+00
74800000.0 -1.040561000e+00 1.320126000e+00
75700000.0 -1.061227000e+00 1.304451000e+00
76600000.0 -1.080839000e+00 1.288802000e+00
77500000.0 -1.100308000e+00 1.272569000e+00
78400000.0 -1.119612000e+00 1.255007000e+00
79300000.0 -1.139149000e+00 1.238083000e+00
80200000.0 -1.157208000e+00 1.218721000e+00
81100000.0 -1.174917000e+00 1.200132000e+00
82000000.0 -1.191943000e+00 1.181964000e+00
82900000.0 -1.209668000e+00 1.161157000e+00
83800000.0 -1.224286000e+00 1.142383000e+00
84700000.0 -1.239642000e+00 1.121043000e+00
85600000.0 -1.255396000e+00 1.101664000e+00
86500000.0 -1.269016000e+00 1.080414000e+00
87400000.0 -1.281019000e+00 1.058142000e+00
88300000.0 -1.295653000e+00 1.036490000e+00
89200000.0 -1.305519000e+00 1.015084000e+00
90100000.0 -1.317529000e+00 9.914860000e-01
91000000.0 -1.329286000e+00 9.689350000e-01
91900000.0 -1.338726000e+00 9.457380000e-01
92800000.0 -1.346645000e+00 9.232770000e-01
93700000.0 -1.354549000e+00 8.994980000e-01
94600000.0 -1.360439000e+00 8.767060000e-01
95500000.0 -1.369764000e+00 8.535130000e-01
96400000.0 -1.374634000e+00 8.313020000e-01
97300000.0 -1.381272000e+00 8.070330000e-01
98200000.0 -1.385387000e+00 7.844980000e-01
99100000.0 -1.388392000e+00 7.610770000e-01
100000000.0 -1.390380000e+00 7.379600000e-01
109000000.0 -1.385313000e+00 5.206350000e-01
118000000.0 -1.330320000e+00 3.388620000e-01
127000000.0 -1.250106000e+00 1.988010000e-01
136000000.0 -1.134678000e+00 1.005200000e-01
145000000.0 -1.046183000e+00 2.883600000e-02
154000000.0 -9.998780000e-01 -9.730000000e-04
163000000.0 -1.003086000e+00 -4.296000000e-03
172000000.0 -1.004539000e+00 -6.427000000e-03
181000000.0 -1.006653000e+00 -8.092000000e-03
190000000.0 -1.007179000e+00 -9.919000000e-03
199000000.0 -1.008819000e+00 -1.013600000e-02
208000000.0 -1.008639000e+00 -1.107000000e-02
217000000.0 -1.009540000e+00 -1.105300000e-02
226000000.0 -1.010201000e+00 -1.173000000e-02
235000000.0 -1.010327000e+00 -1.131300000e-02
244000000.0 -1.009502000e+00 -1.159500000e-02
253000000.0 -1.009409000e+00 -9.843000000e-03
262000000.0 -1.008145000e+00 -9.086000000e-03
271000000.0 -1.006309000e+00 -7.948000000e-03
280000000.0 -1.004389000e+00 -4.273000000e-03
289000000.0 -1.003264000e+00 -2.496000000e-03
298000000.0 -9.997060000e-01 -1.481000000e-03
307000000.0 -1.001846000e+00 -3.350000000e-04
316000000.0 -1.005910000e+00 -2.172000000e-03
325000000.0 -1.008406000e+00 -1.268000000e-03
334000000.0 -1.010489000e+00 -1.776000000e-03
343000000.0 -1.012156000e+00 -2.223000000e-03
352000000.0 -1.013998000e+00 -3.905000000e-03
361000000.0 -1.005084000e+00 2.973900000e-02
370000000.0 -1.014633000e+00 -2.818000000e-03
379000000.0 -1.015435000e+00 -3.290000000e-03
388000000.0 -1.014457000e+00 -2.356000000e-03
397000000.0 -1.013775000e+00 -4.398000000e-03
406000000.0 -1.012607000e+00 -3.202000000e-03
415000000.0 -1.010825000e+00 -3.773000000e-03
424000000.0 -1.009245000e+00 -2.271000000e-03
433000000.0 -1.007085000e+00 -2.238000000e-03
442000000.0 -1.004434000e+00 -1.793000000e-03
451000000.0 -9.992080000e-01 -2.008000000e-03
460000000.0 -1.004848000e+00 4.100000000e-05
469000000.0 -1.008412000e+00 -5.620000000e-04
478000000.0 -1.010071000e+00 1.822000000e-03
487000000.0 -1.012044000e+00 2.598000000e-03
496000000.0 -1.014576000e+00 1.616000000e-03
505000000.0 -1.015102000e+00 1.796000000e-03
514000000.0 -1.016116000e+00 3.094000000e-03
523000000.0 -1.016119000e+00 1.988000000e-03
532000000.0 -1.017072000e+00 3.332000000e-03
541000000.0 -1.017770000e+00 3.437000000e-03
550000000.0 -1.017005000e+00 1.163000000e-03
559000000.0 -1.014679000e+00 2.367000000e-03
568000000.0 -1.010428000e+00 8.400000000e-04
577000000.0 -1.008842000e+00 1.960000000e-04
586000000.0 -1.004459000e+00 2.007000000e-03
595000000.0 -1.002147000e+00 -5.650000000e-04
604000000.0 -9.998740000e-01 2.033000000e-03
613000000.0 -1.003711000e+00 3.031000000e-03
622000000.0 -1.002869000e+00 4.375000000e-03
631000000.0 -1.007926000e+00 8.081000000e-03
640000000.0 -1.010571000e+00 1.185400000e-02
649000000.0 -1.012877000e+00 9.937000000e-03
658000000.0 -1.010207000e+00 1.146100000e-02
667000000.0 -1.009504000e+00 1.884300000e-02
676000000.0 -1.008778000e+00 1.480500000e-02
685000000.0 -1.010404000e+00 9.574000000e-03
694000000.0 -1.010449000e+00 1.430900000e-02
703000000.0 -1.010772000e+00 1.172300000e-02
712000000.0 -1.010457000e+00 3.604000000e-03
721000000.0 -1.005851000e+00 9.200000000e-03
730000000.0 -1.005378000e+00 3.264000000e-03
739000000.0 -1.001458000e+00 9.130000000e-04
748000000.0 -9.993630000e-01 4.141000000e-03
757000000.0 -9.988390000e-01 2.793000000e-03
766000000.0 -1.000261000e+00 5.539000000e-03
775000000.0 -9.982800000e-01 8.517000000e-03
784000000.0 -1.000337000e+00 4.727000000e-03
793000000.0 -1.000734000e+00 9.380000000e-03
802000000.0 -9.992500000e-01 1.087900000e-02
811000000.0 -9.970400000e-01 1.175200000e-02
820000000.0 -9.953230000e-01 1.133100000e-02
829000000.0 -9.997620000e-01 4.391000000e-03
838000000.0 -9.966210000e-01 6.541000000e-03
847000000.0 -9.938990000e-01 4.990000000e-03
856000000.0 -9.985580000e-01 3.756000000e-03
865000000.0 -9.985100000e-01 4.608000000e-03
874000000.0 -9.986140000e-01 -8.150000000e-04
883000000.0 -9.977490000e-01 -6.350000000e-04
892000000.0 -9.951130000e-01 3.800000000e-03
901000000.0 -1.000010000e+00 6.360000000e-04
910000000.0 -9.987550000e-01 -1.998000000e-03
919000000.0 -1.000305000e+00 -8.176000000e-03
928000000.0 -9.999690000e-01 -4.688000000e-03
937000000.0 -1.001441000e+00 -6.919000000e-03
946000000.0 -1.000855000e+00 -4.649000000e-03
955000000.0 -9.999910000e-01 -4.739000000e-03
964000000.0 -9.990070000e-01 -5.595000000e-03
973000000.0 -1.002810000e+00 -9.882000000e-03
982000000.0 -9.999460000e-01 -6.434000000e-03
991000000.0 -1.004532000e+00 -5.886000000e-03
1000000000.0 -1.002228000e+00 -3.376000000e-03
1004500000.0 -1.001713000e+00 -9.117000000e-03
1009000000.0 -1.001414000e+00 -5.844000000e-03
1013500000.0 -1.001865000e+00 -1.008500000e-02
1018000000.0 -1.002196000e+00 -6.292000000e-03
1022500000.0 -9.991420000e-01 -1.263800000e-02
1027000000.0 -1.002129000e+00 -6.503000000e-03
1031500000.0 -1.001115000e+00 -5.671000000e-03
1036000000.0 -1.003217000e+00 -6.460000000e-03
1040500000.0 -9.989990000e-01 -6.453000000e-03
1045000000.0 -1.004445000e+00 -6.873000000e-03
1049500000.0 -1.002483000e+00 -7.871000000e-03
1054000000.0 -1.002861000e+00 -4.839000000e-03
1058500000.0 -1.005393000e+00 -7.808000000e-03
1063000000.0 -1.002591000e+00 -8.232000000e-03
1067500000.0 -1.005525000e+00 -1.040600000e-02
1072000000.0 -1.005935000e+00 -9.259000000e-03
1076500000.0 -1.004665000e+00 -8.461000000e-03
1081000000.0 -1.005565000e+00 -6.315000000e-03
1085500000.0 -1.008059000e+00 -1.109200000e-02
1090000000.0 -1.006584000e+00 -1.307000000e-02
1094500000.0 -1.007005000e+00 -1.307000000e-02
1099000000.0 -1.005195000e+00 -1.187100000e-02
1103500000.0 -1.006610000e+00 -8.587000000e-03
1108000000.0 -1.003278000e+00 -1.065700000e-02
1112500000.0 -1.005806000e+00 -8.946000000e-03
1117000000.0 -1.007099000e+00 -9.085000000e-03
1121500000.0 -1.012410000e+00 -1.066900000e-02
1126000000.0 -1.017082000e+00 -7.305000000e-03
1130500000.0 -1.015236000e+00 -1.247500000e-02
1135000000.0 -1.017515000e+00 -4.008300000e-02
1139500000.0 -1.013793000e+00 -3.803000000e-02
1144000000.0 -1.013669000e+00 -4.166000000e-02
1148500000.0 -1.002149000e+00 -4.383000000e-03
1153000000.0 -1.005259000e+00 -1.156000000e-03
1157500000.0 -1.006548000e+00 -2.538500000e-02
1162000000.0 -1.003830000e+00 -8.797000000e-03
1166500000.0 -1.005520000e+00 -8.946000000e-03
1171000000.0 -1.000457000e+00 -5.982000000e-03
1175500000.0 -1.002504000e+00 -7.581000000e-03
1180000000.0 -1.000882000e+00 -7.483000000e-03
1184500000.0 -9.993930000e-01 -1.223600000e-02
1189000000.0 -9.997780000e-01 -1.034900000e-02
1193500000.0 -9.953150000e-01 3.270000000e-04
1198000000.0 -9.982010000e-01 -7.283000000e-03
1202500000.0 -9.988170000e-01 -3.759000000e-03
1207000000.0 -9.970270000e-01 -4.763000000e-03
1211500000.0 -9.977500000e-01 -1.577000000e-03
1216000000.0 -1.002617000e+00 -6.710000000e-04
1220500000.0 -1.003184000e+00 -8.790000000e-03
1225000000.0 -1.004219000e+00 -5.414000000e-03
1229500000.0 -1.007984000e+00 -4.536000000e-03
1234000000.0 -9.987200000e-01 -3.381000000e-03
1238500000.0 -1.008387000e+00 -7.767000000e-03
1243000000.0 -1.000067000e+00 -4.460000000e-03
1247500000.0 -1.004527000e+00 -7.394000000e-03
1252000000.0 -1.006130000e+00 -6.240000000e-03
1256500000.0 -1.006022000e+00 4.300000000e-05
1261000000.0 -1.001121000e+00 -4.354000000e-03
1265500000.0 -1.005646000e+00 -8.723000000e-03
1270000000.0 -1.005107000e+00 -6.639000000e-03
1274500000.0 -1.013617000e+00 -1.314000000e-02
1279000000.0 -1.009187000e+00 -2.339000000e-03
1283500000.0 -1.006387000e+00 -4.220000000e-03
1288000000.0 -1.002247000e+00 -6.445000000e-03
1292500000.0 -1.004945000e+00 -3.833000000e-03
1297000000.0 -1.003271000e+00 -2.217000000e-03
1301500000.0 -1.005301000e+00 -1.804000000e-03
1306000000.0 -1.012059000e+00 -1.206200000e-02
1310500000.0 -1.002548000e+00 -3.364000000e-03
1315000000.0 -1.003945000e+00 -1.091200000e-02
1319500000.0 -1.003056000e+00 -1.284500000e-02
1324000000.0 -1.001791000e+00 -1.070000000e-04
1328500000.0 -9.992800000e-01 -1.050000000e-03
1333000000.0 -9.973390000e-01 -1.004400000e-02
1337500000.0 -9.953750000e-01 -4.366000000e-03
1342000000.0 -1.000395000e+00 -2.503000000e-03
1346500000.0 -9.976900000e-01 4.731000000e-03
1351000000.0 -9.890540000e-01 -1.044000000e-03
1355500000.0 -9.929960000e-01 -6.983000000e-03
1360000000.0 -9.957740000e-01 1.160000000e-03
1364500000.0 -9.984130000e-01 -9.746000000e-03
1369000000.0 -1.000156000e+00 2.357000000e-03
1373500000.0 -9.983130000e-01 1.002000000e-03
1378000000.0 -1.000559000e+00 -1.321000000e-03
1382500000.0 -1.003393000e+00 -4.966000000e-03
1387000000.0 -1.004214000e+00 -1.086800000e-02
1391500000.0 -1.002955000e+00 4.513000000e-03
1396000000.0 -1.001993000e+00 8.201000000e-03
1400500000.0 -1.003287000e+00 -4.283000000e-03
1405000000.0 -1.010772000e+00 -7.077000000e-03
1409500000.0 -1.012396000e+00 -1.783700000e-02
1414000000.0 -1.008477000e+00 -6.479000000e-03
1418500000.0 -1.011714000e+00 -1.508100000e-02
1423000000.0 -1.003833000e+00 3.173000000e-03
1427500000.0 -1.007521000e+00 -7.850000000e-04
1432000000.0 -1.009084000e+00 -5.462000000e-03
1436500000.0 -1.010937000e+00 -4.942000000e-03
1441000000.0 -1.008668000e+00 -4.226000000e-03
1445500000.0 -1.010084000e+00 -9.412000000e-03
1450000000.0 -1.009939000e+00 -1.012300000e-02
