! piloto_deriva / corto_deriva / r29
# HZ S RI R 50
50000.0 -9.993790000e-01 -3.730500000e-02
59500.0 -9.981810000e-01 -1.806900000e-02
69000.0 -9.988700000e-01 -3.905000000e-03
78500.0 -9.992520000e-01 -9.500000000e-04
88000.0 -9.987640000e-01 7.900000000e-05
97500.0 -1.000394000e+00 3.200000000e-04
107000.0 -1.000149000e+00 -2.743000000e-03
116500.0 -1.000422000e+00 -6.034000000e-03
126000.0 -1.000041000e+00 -1.088600000e-02
135500.0 -1.000590000e+00 -1.671400000e-02
145000.0 -9.999730000e-01 -2.233700000e-02
154500.0 -1.000212000e+00 -2.979700000e-02
164000.0 -9.998360000e-01 -3.638900000e-02
173500.0 -9.999110000e-01 -4.386000000e-02
183000.0 -9.999160000e-01 -5.250100000e-02
192500.0 -9.995590000e-01 -6.025500000e-02
202000.0 -1.000273000e+00 -6.921500000e-02
211500.0 -1.000027000e+00 -7.728600000e-02
221000.0 -1.000498000e+00 -8.656400000e-02
230500.0 -1.000481000e+00 -9.518200000e-02
240000.0 -1.001178000e+00 -1.039480000e-01
249500.0 -1.000891000e+00 -1.125710000e-01
259000.0 -1.001607000e+00 -1.226420000e-01
268500.0 -1.001342000e+00 -1.317580000e-01
278000.0 -1.001504000e+00 -1.404900000e-01
287500.0 -1.001368000e+00 -1.499810000e-01
297000.0 -1.001841000e+00 -1.596130000e-01
306500.0 -1.001866000e+00 -1.685610000e-01
316000.0 -1.002256000e+00 -1.782430000e-01
325500.0 -1.003320000e+00 -1.878000000e-01
335000.0 -1.002956000e+00 -1.966090000e-01
344500.0 -1.003135000e+00 -2.062440000e-01
354000.0 -1.003099000e+00 -2.153020000e-01
363500.0 -1.003680000e+00 -2.244400000e-01
373000.0 -1.004180000e+00 -2.340010000e-01
382500.0 -1.005107000e+00 -2.429810000e-01
392000.0 -1.004242000e+00 -2.522520000e-01
401500.0 -1.004911000e+00 -2.618450000e-01
411000.0 -1.004878000e+00 -2.714800000e-01
420500.0 -1.004690000e+00 -2.804970000e-01
430000.0 -1.004936000e+00 -2.899250000e-01
439500.0 -1.004718000e+00 -2.994660000e-01
449000.0 -1.005167000e+00 -3.083570000e-01
458500.0 -1.005273000e+00 -3.175980000e-01
468000.0 -1.005277000e+00 -3.270070000e-01
477500.0 -1.006303000e+00 -3.362730000e-01
487000.0 -1.006739000e+00 -3.463790000e-01
496500.0 -9.910990000e-01 -3.577490000e-01
506000.0 -1.007443000e+00 -3.646070000e-01
515500.0 -1.008071000e+00 -3.729180000e-01
525000.0 -1.006846000e+00 -3.820410000e-01
534500.0 -1.007555000e+00 -3.925250000e-01
544000.0 -1.008437000e+00 -4.011100000e-01
553500.0 -1.007652000e+00 -4.102760000e-01
563000.0 -1.008888000e+00 -4.189390000e-01
572500.0 -1.009127000e+00 -4.287910000e-01
582000.0 -1.009802000e+00 -4.380690000e-01
591500.0 -1.010442000e+00 -4.467650000e-01
601000.0 -1.010097000e+00 -4.566170000e-01
610500.0 -1.010997000e+00 -4.648030000e-01
620000.0 -1.012308000e+00 -4.741580000e-01
629500.0 -1.011905000e+00 -4.834580000e-01
639000.0 -1.013338000e+00 -4.929670000e-01
648500.0 -1.013596000e+00 -5.014220000e-01
658000.0 -1.013045000e+00 -5.102900000e-01
667500.0 -1.014285000e+00 -5.199970000e-01
677000.0 -1.015484000e+00 -5.282180000e-01
686500.0 -1.016894000e+00 -5.374280000e-01
696000.0 -1.016747000e+00 -5.464250000e-01
705500.0 -1.017165000e+00 -5.553870000e-01
715000.0 -1.017842000e+00 -5.647160000e-01
724500.0 -1.020087000e+00 -5.735820000e-01
734000.0 -1.020141000e+00 -5.822380000e-01
743500.0 -1.021661000e+00 -5.922060000e-01
753000.0 -1.022433000e+00 -6.010680000e-01
762500.0 -1.023290000e+00 -6.096270000e-01
772000.0 -1.024614000e+00 -6.183900000e-01
781500.0 -1.025979000e+00 -6.273340000e-01
791000.0 -1.027907000e+00 -6.356700000e-01
800500.0 -1.027651000e+00 -6.447210000e-01
810000.0 -1.028880000e+00 -6.529340000e-01
819500.0 -1.029741000e+00 -6.611710000e-01
829000.0 -1.031972000e+00 -6.709080000e-01
838500.0 -1.033070000e+00 -6.806240000e-01
848000.0 -1.033949000e+00 -6.880580000e-01
857500.0 -1.035845000e+00 -6.979300000e-01
867000.0 -1.037185000e+00 -7.046750000e-01
876500.0 -1.039794000e+00 -7.156430000e-01
886000.0 -1.041787000e+00 -7.239470000e-01
895500.0 -1.042175000e+00 -7.315190000e-01
905000.0 -1.045962000e+00 -7.408850000e-01
914500.0 -1.046317000e+00 -7.501800000e-01
924000.0 -1.048092000e+00 -7.568100000e-01
933500.0 -1.049934000e+00 -7.661470000e-01
943000.0 -1.052946000e+00 -7.742820000e-01
952500.0 -1.054435000e+00 -7.841340000e-01
962000.0 -1.059477000e+00 -7.926740000e-01
971500.0 -1.060654000e+00 -8.005070000e-01
981000.0 -1.062707000e+00 -8.085590000e-01
990500.0 -1.065015000e+00 -8.173870000e-01
1000000.0 -1.069445000e+00 -8.260530000e-01
1090000.0 -1.095675000e+00 -9.043910000e-01
1180000.0 -1.134059000e+00 -9.768560000e-01
1270000.0 -1.181524000e+00 -1.046432000e+00
1360000.0 -1.239301000e+00 -1.103218000e+00
1450000.0 -1.305442000e+00 -1.154227000e+00
1540000.0 -1.383947000e+00 -1.191186000e+00
1630000.0 -1.471454000e+00 -1.210921000e+00
1720000.0 -1.562082000e+00 -1.212661000e+00
1810000.0 -1.651739000e+00 -1.189364000e+00
1900000.0 -1.733523000e+00 -1.143303000e+00
1990000.0 -1.805449000e+00 -1.082033000e+00
2080000.0 -1.857411000e+00 -1.002669000e+00
2170000.0 -1.897502000e+00 -9.131880000e-01
2260000.0 -1.917166000e+00 -8.189780000e-01
2350000.0 -1.916352000e+00 -7.295270000e-01
2440000.0 -1.896842000e+00 -6.444550000e-01
2530000.0 -1.876330000e+00 -5.652410000e-01
2620000.0 -1.841408000e+00 -4.955830000e-01
2710000.0 -1.801001000e+00 -4.386320000e-01
2800000.0 -1.759236000e+00 -3.863600000e-01
2890000.0 -1.714509000e+00 -3.394690000e-01
2980000.0 -1.674983000e+00 -3.032160000e-01
3070000.0 -1.632756000e+00 -2.691760000e-01
3160000.0 -1.593993000e+00 -2.386350000e-01
3250000.0 -1.555608000e+00 -2.160990000e-01
3340000.0 -1.520746000e+00 -1.942440000e-01
3430000.0 -1.489445000e+00 -1.733160000e-01
3520000.0 -1.458148000e+00 -1.536520000e-01
3610000.0 -1.428768000e+00 -1.366100000e-01
3700000.0 -1.402213000e+00 -1.215670000e-01
3790000.0 -1.376529000e+00 -1.049000000e-01
3880000.0 -1.355880000e+00 -9.330800000e-02
3970000.0 -1.333267000e+00 -8.033300000e-02
4060000.0 -1.313806000e+00 -6.750300000e-02
4150000.0 -1.297220000e+00 -5.401200000e-02
4240000.0 -1.277739000e+00 -4.278500000e-02
4330000.0 -1.261585000e+00 -3.133300000e-02
4420000.0 -1.247993000e+00 -1.941400000e-02
4510000.0 -1.236452000e+00 -8.331000000e-03
4600000.0 -1.224782000e+00 3.262000000e-03
4690000.0 -1.212913000e+00 1.478300000e-02
4780000.0 -1.202418000e+00 2.577200000e-02
4870000.0 -1.194590000e+00 3.654600000e-02
4960000.0 -1.187497000e+00 4.822000000e-02
5050000.0 -1.173008000e+00 5.890900000e-02
5140000.0 -1.166496000e+00 6.939500000e-02
5230000.0 -1.162313000e+00 7.954100000e-02
5320000.0 -1.156948000e+00 9.186300000e-02
5410000.0 -1.152803000e+00 1.013590000e-01
5500000.0 -1.147732000e+00 1.108400000e-01
5590000.0 -1.143618000e+00 1.209200000e-01
5680000.0 -1.138735000e+00 1.307140000e-01
5770000.0 -1.135356000e+00 1.404760000e-01
5860000.0 -1.132318000e+00 1.513840000e-01
5950000.0 -1.128409000e+00 1.596660000e-01
6040000.0 -1.125374000e+00 1.678040000e-01
6130000.0 -1.122865000e+00 1.766440000e-01
6220000.0 -1.120305000e+00 1.841790000e-01
6310000.0 -1.116566000e+00 1.929720000e-01
6400000.0 -1.114658000e+00 1.997410000e-01
6490000.0 -1.111886000e+00 2.066770000e-01
6580000.0 -1.110117000e+00 2.126950000e-01
6670000.0 -1.108907000e+00 2.181080000e-01
6760000.0 -1.107493000e+00 2.233610000e-01
6850000.0 -1.105211000e+00 2.287050000e-01
6940000.0 -1.105390000e+00 2.330950000e-01
7030000.0 -1.103253000e+00 2.355120000e-01
7120000.0 -1.103220000e+00 2.388850000e-01
7210000.0 -1.101346000e+00 2.409210000e-01
7300000.0 -1.101560000e+00 2.416830000e-01
7390000.0 -1.102038000e+00 2.423510000e-01
7480000.0 -1.102027000e+00 2.429000000e-01
7570000.0 1.950250000e-01 1.073172000e+00
7660000.0 1.944260000e-01 1.074188000e+00
7750000.0 1.947950000e-01 1.073907000e+00
7840000.0 1.920540000e-01 1.074644000e+00
7930000.0 1.919130000e-01 1.075068000e+00
8020000.0 1.912570000e-01 1.074576000e+00
8110000.0 1.911170000e-01 1.075237000e+00
8200000.0 1.902860000e-01 1.076330000e+00
8290000.0 1.889860000e-01 1.076395000e+00
8380000.0 1.897960000e-01 1.077082000e+00
8470000.0 1.878550000e-01 1.077275000e+00
8560000.0 1.878740000e-01 1.078949000e+00
8650000.0 1.867290000e-01 1.078036000e+00
8740000.0 1.860600000e-01 1.079210000e+00
8830000.0 1.858790000e-01 1.079516000e+00
8920000.0 1.838320000e-01 1.078860000e+00
9010000.0 1.839280000e-01 1.081865000e+00
9100000.0 1.836030000e-01 1.080448000e+00
9190000.0 1.830670000e-01 1.081263000e+00
9280000.0 1.818140000e-01 1.081975000e+00
9370000.0 1.809090000e-01 1.082446000e+00
9460000.0 1.800470000e-01 1.083008000e+00
9550000.0 1.794100000e-01 1.084308000e+00
9640000.0 1.784710000e-01 1.084365000e+00
9730000.0 1.787780000e-01 1.085482000e+00
9820000.0 1.776860000e-01 1.085472000e+00
9910000.0 1.764230000e-01 1.086803000e+00
10000000.0 1.762750000e-01 1.087133000e+00
10900000.0 1.704630000e-01 1.094864000e+00
11800000.0 1.627140000e-01 1.102561000e+00
12700000.0 1.575800000e-01 1.110339000e+00
13600000.0 1.497260000e-01 1.118217000e+00
14500000.0 1.437060000e-01 1.126248000e+00
15400000.0 1.375390000e-01 1.135261000e+00
16300000.0 1.312460000e-01 1.145081000e+00
17200000.0 1.235620000e-01 1.153952000e+00
18100000.0 1.165570000e-01 1.163511000e+00
19000000.0 1.079390000e-01 1.173329000e+00
19900000.0 1.006850000e-01 1.181628000e+00
20800000.0 9.269400000e-02 1.192053000e+00
21700000.0 8.435200000e-02 1.201801000e+00
22600000.0 7.598700000e-02 1.211090000e+00
23500000.0 6.646500000e-02 1.221614000e+00
24400000.0 5.710700000e-02 1.232128000e+00
25300000.0 4.687800000e-02 1.241527000e+00
26200000.0 3.694300000e-02 1.251615000e+00
27100000.0 2.550200000e-02 1.261753000e+00
28000000.0 1.360300000e-02 1.271994000e+00
28900000.0 2.431000000e-03 1.281686000e+00
29800000.0 -9.631000000e-03 1.291781000e+00
30700000.0 -2.128100000e-02 1.303119000e+00
31600000.0 -3.494300000e-02 1.312217000e+00
32500000.0 -4.847500000e-02 1.321559000e+00
33400000.0 -6.092200000e-02 1.332726000e+00
34300000.0 -7.655900000e-02 1.340801000e+00
35200000.0 -9.078800000e-02 1.350951000e+00
36100000.0 -1.058070000e-01 1.361102000e+00
37000000.0 -1.223020000e-01 1.370410000e+00
37900000.0 -1.380880000e-01 1.379875000e+00
38800000.0 -1.535370000e-01 1.387712000e+00
39700000.0 -1.719520000e-01 1.396772000e+00
40600000.0 -1.884250000e-01 1.404759000e+00
41500000.0 -2.075360000e-01 1.412344000e+00
42400000.0 -2.242390000e-01 1.421451000e+00
43300000.0 -2.438780000e-01 1.427287000e+00
44200000.0 -2.631380000e-01 1.436026000e+00
45100000.0 -2.828390000e-01 1.441590000e+00
46000000.0 -3.021900000e-01 1.447741000e+00
46900000.0 -3.226080000e-01 1.453249000e+00
47800000.0 -3.443340000e-01 1.459192000e+00
48700000.0 -3.648010000e-01 1.463969000e+00
49600000.0 -3.864030000e-01 1.467434000e+00
50500000.0 -4.081790000e-01 1.472776000e+00
51400000.0 -4.319100000e-01 1.475255000e+00
52300000.0 -4.535660000e-01 1.478021000e+00
53200000.0 -4.751640000e-01 1.479737000e+00
54100000.0 -4.999290000e-01 1.479972000e+00
55000000.0 -5.229630000e-01 1.482405000e+00
55900000.0 -5.474720000e-01 1.481308000e+00
56800000.0 -5.700310000e-01 1.480466000e+00
57700000.0 -5.944470000e-01 1.479231000e+00
58600000.0 -6.187370000e-01 1.479669000e+00
59500000.0 -6.426220000e-01 1.474061000e+00
60400000.0 -6.681010000e-01 1.470835000e+00
61300000.0 -6.929070000e-01 1.467819000e+00
62200000.0 -7.155110000e-01 1.462655000e+00
63100000.0 -7.422150000e-01 1.456584000e+00
64000000.0 -7.647910000e-01 1.451814000e+00
64900000.0 -7.898680000e-01 1.443282000e+00
65800000.0 -8.123380000e-01 1.435218000e+00
66700000.0 -8.372040000e-01 1.427813000e+00
67600000.0 -8.600380000e-01 1.417413000e+00
68500000.0 -8.842780000e-01 1.409416000e+00
69400000.0 -9.073700000e-01 1.397854000e+00
70300000.0 -9.299660000e-01 1.386236000e+00
71200000.0 -9.533790000e-01 1.375160000e+00
72100000.0 -9.759180000e-01 1.361720000e+00
73000000.0 -9.971470000e-01 1.349420000e+00
73900000.0 -1.018284000e+00 1.335486000e+00
74800000.0 -1.040890000e+00 1.318732000e+00
75700000.0 -1.059851000e+00 1.304502000e+00
76600000.0 -1.081722000e+00 1.287908000e+00
77500000.0 -1.100347000e+00 1.271757000e+00
78400000.0 -1.120961000e+00 1.255356000e+00
79300000.0 -1.138787000e+00 1.237660000e+00
80200000.0 -1.158026000e+00 1.221279000e+00
81100000.0 -1.176926000e+00 1.199725000e+00
82000000.0 -1.192603000e+00 1.180342000e+00
82900000.0 -1.211029000e+00 1.161075000e+00
83800000.0 -1.224995000e+00 1.142361000e+00
84700000.0 -1.241988000e+00 1.120740000e+00
85600000.0 -1.254451000e+00 1.100335000e+00
86500000.0 -1.269141000e+00 1.078245000e+00
87400000.0 -1.280929000e+00 1.058010000e+00
88300000.0 -1.294312000e+00 1.036854000e+00
89200000.0 -1.307741000e+00 1.013462000e+00
90100000.0 -1.318072000e+00 9.916130000e-01
91000000.0 -1.328551000e+00 9.682120000e-01
91900000.0 -1.337837000e+00 9.459890000e-01
92800000.0 -1.347856000e+00 9.222780000e-01
93700000.0 -1.353693000e+00 9.001240000e-01
94600000.0 -1.362275000e+00 8.760320000e-01
95500000.0 -1.369016000e+00 8.542160000e-01
96400000.0 -1.374276000e+00 8.317290000e-01
97300000.0 -1.378703000e+00 8.074600000e-01
98200000.0 -1.385050000e+00 7.836060000e-01
99100000.0 -1.387989000e+00 7.612860000e-01
100000000.0 -1.391823000e+00 7.377780000e-01
109000000.0 -1.385780000e+00 5.199870000e-01
118000000.0 -1.332149000e+00 3.396840000e-01
127000000.0 -1.250555000e+00 1.980270000e-01
136000000.0 -1.134040000e+00 1.003960000e-01
145000000.0 -1.045903000e+00 3.056900000e-02
154000000.0 -1.000406000e+00 -5.590000000e-04
163000000.0 -1.002356000e+00 -4.091000000e-03
172000000.0 -1.005285000e+00 -6.100000000e-03
181000000.0 -1.006402000e+00 -8.012000000e-03
190000000.0 -1.007952000e+00 -9.926000000e-03
199000000.0 -1.008734000e+00 -1.071000000e-02
208000000.0 -1.009964000e+00 -1.173200000e-02
217000000.0 -1.010193000e+00 -1.157900000e-02
226000000.0 -1.010202000e+00 -1.201600000e-02
235000000.0 -1.010646000e+00 -1.260800000e-02
244000000.0 -1.010315000e+00 -1.114900000e-02
253000000.0 -1.006735000e+00 8.805000000e-03
262000000.0 -1.007195000e+00 -1.033200000e-02
271000000.0 -1.008252000e+00 -2.519900000e-02
280000000.0 -1.003588000e+00 -5.919000000e-03
289000000.0 -9.997880000e-01 1.417800000e-02
298000000.0 -9.994690000e-01 -1.139000000e-03
307000000.0 -1.004946000e+00 -1.879000000e-02
316000000.0 -1.005095000e+00 -1.519000000e-03
325000000.0 -1.004566000e+00 1.727400000e-02
334000000.0 -1.010070000e+00 -2.399000000e-03
343000000.0 -1.011647000e+00 -2.868000000e-03
352000000.0 -1.012264000e+00 -3.801000000e-03
361000000.0 -9.962830000e-01 2.698600000e-02
370000000.0 -1.014908000e+00 -3.925000000e-03
379000000.0 -1.012240000e+00 1.386900000e-02
388000000.0 -1.024807000e+00 -1.980200000e-02
397000000.0 -1.010286000e+00 1.438900000e-02
406000000.0 -1.002688000e+00 3.066200000e-02
415000000.0 -1.007455000e+00 1.284200000e-02
424000000.0 -1.008211000e+00 -1.881000000e-03
433000000.0 -1.005435000e+00 -2.045000000e-03
442000000.0 -1.003225000e+00 -1.312000000e-03
451000000.0 -1.000257000e+00 -1.559000000e-03
460000000.0 -1.004215000e+00 2.290000000e-04
469000000.0 -1.006700000e+00 1.566000000e-03
478000000.0 -1.009783000e+00 1.366000000e-03
487000000.0 -1.012758000e+00 2.200000000e-03
496000000.0 -1.014988000e+00 2.145000000e-03
505000000.0 -1.014356000e+00 4.310000000e-04
514000000.0 -1.016348000e+00 3.515000000e-03
523000000.0 -1.016899000e+00 2.927000000e-03
532000000.0 -1.017399000e+00 5.786000000e-03
541000000.0 -1.015585000e+00 2.776000000e-03
550000000.0 -1.013205000e+00 2.438000000e-03
559000000.0 -1.013230000e+00 6.010000000e-03
568000000.0 -1.012192000e+00 -3.270000000e-04
577000000.0 -1.009353000e+00 2.121000000e-03
586000000.0 -1.006964000e+00 1.755000000e-03
595000000.0 -1.003549000e+00 6.390000000e-04
604000000.0 -1.001135000e+00 1.276000000e-03
613000000.0 -1.002667000e+00 7.715000000e-03
622000000.0 -1.004287000e+00 6.258000000e-03
631000000.0 -1.007812000e+00 6.728000000e-03
640000000.0 -1.010288000e+00 1.306700000e-02
649000000.0 -1.010305000e+00 9.957000000e-03
658000000.0 -1.012490000e+00 1.406700000e-02
667000000.0 -1.010400000e+00 1.318700000e-02
676000000.0 -1.013659000e+00 1.394000000e-02
685000000.0 -1.013535000e+00 1.240700000e-02
694000000.0 -1.010007000e+00 1.164500000e-02
703000000.0 -1.006825000e+00 1.056300000e-02
712000000.0 -1.001505000e+00 8.937000000e-03
721000000.0 -1.003143000e+00 5.978000000e-03
730000000.0 -1.005468000e+00 6.120000000e-03
739000000.0 -1.000493000e+00 5.658000000e-03
748000000.0 -9.984400000e-01 -8.000000000e-06
757000000.0 -9.965380000e-01 2.347000000e-03
766000000.0 -9.986240000e-01 2.977000000e-03
775000000.0 -1.000039000e+00 5.470000000e-03
784000000.0 -9.969190000e-01 6.265000000e-03
793000000.0 -9.987510000e-01 1.320600000e-02
802000000.0 -9.985520000e-01 7.814000000e-03
811000000.0 -9.965290000e-01 8.311000000e-03
820000000.0 -9.971560000e-01 1.232800000e-02
829000000.0 -9.985030000e-01 4.577000000e-03
838000000.0 -9.979320000e-01 4.367000000e-03
847000000.0 -9.948580000e-01 6.802000000e-03
856000000.0 -9.934220000e-01 7.278000000e-03
865000000.0 -9.987530000e-01 -5.230000000e-04
874000000.0 -9.970740000e-01 3.882000000e-03
883000000.0 -1.001565000e+00 -1.066000000e-03
892000000.0 -9.994880000e-01 -2.004000000e-03
901000000.0 -9.981860000e-01 -4.864000000e-03
910000000.0 -9.974090000e-01 -6.209000000e-03
919000000.0 -9.991250000e-01 -2.484000000e-03
928000000.0 -1.000744000e+00 -3.615000000e-03
937000000.0 -9.994430000e-01 -1.720000000e-04
946000000.0 -9.982670000e-01 -2.813000000e-03
955000000.0 -1.002036000e+00 -9.575000000e-03
964000000.0 -1.000965000e+00 -6.284000000e-03
973000000.0 -1.002546000e+00 -5.097000000e-03
982000000.0 -1.003288000e+00 -7.310000000e-03
991000000.0 -9.994860000e-01 -1.099500000e-02
1000000000.0 -1.000763000e+00 -7.013000000e-03
1004500000.0 -1.003412000e+00 -1.205600000e-02
1009000000.0 -1.002212000e+00 -5.104000000e-03
1013500000.0 -1.000055000e+00 -5.411000000e-03
1018000000.0 -1.001313000e+00 -6.183000000e-03
1022500000.0 -1.002347000e+00 -6.094000000e-03
1027000000.0 -1.000220000e+00 -6.048000000e-03
1031500000.0 -1.000668000e+00 -6.204000000e-03
1036000000.0 -1.000674000e+00 -8.830000000e-04
1040500000.0 -9.996770000e-01 -5.764000000e-03
1045000000.0 -1.001978000e+00 -7.463000000e-03
1049500000.0 -1.000392000e+00 -5.298000000e-03
1054000000.0 -1.002910000e+00 -6.703000000e-03
1058500000.0 -1.002286000e+00 -3.424000000e-03
1063000000.0 -1.002479000e+00 -6.719000000e-03
1067500000.0 -1.003164000e+00 -8.940000000e-03
1072000000.0 -1.003333000e+00 -8.069000000e-03
1076500000.0 -1.007404000e+00 -5.536000000e-03
1081000000.0 -1.004619000e+00 -1.279000000e-03
1085500000.0 -1.005948000e+00 -7.003000000e-03
1090000000.0 -1.010811000e+00 -9.794000000e-03
1094500000.0 -1.003209000e+00 -6.528000000e-03
1099000000.0 -1.007958000e+00 -1.140900000e-02
1103500000.0 -1.005976000e+00 -8.852000000e-03
1108000000.0 -1.005689000e+00 -1.069000000e-02
1112500000.0 -1.007030000e+00 -1.308800000e-02
1117000000.0 -1.003767000e+00 -1.129800000e-02
1121500000.0 -1.003223000e+00 -1.034000000e-02
1126000000.0 -9.978020000e-01 2.450500000e-02
1130500000.0 -1.006328000e+00 -1.374400000e-02
1135000000.0 -9.957090000e-01 2.957800000e-02
1139500000.0 -1.010804000e+00 -1.162500000e-02
1144000000.0 -1.004986000e+00 -5.396000000e-03
1148500000.0 -1.001622000e+00 -3.634000000e-03
1153000000.0 -9.963480000e-01 2.779500000e-02
1157500000.0 -1.005643000e+00 -3.916000000e-03
1162000000.0 -1.005512000e+00 -5.759000000e-03
1166500000.0 -1.002813000e+00 -6.100000000e-05
1171000000.0 -1.001890000e+00 -9.561000000e-03
1175500000.0 -9.994010000e-01 -8.669000000e-03
1180000000.0 -1.001040000e+00 -2.886000000e-03
1184500000.0 -9.990460000e-01 -1.189100000e-02
1189000000.0 -1.006192000e+00 -4.129000000e-03
1193500000.0 -9.990680000e-01 -2.203000000e-03
1198000000.0 -9.945120000e-01 -7.690000000e-04
1202500000.0 -1.000850000e+00 -7.930000000e-04
1207000000.0 -9.995950000e-01 -1.107100000e-02
1211500000.0 -9.997350000e-01 -3.076000000e-03
1216000000.0 -9.980590000e-01 -5.910000000e-03
1220500000.0 -1.003919000e+00 6.760000000e-04
1225000000.0 -1.006485000e+00 -3.276000000e-03
1229500000.0 -1.002014000e+00 -6.536000000e-03
1234000000.0 -1.001897000e+00 -2.965000000e-03
1238500000.0 -9.993320000e-01 -9.949000000e-03
1243000000.0 -1.002596000e+00 -5.049000000e-03
1247500000.0 -1.008100000e+00 -3.018000000e-03
1252000000.0 -1.002593000e+00 -8.589000000e-03
1256500000.0 -1.001677000e+00 -2.219000000e-03
1261000000.0 -1.006662000e+00 -9.391000000e-03
1265500000.0 -1.000978000e+00 -1.372500000e-02
1270000000.0 -1.002248000e+00 -5.307000000e-03
1274500000.0 -1.006832000e+00 -8.691000000e-03
1279000000.0 -1.002325000e+00 -6.163000000e-03
1283500000.0 -1.000835000e+00 -8.832000000e-03
1288000000.0 -1.002191000e+00 -9.883000000e-03
1292500000.0 -1.008539000e+00 -5.912000000e-03
1297000000.0 -1.008660000e+00 -7.119000000e-03
1301500000.0 -1.004675000e+00 -6.792000000e-03
1306000000.0 -1.004979000e+00 -1.259500000e-02
1310500000.0 -9.970070000e-01 -3.884000000e-03
1315000000.0 -1.000769000e+00 5.840000000e-04
1319500000.0 -1.000401000e+00 -1.037000000e-03
1324000000.0 -1.000808000e+00 -3.960000000e-03
1328500000.0 -9.921390000e-01 3.522000000e-03
1333000000.0 -9.914080000e-01 3.594000000e-03
1337500000.0 -9.889790000e-01 -8.958000000e-03
1342000000.0 -9.938880000e-01 -1.346000000e-03
1346500000.0 -9.909710000e-01 6.498000000e-03
1351000000.0 -9.894050000e-01 -3.800000000e-05
1355500000.0 -9.923590000e-01 -5.529000000e-03
1360000000.0 -9.914930000e-01 -4.973000000e-03
1364500000.0 -9.998940000e-01 -1.223200000e-02
1369000000.0 -1.001042000e+00 -3.896000000e-03
1373500000.0 -1.001167000e+00 3.331000000e-03
1378000000.0 -1.000253000e+00 3.967000000e-03
1382500000.0 -9.948710000e-01 7.701000000e-03
1387000000.0 -1.004475000e+00 -7.300000000e-04
1391500000.0 -1.002453000e+00 3.171000000e-03
1396000000.0 -1.001329000e+00 -3.884000000e-03
1400500000.0 -1.004524000e+00 -3.758000000e-03
1405000000.0 -1.003647000e+00 -3.053000000e-03
1409500000.0 -1.002631000e+00 -2.953000000e-03
1414000000.0 -1.010861000e+00 -5.538000000e-03
1418500000.0 -1.010922000e+00 -6.072000000e-03
1423000000.0 -1.008451000e+00 -7.398000000e-03
1427500000.0 -1.016362000e+00 -2.078500000e-02
1432000000.0 -1.014302000e+00 -1.212700000e-02
1436500000.0 -1.013522000e+00 1.240000000e-04
1441000000.0 -1.013984000e+00 -1.020900000e-02
1445500000.0 -1.012051000e+00 1.305000000e-03
1450000000.0 -1.010683000e+00 2.760000000e-04
