! piloto_deriva / corto_deriva / r35
# HZ S RI R 50
50000.0 -9.985310000e-01 -5.445900000e-02
59500.0 -9.956980000e-01 -1.000000000e-04
69000.0 -1.000375000e+00 -2.160200000e-02
78500.0 -9.974370000e-01 1.551300000e-02
88000.0 -9.990730000e-01 -3.230000000e-04
97500.0 -9.995050000e-01 -8.800000000e-04
107000.0 -9.999760000e-01 -2.469000000e-03
116500.0 -1.000158000e+00 -5.800000000e-03
126000.0 -1.000156000e+00 -1.099400000e-02
135500.0 -9.990420000e-01 -1.562400000e-02
145000.0 -9.998500000e-01 -2.223300000e-02
154500.0 -9.995920000e-01 -2.896800000e-02
164000.0 -1.000410000e+00 -3.639300000e-02
173500.0 -1.000453000e+00 -4.438600000e-02
183000.0 -1.000596000e+00 -5.233500000e-02
192500.0 -1.000146000e+00 -5.940900000e-02
202000.0 -1.000257000e+00 -6.882900000e-02
211500.0 -9.998250000e-01 -7.763500000e-02
221000.0 -1.000768000e+00 -8.640800000e-02
230500.0 -1.000696000e+00 -9.500400000e-02
240000.0 -1.000570000e+00 -1.042170000e-01
249500.0 -1.001126000e+00 -1.125450000e-01
259000.0 -1.001296000e+00 -1.224370000e-01
268500.0 -1.001582000e+00 -1.313800000e-01
278000.0 -1.001180000e+00 -1.402650000e-01
287500.0 -1.001529000e+00 -1.502520000e-01
297000.0 -1.002466000e+00 -1.593590000e-01
306500.0 -1.002648000e+00 -1.687660000e-01
316000.0 -1.002067000e+00 -1.776150000e-01
325500.0 -1.002980000e+00 -1.873970000e-01
335000.0 -1.002573000e+00 -1.966350000e-01
344500.0 -1.003619000e+00 -2.059220000e-01
354000.0 -1.003764000e+00 -2.143300000e-01
363500.0 -1.004441000e+00 -2.246750000e-01
373000.0 -1.003720000e+00 -2.329710000e-01
382500.0 -1.004464000e+00 -2.433870000e-01
392000.0 -1.004686000e+00 -2.524090000e-01
401500.0 -1.004815000e+00 -2.627640000e-01
411000.0 -1.004915000e+00 -2.712670000e-01
420500.0 -1.005270000e+00 -2.812060000e-01
430000.0 -1.004953000e+00 -2.895790000e-01
439500.0 -1.006212000e+00 -2.989640000e-01
449000.0 -1.004714000e+00 -3.088550000e-01
458500.0 -1.006001000e+00 -3.181340000e-01
468000.0 -1.006172000e+00 -3.272680000e-01
477500.0 -1.006690000e+00 -3.367760000e-01
487000.0 -1.006323000e+00 -3.457630000e-01
496500.0 -1.007335000e+00 -3.559110000e-01
506000.0 -1.007144000e+00 -3.645270000e-01
515500.0 -1.006901000e+00 -3.735880000e-01
525000.0 -1.007826000e+00 -3.824590000e-01
534500.0 -1.007797000e+00 -3.915380000e-01
544000.0 -1.008761000e+00 -4.012250000e-01
553500.0 -1.008838000e+00 -4.104970000e-01
563000.0 -1.008799000e+00 -4.187950000e-01
572500.0 -1.009484000e+00 -4.284940000e-01
582000.0 -1.010696000e+00 -4.381460000e-01
591500.0 -1.009833000e+00 -4.462580000e-01
601000.0 -1.011507000e+00 -4.568270000e-01
610500.0 -1.011633000e+00 -4.651180000e-01
620000.0 -1.012363000e+00 -4.743930000e-01
629500.0 -1.012608000e+00 -4.831550000e-01
639000.0 -1.013977000e+00 -4.929250000e-01
648500.0 -1.013719000e+00 -5.019770000e-01
658000.0 -1.014044000e+00 -5.107970000e-01
667500.0 -1.014364000e+00 -5.201660000e-01
677000.0 -1.015725000e+00 -5.288380000e-01
686500.0 -1.016230000e+00 -5.383920000e-01
696000.0 -1.016893000e+00 -5.466860000e-01
705500.0 -1.018296000e+00 -5.553650000e-01
715000.0 -1.019516000e+00 -5.654270000e-01
724500.0 -1.019958000e+00 -5.728410000e-01
734000.0 -1.020880000e+00 -5.827200000e-01
743500.0 -1.020306000e+00 -5.920130000e-01
753000.0 -1.022156000e+00 -6.008690000e-01
762500.0 -1.025127000e+00 -6.090400000e-01
772000.0 -1.024709000e+00 -6.180880000e-01
781500.0 -1.025745000e+00 -6.280890000e-01
791000.0 -1.025842000e+00 -6.358600000e-01
800500.0 -1.028687000e+00 -6.450810000e-01
810000.0 -1.029488000e+00 -6.542170000e-01
819500.0 -1.030755000e+00 -6.621070000e-01
829000.0 -1.032558000e+00 -6.710300000e-01
838500.0 -1.033526000e+00 -6.808010000e-01
848000.0 -1.033680000e+00 -6.891750000e-01
857500.0 -1.035748000e+00 -6.975820000e-01
867000.0 -1.038117000e+00 -7.069100000e-01
876500.0 -1.039212000e+00 -7.159190000e-01
886000.0 -1.041772000e+00 -7.230640000e-01
895500.0 -1.043086000e+00 -7.321490000e-01
905000.0 -1.045525000e+00 -7.411970000e-01
914500.0 -1.046473000e+00 -7.507470000e-01
924000.0 -1.049165000e+00 -7.578960000e-01
933500.0 -1.051636000e+00 -7.665320000e-01
943000.0 -1.053370000e+00 -7.753450000e-01
952500.0 -1.054576000e+00 -7.833590000e-01
962000.0 -1.058382000e+00 -7.939400000e-01
971500.0 -1.060294000e+00 -8.005000000e-01
981000.0 -1.062917000e+00 -8.085570000e-01
990500.0 -1.064721000e+00 -8.179750000e-01
1000000.0 -1.068417000e+00 -8.273030000e-01
1090000.0 -1.095811000e+00 -9.033640000e-01
1180000.0 -1.132661000e+00 -9.780300000e-01
1270000.0 -1.181771000e+00 -1.044828000e+00
1360000.0 -1.239325000e+00 -1.107109000e+00
1450000.0 -1.310091000e+00 -1.156026000e+00
1540000.0 -1.386931000e+00 -1.192295000e+00
1630000.0 -1.471962000e+00 -1.210584000e+00
1720000.0 -1.562842000e+00 -1.209250000e+00
1810000.0 -1.653744000e+00 -1.187896000e+00
1900000.0 -1.734868000e+00 -1.145141000e+00
1990000.0 -1.808762000e+00 -1.078989000e+00
2080000.0 -1.862596000e+00 -1.003503000e+00
2170000.0 -1.896582000e+00 -9.133810000e-01
2260000.0 -1.918043000e+00 -8.203630000e-01
2350000.0 -1.916028000e+00 -7.284340000e-01
2440000.0 -1.901040000e+00 -6.438270000e-01
2530000.0 -1.872107000e+00 -5.665170000e-01
2620000.0 -1.840871000e+00 -4.970130000e-01
2710000.0 -1.801207000e+00 -4.400810000e-01
2800000.0 -1.761770000e+00 -3.547950000e-01
2890000.0 -1.714046000e+00 -3.734640000e-01
2980000.0 -1.674169000e+00 -2.725430000e-01
3070000.0 -1.631425000e+00 -3.002080000e-01
3160000.0 -1.594142000e+00 -2.130400000e-01
3250000.0 -1.555901000e+00 -2.426620000e-01
3340000.0 -1.522513000e+00 -1.652660000e-01
3430000.0 -1.488259000e+00 -1.717460000e-01
3520000.0 -1.457729000e+00 -1.534730000e-01
3610000.0 -1.427846000e+00 -1.370920000e-01
3700000.0 -1.402742000e+00 -1.208460000e-01
3790000.0 -1.378357000e+00 -1.078260000e-01
3880000.0 -1.355087000e+00 -9.307500000e-02
3970000.0 -1.332886000e+00 -7.966400000e-02
4060000.0 -1.313827000e+00 -6.844800000e-02
4150000.0 -1.295202000e+00 -5.350600000e-02
4240000.0 -1.278517000e+00 -4.333800000e-02
4330000.0 -1.263154000e+00 -3.040700000e-02
4420000.0 -1.248913000e+00 -1.776400000e-02
4510000.0 -1.236386000e+00 -7.458000000e-03
4600000.0 -1.223667000e+00 3.585000000e-03
4690000.0 -1.212752000e+00 1.471800000e-02
4780000.0 -1.203357000e+00 2.657200000e-02
4870000.0 -1.194497000e+00 3.767400000e-02
4960000.0 -1.186278000e+00 4.952000000e-02
5050000.0 -1.171598000e+00 5.837400000e-02
5140000.0 -1.167217000e+00 6.839100000e-02
5230000.0 -1.161476000e+00 7.909400000e-02
5320000.0 -1.157693000e+00 9.123000000e-02
5410000.0 -1.152468000e+00 1.010960000e-01
5500000.0 -1.146446000e+00 1.122770000e-01
5590000.0 -1.142395000e+00 1.205710000e-01
5680000.0 -1.138705000e+00 1.320820000e-01
5770000.0 -1.135612000e+00 1.409650000e-01
5860000.0 -1.131996000e+00 1.510740000e-01
5950000.0 -1.129323000e+00 1.598160000e-01
6040000.0 -1.125234000e+00 1.680320000e-01
6130000.0 -1.121532000e+00 1.763590000e-01
6220000.0 -1.118900000e+00 1.847020000e-01
6310000.0 -1.116643000e+00 1.924310000e-01
6400000.0 -1.114687000e+00 1.997390000e-01
6490000.0 -1.113074000e+00 2.059210000e-01
6580000.0 -1.110793000e+00 2.124410000e-01
6670000.0 -1.108405000e+00 2.189910000e-01
6760000.0 -1.107559000e+00 2.237980000e-01
6850000.0 -1.105534000e+00 2.279840000e-01
6940000.0 -1.104836000e+00 2.327530000e-01
7030000.0 -1.103494000e+00 2.349250000e-01
7120000.0 -1.102903000e+00 2.375370000e-01
7210000.0 -1.101914000e+00 2.398870000e-01
7300000.0 -1.101753000e+00 2.419420000e-01
7390000.0 -1.101667000e+00 2.431890000e-01
7480000.0 -1.101638000e+00 2.419060000e-01
7570000.0 1.958750000e-01 1.073628000e+00
7660000.0 1.948970000e-01 1.074619000e+00
7750000.0 1.934730000e-01 1.075143000e+00
7840000.0 1.930060000e-01 1.074358000e+00
7930000.0 1.932000000e-01 1.074663000e+00
8020000.0 1.920250000e-01 1.076406000e+00
8110000.0 1.906600000e-01 1.075318000e+00
8200000.0 1.911990000e-01 1.075155000e+00
8290000.0 1.892850000e-01 1.076991000e+00
8380000.0 1.880240000e-01 1.077184000e+00
8470000.0 1.880590000e-01 1.078298000e+00
8560000.0 1.878020000e-01 1.078699000e+00
8650000.0 1.865290000e-01 1.078651000e+00
8740000.0 1.857660000e-01 1.079334000e+00
8830000.0 1.846740000e-01 1.079920000e+00
8920000.0 1.842710000e-01 1.080374000e+00
9010000.0 1.831690000e-01 1.080244000e+00
9100000.0 1.837180000e-01 1.080559000e+00
9190000.0 1.818370000e-01 1.081312000e+00
9280000.0 1.821360000e-01 1.082469000e+00
9370000.0 1.806870000e-01 1.082882000e+00
9460000.0 1.807690000e-01 1.083130000e+00
9550000.0 1.797700000e-01 1.083383000e+00
9640000.0 1.788820000e-01 1.084090000e+00
9730000.0 1.782770000e-01 1.085438000e+00
9820000.0 1.766060000e-01 1.086124000e+00
9910000.0 1.767160000e-01 1.085991000e+00
10000000.0 1.754450000e-01 1.087267000e+00
10900000.0 1.701240000e-01 1.094475000e+00
11800000.0 1.635280000e-01 1.101462000e+00
12700000.0 1.576200000e-01 1.110345000e+00
13600000.0 1.513450000e-01 1.119277000e+00
14500000.0 1.456460000e-01 1.127393000e+00
15400000.0 1.384300000e-01 1.135392000e+00
16300000.0 1.308840000e-01 1.145220000e+00
17200000.0 1.241820000e-01 1.153944000e+00
18100000.0 1.171320000e-01 1.163067000e+00
19000000.0 1.087560000e-01 1.173613000e+00
19900000.0 9.973700000e-02 1.181887000e+00
20800000.0 9.386800000e-02 1.192183000e+00
21700000.0 8.573500000e-02 1.202135000e+00
22600000.0 7.542300000e-02 1.211926000e+00
23500000.0 6.644500000e-02 1.221316000e+00
24400000.0 5.624300000e-02 1.231226000e+00
25300000.0 4.721900000e-02 1.242216000e+00
26200000.0 3.501700000e-02 1.251488000e+00
27100000.0 2.481500000e-02 1.261407000e+00
28000000.0 1.393600000e-02 1.272757000e+00
28900000.0 2.712000000e-03 1.281414000e+00
29800000.0 -9.106000000e-03 1.291995000e+00
30700000.0 -2.141500000e-02 1.302490000e+00
31600000.0 -3.516700000e-02 1.311371000e+00
32500000.0 -4.819000000e-02 1.321223000e+00
33400000.0 -6.314700000e-02 1.331645000e+00
34300000.0 -7.590100000e-02 1.340812000e+00
35200000.0 -9.094800000e-02 1.351917000e+00
36100000.0 -1.053410000e-01 1.361003000e+00
37000000.0 -1.216490000e-01 1.369569000e+00
37900000.0 -1.376620000e-01 1.379471000e+00
38800000.0 -1.534400000e-01 1.388274000e+00
39700000.0 -1.712090000e-01 1.395861000e+00
40600000.0 -1.880070000e-01 1.404410000e+00
41500000.0 -2.063230000e-01 1.413393000e+00
42400000.0 -2.255470000e-01 1.421424000e+00
43300000.0 -2.440250000e-01 1.428146000e+00
44200000.0 -2.623660000e-01 1.435068000e+00
45100000.0 -2.826520000e-01 1.440882000e+00
46000000.0 -3.033340000e-01 1.448117000e+00
46900000.0 -3.226470000e-01 1.453122000e+00
47800000.0 -3.445370000e-01 1.458469000e+00
48700000.0 -3.657230000e-01 1.462951000e+00
49600000.0 -3.869100000e-01 1.468397000e+00
50500000.0 -4.085960000e-01 1.471445000e+00
51400000.0 -4.311910000e-01 1.475504000e+00
52300000.0 -4.547460000e-01 1.477541000e+00
53200000.0 -4.762890000e-01 1.478859000e+00
54100000.0 -5.270250000e-01 1.476925000e+00
55000000.0 -5.241890000e-01 1.481925000e+00
55900000.0 -5.482920000e-01 1.481699000e+00
56800000.0 -5.701380000e-01 1.480940000e+00
57700000.0 -5.953090000e-01 1.480245000e+00
58600000.0 -6.201140000e-01 1.478001000e+00
59500000.0 -6.438360000e-01 1.475028000e+00
60400000.0 -6.681890000e-01 1.471396000e+00
61300000.0 -6.922620000e-01 1.466660000e+00
62200000.0 -7.164160000e-01 1.461885000e+00
63100000.0 -7.395400000e-01 1.456921000e+00
64000000.0 -7.633750000e-01 1.451207000e+00
64900000.0 -7.890940000e-01 1.443878000e+00
65800000.0 -8.136360000e-01 1.437218000e+00
66700000.0 -8.363330000e-01 1.427257000e+00
67600000.0 -8.592150000e-01 1.418398000e+00
68500000.0 -8.834660000e-01 1.408760000e+00
69400000.0 -9.065350000e-01 1.397493000e+00
70300000.0 -9.290830000e-01 1.387266000e+00
71200000.0 -9.540230000e-01 1.374527000e+00
72100000.0 -9.747430000e-01 1.362008000e+00
73000000.0 -9.980350000e-01 1.349611000e+00
73900000.0 -1.019732000e+00 1.334528000e+00
74800000.0 -1.040472000e+00 1.319780000e+00
75700000.0 -1.059208000e+00 1.304316000e+00
76600000.0 -1.080602000e+00 1.288428000e+00
77500000.0 -1.102333000e+00 1.272524000e+00
78400000.0 -1.121407000e+00 1.255430000e+00
79300000.0 -1.139461000e+00 1.237686000e+00
80200000.0 -1.157998000e+00 1.219969000e+00
81100000.0 -1.175408000e+00 1.201432000e+00
82000000.0 -1.194079000e+00 1.181056000e+00
82900000.0 -1.209597000e+00 1.161674000e+00
83800000.0 -1.224329000e+00 1.141517000e+00
84700000.0 -1.240508000e+00 1.121021000e+00
85600000.0 -1.254908000e+00 1.099584000e+00
86500000.0 -1.269865000e+00 1.079497000e+00
87400000.0 -1.282035000e+00 1.057062000e+00
88300000.0 -1.294164000e+00 1.035672000e+00
89200000.0 -1.306710000e+00 1.012605000e+00
90100000.0 -1.317962000e+00 9.903900000e-01
91000000.0 -1.328539000e+00 9.689990000e-01
91900000.0 -1.338409000e+00 9.456450000e-01
92800000.0 -1.347254000e+00 9.224930000e-01
93700000.0 -1.355039000e+00 9.006230000e-01
94600000.0 -1.361899000e+00 8.758400000e-01
95500000.0 -1.368070000e+00 8.524390000e-01
96400000.0 -1.374153000e+00 8.302470000e-01
97300000.0 -1.378855000e+00 8.070810000e-01
98200000.0 -1.383322000e+00 7.823530000e-01
99100000.0 -1.386899000e+00 7.616630000e-01
100000000.0 -1.391620000e+00 7.366480000e-01
109000000.0 -1.385401000e+00 5.197520000e-01
118000000.0 -1.330820000e+00 3.392530000e-01
127000000.0 -1.251395000e+00 1.996990000e-01
136000000.0 -1.133861000e+00 1.011890000e-01
145000000.0 -1.046000000e+00 2.978300000e-02
154000000.0 -9.995230000e-01 -1.762000000e-03
163000000.0 -1.003617000e+00 -4.596000000e-03
172000000.0 -1.003731000e+00 -5.273000000e-03
181000000.0 -1.006847000e+00 -7.511000000e-03
190000000.0 -1.007209000e+00 -9.718000000e-03
199000000.0 -1.008374000e+00 -1.121000000e-02
208000000.0 -1.009508000e+00 -1.146800000e-02
217000000.0 -1.009504000e+00 -1.325700000e-02
226000000.0 -1.010120000e+00 -1.139400000e-02
235000000.0 -1.009655000e+00 -1.213200000e-02
244000000.0 -1.009671000e+00 -1.049000000e-02
253000000.0 -1.009354000e+00 -9.670000000e-03
262000000.0 -1.007763000e+00 -8.045000000e-03
271000000.0 -1.006651000e+00 -6.061000000e-03
280000000.0 -1.004628000e+00 -4.926000000e-03
289000000.0 -1.002011000e+00 -3.573000000e-03
298000000.0 -1.000529000e+00 -1.007000000e-03
307000000.0 -1.002874000e+00 -7.600000000e-04
316000000.0 -1.005504000e+00 -7.710000000e-04
325000000.0 -1.007241000e+00 -1.610000000e-03
334000000.0 -1.011227000e+00 -2.550000000e-03
343000000.0 -1.011947000e+00 -4.370000000e-03
352000000.0 -9.430700000e-01 6.713300000e-02
361000000.0 -1.014453000e+00 -3.635000000e-03
370000000.0 -1.014609000e+00 -3.734000000e-03
379000000.0 -1.014514000e+00 -3.981000000e-03
388000000.0 -1.014786000e+00 -4.252000000e-03
397000000.0 -1.013472000e+00 -5.676000000e-03
406000000.0 -1.011781000e+00 -1.911000000e-03
415000000.0 -1.010145000e+00 -2.544000000e-03
424000000.0 -1.010095000e+00 -1.986800000e-02
433000000.0 -1.005878000e+00 -1.119000000e-03
442000000.0 -1.004293000e+00 -2.647000000e-03
451000000.0 -9.994430000e-01 9.270000000e-04
460000000.0 -1.003899000e+00 1.092000000e-03
469000000.0 -1.007663000e+00 1.289000000e-03
478000000.0 -1.010081000e+00 2.328000000e-03
487000000.0 -1.012898000e+00 2.707000000e-03
496000000.0 -1.015731000e+00 3.546000000e-03
505000000.0 -1.015425000e+00 1.394000000e-03
514000000.0 -1.016489000e+00 3.618000000e-03
523000000.0 -1.016767000e+00 4.377000000e-03
532000000.0 -1.017173000e+00 1.552000000e-03
541000000.0 -1.014920000e+00 5.604000000e-03
550000000.0 -1.012005000e+00 3.737000000e-03
559000000.0 -1.013441000e+00 2.402000000e-03
568000000.0 -1.011078000e+00 6.800000000e-04
577000000.0 -1.006650000e+00 3.048000000e-03
586000000.0 -1.005446000e+00 3.670000000e-03
595000000.0 -1.003600000e+00 -1.837000000e-03
604000000.0 -1.001738000e+00 2.180000000e-03
613000000.0 -1.001626000e+00 3.174000000e-03
622000000.0 -1.006038000e+00 8.657000000e-03
631000000.0 -1.005029000e+00 6.517000000e-03
640000000.0 -1.007165000e+00 1.309300000e-02
649000000.0 -1.010567000e+00 1.127400000e-02
658000000.0 -1.009449000e+00 1.134200000e-02
667000000.0 -1.008904000e+00 9.890000000e-03
676000000.0 -1.009286000e+00 1.376700000e-02
685000000.0 -1.008924000e+00 1.151800000e-02
694000000.0 -1.010786000e+00 1.121600000e-02
703000000.0 -1.007281000e+00 1.140700000e-02
712000000.0 -1.014779000e+00 1.032100000e-02
721000000.0 -1.009145000e+00 1.088100000e-02
730000000.0 -1.003514000e+00 5.259000000e-03
739000000.0 -1.001423000e+00 6.412000000e-03
748000000.0 -1.001211000e+00 2.977000000e-03
757000000.0 -9.973690000e-01 2.716000000e-03
766000000.0 -9.998670000e-01 3.289000000e-03
775000000.0 -9.998420000e-01 4.077000000e-03
784000000.0 -1.000173000e+00 4.306000000e-03
793000000.0 -9.984070000e-01 8.925000000e-03
802000000.0 -9.996690000e-01 6.280000000e-03
811000000.0 -9.952240000e-01 1.296300000e-02
820000000.0 -9.965530000e-01 7.567000000e-03
829000000.0 -9.961440000e-01 9.182000000e-03
838000000.0 -9.986830000e-01 2.250000000e-03
847000000.0 -9.942020000e-01 1.651000000e-03
856000000.0 -9.972240000e-01 1.388000000e-03
865000000.0 -9.976200000e-01 3.844000000e-03
874000000.0 -9.967670000e-01 1.358000000e-03
883000000.0 -9.966590000e-01 -1.287000000e-03
892000000.0 -9.975580000e-01 -7.790000000e-04
901000000.0 -9.998540000e-01 -5.964000000e-03
910000000.0 -1.001277000e+00 -4.874000000e-03
919000000.0 -1.000205000e+00 -4.251000000e-03
928000000.0 -9.988780000e-01 -4.067000000e-03
937000000.0 -1.002462000e+00 -4.135000000e-03
946000000.0 -9.998900000e-01 -4.785000000e-03
955000000.0 -1.001457000e+00 -1.938000000e-03
964000000.0 -1.003056000e+00 -3.192000000e-03
973000000.0 -1.000422000e+00 -5.187000000e-03
982000000.0 -1.001156000e+00 -4.078000000e-03
991000000.0 -1.002364000e+00 -9.229000000e-03
1000000000.0 -1.001450000e+00 -5.594000000e-03
1004500000.0 -1.002374000e+00 -8.931000000e-03
1009000000.0 -1.001321000e+00 -4.757000000e-03
1013500000.0 -1.001000000e+00 -9.671000000e-03
1018000000.0 -1.001257000e+00 -6.748000000e-03
1022500000.0 -1.004182000e+00 -1.081500000e-02
1027000000.0 -1.002563000e+00 -4.617000000e-03
1031500000.0 -1.002651000e+00 -9.019000000e-03
1036000000.0 -1.000182000e+00 -9.611000000e-03
1040500000.0 -1.001582000e+00 -5.614000000e-03
1045000000.0 -1.001543000e+00 -7.847000000e-03
1049500000.0 -1.000213000e+00 -1.047100000e-02
1054000000.0 -1.001090000e+00 -8.310000000e-04
1058500000.0 -1.002885000e+00 -1.891000000e-03
1063000000.0 -1.004504000e+00 -4.231000000e-03
1067500000.0 -1.005274000e+00 -6.719000000e-03
1072000000.0 -1.003537000e+00 -9.742000000e-03
1076500000.0 -1.006036000e+00 -1.024500000e-02
1081000000.0 -1.007367000e+00 -1.129700000e-02
1085500000.0 -1.003339000e+00 -6.737000000e-03
1090000000.0 -1.008249000e+00 -9.617000000e-03
1094500000.0 -1.008511000e+00 -7.796000000e-03
1099000000.0 -1.007347000e+00 -1.157500000e-02
1103500000.0 -1.006162000e+00 -8.297000000e-03
1108000000.0 -1.003390000e+00 -9.412000000e-03
1112500000.0 -1.010526000e+00 -1.448600000e-02
1117000000.0 -1.003212000e+00 -8.986000000e-03
1121500000.0 -1.057761000e+00 -1.145940000e-01
1126000000.0 -1.006008000e+00 -1.009800000e-02
1130500000.0 -1.014126000e+00 -1.253300000e-02
1135000000.0 -1.006699000e+00 -1.230400000e-02
1139500000.0 -1.005688000e+00 -7.115000000e-03
1144000000.0 -9.910620000e-01 2.286900000e-02
1148500000.0 -1.004534000e+00 -1.682500000e-02
1153000000.0 -1.005253000e+00 -5.973000000e-03
1157500000.0 -1.008105000e+00 -9.639000000e-03
1162000000.0 -1.000632000e+00 -7.294000000e-03
1166500000.0 -1.004604000e+00 -3.944000000e-03
1171000000.0 -1.004983000e+00 -8.801000000e-03
1175500000.0 -1.004229000e+00 -9.046000000e-03
1180000000.0 -9.963330000e-01 -1.068000000e-03
1184500000.0 -1.004593000e+00 -1.291500000e-02
1189000000.0 -1.002554000e+00 -1.189000000e-02
1193500000.0 -9.943530000e-01 2.009000000e-03
1198000000.0 -9.991990000e-01 -7.370000000e-03
1202500000.0 -9.998350000e-01 2.595000000e-03
1207000000.0 -1.001553000e+00 -1.370000000e-04
1211500000.0 -9.998870000e-01 -6.890000000e-03
1216000000.0 -1.000357000e+00 -3.812000000e-03
1220500000.0 -1.002918000e+00 -1.466000000e-03
1225000000.0 -9.981390000e-01 -3.051000000e-03
1229500000.0 -1.006050000e+00 -8.199000000e-03
1234000000.0 -1.005148000e+00 -5.272000000e-03
1238500000.0 -1.000611000e+00 -4.675000000e-03
1243000000.0 -1.007944000e+00 -1.038700000e-02
1247500000.0 -1.003717000e+00 -7.973000000e-03
1252000000.0 -1.003387000e+00 -7.455000000e-03
1256500000.0 -1.000660000e+00 -6.936000000e-03
1261000000.0 -1.000137000e+00 -9.085000000e-03
1265500000.0 -1.006547000e+00 -9.477000000e-03
1270000000.0 -1.006561000e+00 -1.682000000e-03
1274500000.0 -1.007946000e+00 -9.227000000e-03
1279000000.0 -1.001575000e+00 -3.757000000e-03
1283500000.0 -1.007686000e+00 -7.237000000e-03
1288000000.0 -1.002715000e+00 -5.942000000e-03
1292500000.0 -1.003965000e+00 -2.407000000e-03
1297000000.0 -1.006583000e+00 -8.561000000e-03
1301500000.0 -1.000953000e+00 -3.450000000e-04
1306000000.0 -9.989690000e-01 9.970000000e-04
1310500000.0 -9.956840000e-01 6.540000000e-04
1315000000.0 -9.989920000e-01 -8.180000000e-03
1319500000.0 -1.004973000e+00 1.985000000e-03
1324000000.0 -9.996060000e-01 -3.460000000e-03
1328500000.0 -9.950770000e-01 1.510000000e-03
1333000000.0 -9.994960000e-01 -7.371000000e-03
1337500000.0 -9.965370000e-01 -4.683000000e-03
1342000000.0 -9.956600000e-01 -5.598000000e-03
1346500000.0 -9.948960000e-01 -1.857000000e-03
1351000000.0 -9.933930000e-01 -1.530000000e-03
1355500000.0 -9.904480000e-01 -6.254000000e-03
1360000000.0 -9.965830000e-01 -1.392000000e-03
1364500000.0 -9.990570000e-01 -3.811000000e-03
1369000000.0 -1.001182000e+00 5.445000000e-03
1373500000.0 -9.983120000e-01 -3.455000000e-03
1378000000.0 -1.002499000e+00 -4.649000000e-03
1382500000.0 -1.001970000e+00 3.834000000e-03
1387000000.0 -1.004415000e+00 -1.343000000e-03
1391500000.0 -1.003249000e+00 1.118000000e-03
1396000000.0 -1.004237000e+00 -8.198000000e-03
1400500000.0 -1.006360000e+00 1.031000000e-03
1405000000.0 -1.002941000e+00 -3.190000000e-04
1409500000.0 -1.005585000e+00 -1.539100000e-02
1414000000.0 -1.008081000e+00 -1.070000000e-03
1418500000.0 -1.013767000e+00 1.358000000e-02
1423000000.0 -1.016625000e+00 7.608000000e-03
1427500000.0 -1.018292000e+00 -2.275100000e-02
1432000000.0 -1.010629000e+00 -2.501000000e-03
1436500000.0 -1.010998000e+00 5.212000000e-03
1441000000.0 -1.008369000e+00 -6.820000000e-04
1445500000.0 -1.010720000e+00 -2.424300000e-02
1450000000.0 -1.012440000e+00 4.840000000e-04
