! piloto_deriva / corto_deriva / r57
# HZ S RI R 50
50000.0 -9.936360000e-01 -3.714600000e-02
59500.0 -9.997380000e-01 -1.688600000e-02
69000.0 -9.980580000e-01 -3.863000000e-03
78500.0 -9.985720000e-01 -1.331000000e-03
88000.0 -9.984170000e-01 7.670000000e-04
97500.0 -9.994290000e-01 -3.560000000e-04
107000.0 -1.000440000e+00 -2.284000000e-03
116500.0 -9.994010000e-01 -6.554000000e-03
126000.0 -9.995710000e-01 -9.886000000e-03
135500.0 -9.998560000e-01 -1.641400000e-02
145000.0 -9.996730000e-01 -2.233900000e-02
154500.0 -9.991450000e-01 -2.959800000e-02
164000.0 -9.998290000e-01 -3.598000000e-02
173500.0 -1.000276000e+00 -4.425100000e-02
183000.0 -9.999470000e-01 -5.240900000e-02
192500.0 -1.000112000e+00 -6.031900000e-02
202000.0 -1.000424000e+00 -6.839400000e-02
211500.0 -1.000598000e+00 -7.793700000e-02
221000.0 -1.000986000e+00 -8.609900000e-02
230500.0 -1.000861000e+00 -9.569300000e-02
240000.0 -1.010073000e+00 -1.047450000e-01
249500.0 -1.000996000e+00 -1.135010000e-01
259000.0 -1.000793000e+00 -1.230040000e-01
268500.0 -1.001729000e+00 -1.314870000e-01
278000.0 -1.001476000e+00 -1.406220000e-01
287500.0 -1.001944000e+00 -1.513540000e-01
297000.0 -1.002222000e+00 -1.597470000e-01
306500.0 -1.002594000e+00 -1.702120000e-01
316000.0 -1.001870000e+00 -1.788160000e-01
325500.0 -1.001861000e+00 -1.883020000e-01
335000.0 -1.003617000e+00 -1.971110000e-01
344500.0 -1.003036000e+00 -2.058670000e-01
354000.0 -1.003378000e+00 -2.161230000e-01
363500.0 -1.004152000e+00 -2.247540000e-01
373000.0 -1.004069000e+00 -2.344220000e-01
382500.0 -1.004213000e+00 -2.432570000e-01
392000.0 -1.005129000e+00 -2.531990000e-01
401500.0 -1.004069000e+00 -2.630200000e-01
411000.0 -1.004979000e+00 -2.722340000e-01
420500.0 -1.004970000e+00 -2.813280000e-01
430000.0 -1.005259000e+00 -2.903930000e-01
439500.0 -1.005693000e+00 -2.990830000e-01
449000.0 -1.004948000e+00 -3.085280000e-01
458500.0 -1.006223000e+00 -3.186580000e-01
468000.0 -1.006276000e+00 -3.279810000e-01
477500.0 -1.006759000e+00 -3.364580000e-01
487000.0 -1.007070000e+00 -3.469820000e-01
496500.0 -1.006000000e+00 -3.551150000e-01
506000.0 -1.007413000e+00 -3.650580000e-01
515500.0 -1.007445000e+00 -3.744300000e-01
525000.0 -1.008186000e+00 -3.841980000e-01
534500.0 -1.008026000e+00 -3.926870000e-01
544000.0 -1.009063000e+00 -4.022040000e-01
553500.0 -1.008524000e+00 -4.115110000e-01
563000.0 -1.008447000e+00 -4.209140000e-01
572500.0 -1.008827000e+00 -4.297010000e-01
582000.0 -1.009721000e+00 -4.388090000e-01
591500.0 -1.010784000e+00 -4.481420000e-01
601000.0 -1.010383000e+00 -4.578480000e-01
610500.0 -1.010990000e+00 -4.660910000e-01
620000.0 -1.012305000e+00 -4.753190000e-01
629500.0 -1.013107000e+00 -4.846430000e-01
639000.0 -1.013553000e+00 -4.932430000e-01
648500.0 -1.013409000e+00 -5.018360000e-01
658000.0 -1.014079000e+00 -5.112500000e-01
667500.0 -1.015170000e+00 -5.198940000e-01
677000.0 -1.015484000e+00 -5.290970000e-01
686500.0 -1.016622000e+00 -5.390720000e-01
696000.0 -1.016966000e+00 -5.470310000e-01
705500.0 -1.018053000e+00 -5.570630000e-01
715000.0 -1.019746000e+00 -5.664300000e-01
724500.0 -1.019778000e+00 -5.741220000e-01
734000.0 -1.020486000e+00 -5.832880000e-01
743500.0 -1.020891000e+00 -5.934000000e-01
753000.0 -1.022986000e+00 -6.011110000e-01
762500.0 -1.024783000e+00 -6.099590000e-01
772000.0 -1.024852000e+00 -6.195460000e-01
781500.0 -1.025609000e+00 -6.282790000e-01
791000.0 -1.028008000e+00 -6.375930000e-01
800500.0 -1.027633000e+00 -6.454630000e-01
810000.0 -1.029885000e+00 -6.555760000e-01
819500.0 -1.030374000e+00 -6.629190000e-01
829000.0 -1.032611000e+00 -6.717170000e-01
838500.0 -1.033936000e+00 -6.800190000e-01
848000.0 -1.035868000e+00 -6.889830000e-01
857500.0 -1.036663000e+00 -6.984360000e-01
867000.0 -1.038093000e+00 -7.070300000e-01
876500.0 -1.039797000e+00 -7.161700000e-01
886000.0 -1.043056000e+00 -7.258460000e-01
895500.0 -1.044035000e+00 -7.341790000e-01
905000.0 -1.046122000e+00 -7.422750000e-01
914500.0 -1.047600000e+00 -7.497220000e-01
924000.0 -1.051414000e+00 -7.594260000e-01
933500.0 -1.053806000e+00 -7.682450000e-01
943000.0 -1.055040000e+00 -7.752070000e-01
952500.0 -1.056191000e+00 -7.848150000e-01
962000.0 -1.058983000e+00 -7.956960000e-01
971500.0 -1.061662000e+00 -8.027030000e-01
981000.0 -1.062535000e+00 -8.108200000e-01
990500.0 -1.067211000e+00 -8.189460000e-01
1000000.0 -1.070605000e+00 -8.270270000e-01
1090000.0 -1.098184000e+00 -9.042100000e-01
1180000.0 -1.137968000e+00 -9.800680000e-01
1270000.0 -1.184521000e+00 -1.046688000e+00
1360000.0 -1.243572000e+00 -1.105170000e+00
1450000.0 -1.311914000e+00 -1.158956000e+00
1540000.0 -1.389378000e+00 -1.195159000e+00
1630000.0 -1.475712000e+00 -1.211105000e+00
1720000.0 -1.568410000e+00 -1.211312000e+00
1810000.0 -1.655502000e+00 -1.184520000e+00
1900000.0 -1.740364000e+00 -1.142139000e+00
1990000.0 -1.809828000e+00 -1.077565000e+00
2080000.0 -1.866257000e+00 -9.976000000e-01
2170000.0 -1.899623000e+00 -9.087290000e-01
2260000.0 -1.915319000e+00 -8.172040000e-01
2350000.0 -1.918275000e+00 -7.246070000e-01
2440000.0 -1.899287000e+00 -6.420720000e-01
2530000.0 -1.873691000e+00 -5.659080000e-01
2620000.0 -1.838409000e+00 -4.960060000e-01
2710000.0 -1.798538000e+00 -4.333950000e-01
2800000.0 -1.756226000e+00 -3.818200000e-01
2890000.0 -1.711611000e+00 -3.398230000e-01
2980000.0 -1.671321000e+00 -3.009180000e-01
3070000.0 -1.631181000e+00 -2.700980000e-01
3160000.0 -1.592046000e+00 -2.407040000e-01
3250000.0 -1.555629000e+00 -2.154890000e-01
3340000.0 -1.520145000e+00 -1.929510000e-01
3430000.0 -1.485775000e+00 -1.717050000e-01
3520000.0 -1.457781000e+00 -1.536660000e-01
3610000.0 -1.427563000e+00 -1.379740000e-01
3700000.0 -1.401359000e+00 -1.218850000e-01
3790000.0 -1.376634000e+00 -1.076870000e-01
3880000.0 -1.352761000e+00 -9.356900000e-02
3970000.0 -1.331716000e+00 -7.944700000e-02
4060000.0 -1.313652000e+00 -6.747800000e-02
4150000.0 -1.294114000e+00 -5.486000000e-02
4240000.0 -1.277322000e+00 -4.239600000e-02
4330000.0 -1.263488000e+00 -3.054400000e-02
4420000.0 -1.247880000e+00 -1.930800000e-02
4510000.0 -1.236156000e+00 -9.871000000e-03
4600000.0 -1.223263000e+00 4.817000000e-03
4690000.0 -1.212387000e+00 1.514300000e-02
4780000.0 -1.204213000e+00 2.496500000e-02
4870000.0 -1.195388000e+00 3.654200000e-02
4960000.0 -1.185868000e+00 4.768200000e-02
5050000.0 -1.172584000e+00 5.841500000e-02
5140000.0 -1.166064000e+00 6.899200000e-02
5230000.0 -1.162150000e+00 8.011800000e-02
5320000.0 -1.155517000e+00 8.994900000e-02
5410000.0 -1.151336000e+00 9.922100000e-02
5500000.0 -1.147573000e+00 1.119500000e-01
5590000.0 -1.143363000e+00 1.214760000e-01
5680000.0 -1.140136000e+00 1.309840000e-01
5770000.0 -1.134450000e+00 1.417130000e-01
5860000.0 -1.131901000e+00 1.502200000e-01
5950000.0 -1.128810000e+00 1.592720000e-01
6040000.0 -1.124647000e+00 1.688160000e-01
6130000.0 -1.121915000e+00 1.761110000e-01
6220000.0 -1.120359000e+00 1.838250000e-01
6310000.0 -1.117699000e+00 1.921360000e-01
6400000.0 -1.114758000e+00 1.990010000e-01
6490000.0 -1.112658000e+00 2.056280000e-01
6580000.0 -1.109910000e+00 2.129120000e-01
6670000.0 -1.108326000e+00 2.196080000e-01
6760000.0 -1.107510000e+00 2.241960000e-01
6850000.0 -1.105939000e+00 2.288640000e-01
6940000.0 -1.103742000e+00 2.325780000e-01
7030000.0 -1.103969000e+00 2.364330000e-01
7120000.0 -1.101817000e+00 2.384760000e-01
7210000.0 -1.102946000e+00 2.407900000e-01
7300000.0 -1.101901000e+00 2.415250000e-01
7390000.0 -1.101957000e+00 2.425360000e-01
7480000.0 -1.102345000e+00 2.419590000e-01
7570000.0 1.960780000e-01 1.074971000e+00
7660000.0 1.948250000e-01 1.073648000e+00
7750000.0 1.944250000e-01 1.073915000e+00
7840000.0 1.932710000e-01 1.074567000e+00
7930000.0 1.922770000e-01 1.074412000e+00
8020000.0 1.913980000e-01 1.075192000e+00
8110000.0 1.909860000e-01 1.075294000e+00
8200000.0 1.883680000e-01 1.076253000e+00
8290000.0 1.903430000e-01 1.076193000e+00
8380000.0 1.885250000e-01 1.077051000e+00
8470000.0 1.879670000e-01 1.076890000e+00
8560000.0 1.865820000e-01 1.077448000e+00
8650000.0 1.866030000e-01 1.078469000e+00
8740000.0 1.853910000e-01 1.078355000e+00
8830000.0 1.843860000e-01 1.079365000e+00
8920000.0 1.841510000e-01 1.080263000e+00
9010000.0 1.827260000e-01 1.079978000e+00
9100000.0 1.830100000e-01 1.080817000e+00
9190000.0 1.813330000e-01 1.082161000e+00
9280000.0 1.815140000e-01 1.081754000e+00
9370000.0 1.808800000e-01 1.082476000e+00
9460000.0 1.808510000e-01 1.083632000e+00
9550000.0 1.797870000e-01 1.084548000e+00
9640000.0 1.790320000e-01 1.084264000e+00
9730000.0 1.781260000e-01 1.085293000e+00
9820000.0 1.768870000e-01 1.086128000e+00
9910000.0 1.761440000e-01 1.086329000e+00
10000000.0 1.768790000e-01 1.087689000e+00
10900000.0 1.695420000e-01 1.094604000e+00
11800000.0 1.626650000e-01 1.102236000e+00
12700000.0 1.566950000e-01 1.110128000e+00
13600000.0 1.504630000e-01 1.118469000e+00
14500000.0 1.438950000e-01 1.127067000e+00
15400000.0 1.387470000e-01 1.135745000e+00
16300000.0 1.300350000e-01 1.145315000e+00
17200000.0 1.238850000e-01 1.153943000e+00
18100000.0 1.174560000e-01 1.162718000e+00
19000000.0 1.096830000e-01 1.173272000e+00
19900000.0 1.004420000e-01 1.182205000e+00
20800000.0 9.226500000e-02 1.192585000e+00
21700000.0 8.468300000e-02 1.201552000e+00
22600000.0 7.459000000e-02 1.212539000e+00
23500000.0 6.596500000e-02 1.221330000e+00
24400000.0 5.690100000e-02 1.231265000e+00
25300000.0 4.699100000e-02 1.240891000e+00
26200000.0 3.692900000e-02 1.250594000e+00
27100000.0 2.603300000e-02 1.261738000e+00
28000000.0 1.469500000e-02 1.271554000e+00
28900000.0 3.045000000e-03 1.282532000e+00
29800000.0 -9.104000000e-03 1.291000000e+00
30700000.0 -2.151900000e-02 1.302158000e+00
31600000.0 -3.541300000e-02 1.312243000e+00
32500000.0 -4.746000000e-02 1.322300000e+00
33400000.0 -6.192100000e-02 1.331430000e+00
34300000.0 -7.720400000e-02 1.341424000e+00
35200000.0 -8.973600000e-02 1.351113000e+00
36100000.0 -1.050000000e-01 1.360602000e+00
37000000.0 -1.217510000e-01 1.368854000e+00
37900000.0 -1.381090000e-01 1.378856000e+00
38800000.0 -1.542600000e-01 1.388522000e+00
39700000.0 -1.718700000e-01 1.396968000e+00
40600000.0 -1.882670000e-01 1.405085000e+00
41500000.0 -2.054900000e-01 1.413190000e+00
42400000.0 -2.233410000e-01 1.421332000e+00
43300000.0 -2.431270000e-01 1.427898000e+00
44200000.0 -2.623490000e-01 1.434556000e+00
45100000.0 -2.828990000e-01 1.441501000e+00
46000000.0 -3.019670000e-01 1.448759000e+00
46900000.0 -3.237390000e-01 1.453480000e+00
47800000.0 -3.450160000e-01 1.459383000e+00
48700000.0 -3.662940000e-01 1.464875000e+00
49600000.0 -3.876830000e-01 1.468233000e+00
50500000.0 -4.078110000e-01 1.469768000e+00
51400000.0 -4.305930000e-01 1.474113000e+00
52300000.0 -4.531700000e-01 1.477634000e+00
53200000.0 -4.761280000e-01 1.480692000e+00
54100000.0 -4.990990000e-01 1.481061000e+00
55000000.0 -5.230780000e-01 1.480774000e+00
55900000.0 -5.477760000e-01 1.482514000e+00
56800000.0 -5.691120000e-01 1.479971000e+00
57700000.0 -5.951080000e-01 1.480095000e+00
58600000.0 -6.185630000e-01 1.477931000e+00
59500000.0 -6.439030000e-01 1.475130000e+00
60400000.0 -6.678140000e-01 1.471369000e+00
61300000.0 -6.911160000e-01 1.466809000e+00
62200000.0 -7.162980000e-01 1.461669000e+00
63100000.0 -7.413080000e-01 1.457597000e+00
64000000.0 -7.648390000e-01 1.449462000e+00
64900000.0 -7.886770000e-01 1.443360000e+00
65800000.0 -8.124050000e-01 1.435792000e+00
66700000.0 -8.374900000e-01 1.426683000e+00
67600000.0 -8.594330000e-01 1.418294000e+00
68500000.0 -8.844080000e-01 1.409036000e+00
69400000.0 -9.080020000e-01 1.397920000e+00
70300000.0 -9.308360000e-01 1.387142000e+00
71200000.0 -9.526910000e-01 1.374440000e+00
72100000.0 -9.753770000e-01 1.362147000e+00
73000000.0 -9.960060000e-01 1.349748000e+00
73900000.0 -1.019263000e+00 1.334969000e+00
74800000.0 -1.038473000e+00 1.320391000e+00
75700000.0 -1.060581000e+00 1.304148000e+00
76600000.0 -1.080967000e+00 1.289626000e+00
77500000.0 -1.102374000e+00 1.271477000e+00
78400000.0 -1.120700000e+00 1.254903000e+00
79300000.0 -1.138809000e+00 1.237111000e+00
80200000.0 -1.158176000e+00 1.218508000e+00
81100000.0 -1.175913000e+00 1.200588000e+00
82000000.0 -1.192981000e+00 1.181687000e+00
82900000.0 -1.208082000e+00 1.162658000e+00
83800000.0 -1.225033000e+00 1.141811000e+00
84700000.0 -1.240568000e+00 1.121626000e+00
85600000.0 -1.255442000e+00 1.100994000e+00
86500000.0 -1.268578000e+00 1.079214000e+00
87400000.0 -1.282110000e+00 1.058059000e+00
88300000.0 -1.292577000e+00 1.035216000e+00
89200000.0 -1.305889000e+00 1.012887000e+00
90100000.0 -1.318091000e+00 9.914540000e-01
91000000.0 -1.328420000e+00 9.687130000e-01
91900000.0 -1.338253000e+00 9.464170000e-01
92800000.0 -1.346968000e+00 9.241000000e-01
93700000.0 -1.353254000e+00 8.995990000e-01
94600000.0 -1.359700000e+00 8.759650000e-01
95500000.0 -1.368282000e+00 8.536750000e-01
96400000.0 -1.375347000e+00 8.298710000e-01
97300000.0 -1.380235000e+00 8.070290000e-01
98200000.0 -1.384847000e+00 7.840250000e-01
99100000.0 -1.387079000e+00 7.601670000e-01
100000000.0 -1.389749000e+00 7.384720000e-01
109000000.0 -1.384850000e+00 5.212150000e-01
118000000.0 -1.331807000e+00 3.399100000e-01
127000000.0 -1.250064000e+00 2.002470000e-01
136000000.0 -1.134597000e+00 1.007300000e-01
145000000.0 -1.046230000e+00 2.997000000e-02
154000000.0 -1.000554000e+00 -1.882000000e-03
163000000.0 -1.003163000e+00 -3.208000000e-03
172000000.0 -1.003618000e+00 -6.620000000e-03
181000000.0 -1.005907000e+00 -8.369000000e-03
190000000.0 -1.007189000e+00 -9.779000000e-03
199000000.0 -1.008394000e+00 -9.749000000e-03
208000000.0 -1.009258000e+00 -1.185300000e-02
217000000.0 -1.010372000e+00 -1.226000000e-02
226000000.0 -1.010703000e+00 -1.182300000e-02
235000000.0 -1.010545000e+00 -1.196200000e-02
244000000.0 -1.009609000e+00 -1.263300000e-02
253000000.0 -1.008847000e+00 -1.007200000e-02
262000000.0 -1.007791000e+00 -8.650000000e-03
271000000.0 -1.006199000e+00 -7.121000000e-03
280000000.0 -1.004846000e+00 -4.967000000e-03
289000000.0 -1.002907000e+00 -4.882000000e-03
298000000.0 -1.000470000e+00 -1.018000000e-03
307000000.0 -1.002938000e+00 -2.476000000e-03
316000000.0 -1.004829000e+00 -8.520000000e-04
325000000.0 -1.008207000e+00 -3.969000000e-03
334000000.0 -1.008773000e+00 -2.867000000e-03
343000000.0 -1.010969000e+00 -1.977000000e-03
352000000.0 -1.033537000e+00 -5.797700000e-02
361000000.0 -1.005651000e+00 3.151600000e-02
370000000.0 -1.014811000e+00 -4.052000000e-03
379000000.0 -1.014542000e+00 -1.812000000e-03
388000000.0 -1.014136000e+00 -3.541000000e-03
397000000.0 -1.013628000e+00 -4.836000000e-03
406000000.0 -1.012659000e+00 -5.035000000e-03
415000000.0 -1.010533000e+00 -3.460000000e-03
424000000.0 -1.006930000e+00 -1.161000000e-03
433000000.0 -1.006978000e+00 -2.234000000e-03
442000000.0 -1.002004000e+00 -1.220000000e-03
451000000.0 -1.001018000e+00 -1.507000000e-03
460000000.0 -1.004620000e+00 1.828000000e-03
469000000.0 -1.007527000e+00 1.166000000e-03
478000000.0 -1.009675000e+00 1.367000000e-03
487000000.0 -1.011721000e+00 1.900000000e-03
496000000.0 -1.013795000e+00 1.968000000e-03
505000000.0 -1.016218000e+00 2.524000000e-03
514000000.0 -1.016358000e+00 3.915000000e-03
523000000.0 -1.017626000e+00 3.224000000e-03
532000000.0 -1.014992000e+00 2.655000000e-03
541000000.0 -1.017263000e+00 2.377000000e-03
550000000.0 -1.017349000e+00 -5.950000000e-04
559000000.0 -1.012327000e+00 4.004000000e-03
568000000.0 -1.011066000e+00 1.063000000e-03
577000000.0 -1.008979000e+00 4.200000000e-04
586000000.0 -1.005814000e+00 2.620000000e-03
595000000.0 -1.002801000e+00 4.217000000e-03
604000000.0 -9.999340000e-01 2.816000000e-03
613000000.0 -1.004212000e+00 5.845000000e-03
622000000.0 -1.006410000e+00 8.410000000e-03
631000000.0 -1.007381000e+00 8.323000000e-03
640000000.0 -1.009071000e+00 8.845000000e-03
649000000.0 -1.012162000e+00 4.623000000e-03
658000000.0 -1.012525000e+00 6.691000000e-03
667000000.0 -1.014218000e+00 1.157600000e-02
676000000.0 -1.009398000e+00 1.633300000e-02
685000000.0 -1.013763000e+00 1.287300000e-02
694000000.0 -1.009016000e+00 1.175100000e-02
703000000.0 -1.010742000e+00 1.022200000e-02
712000000.0 -1.011872000e+00 1.445700000e-02
721000000.0 -1.003003000e+00 4.591000000e-03
730000000.0 -1.005810000e+00 5.073000000e-03
739000000.0 -9.992840000e-01 2.367700000e-02
748000000.0 -1.000711000e+00 -5.510000000e-04
757000000.0 -9.968270000e-01 1.929000000e-03
766000000.0 -9.995280000e-01 -1.281000000e-02
775000000.0 -1.002725000e+00 5.333000000e-03
784000000.0 -9.959730000e-01 2.057000000e-02
793000000.0 -9.977920000e-01 4.111000000e-03
802000000.0 -1.002114000e+00 -1.028500000e-02
811000000.0 -1.000361000e+00 2.060000000e-03
820000000.0 -1.000733000e+00 2.531000000e-03
829000000.0 -9.940040000e-01 5.700000000e-03
838000000.0 -1.001446000e+00 -9.718000000e-03
847000000.0 -9.971710000e-01 4.383000000e-03
856000000.0 -9.981240000e-01 1.860000000e-04
865000000.0 -9.970940000e-01 1.328000000e-03
874000000.0 -1.000479000e+00 7.906000000e-03
883000000.0 -9.990500000e-01 -4.210000000e-04
892000000.0 -9.964650000e-01 1.258000000e-03
901000000.0 -1.001092000e+00 7.510000000e-04
910000000.0 -1.002853000e+00 -5.526000000e-03
919000000.0 -9.985490000e-01 -5.129000000e-03
928000000.0 -1.000175000e+00 -6.326000000e-03
937000000.0 -9.977820000e-01 -4.924000000e-03
946000000.0 -1.001289000e+00 -7.168000000e-03
955000000.0 -1.001063000e+00 -8.443000000e-03
964000000.0 -1.000467000e+00 -1.064800000e-02
973000000.0 -1.003389000e+00 -5.173000000e-03
982000000.0 -1.000241000e+00 -6.518000000e-03
991000000.0 -1.001083000e+00 -8.155000000e-03
1000000000.0 -1.003055000e+00 -7.438000000e-03
1004500000.0 -1.000361000e+00 -8.935000000e-03
1009000000.0 -1.005927000e+00 -7.136000000e-03
1013500000.0 -1.001367000e+00 -5.712000000e-03
1018000000.0 -1.002700000e+00 -5.337000000e-03
1022500000.0 -1.003498000e+00 -4.905000000e-03
1027000000.0 -9.981340000e-01 -5.521000000e-03
1031500000.0 -9.991920000e-01 -2.991000000e-03
1036000000.0 -1.002209000e+00 -7.180000000e-03
1040500000.0 -1.001404000e+00 -7.677000000e-03
1045000000.0 -1.000556000e+00 -4.304000000e-03
1049500000.0 -9.989600000e-01 -6.087000000e-03
1054000000.0 -9.990350000e-01 -8.890000000e-03
1058500000.0 -1.005537000e+00 -2.801000000e-02
1063000000.0 -1.005457000e+00 -8.011000000e-03
1067500000.0 -9.975750000e-01 1.138900000e-02
1072000000.0 -1.002988000e+00 -8.266000000e-03
1076500000.0 -1.004569000e+00 -2.830700000e-02
1081000000.0 -1.004983000e+00 -6.986000000e-03
1085500000.0 -1.001568000e+00 5.437000000e-03
1090000000.0 -1.006520000e+00 -7.939000000e-03
1094500000.0 -1.004674000e+00 -6.872000000e-03
1099000000.0 -1.002245000e+00 -9.698000000e-03
1103500000.0 -1.003131000e+00 -1.004000000e-02
1108000000.0 -1.008492000e+00 -1.232000000e-02
1112500000.0 -1.005940000e+00 -9.329000000e-03
1117000000.0 -1.005047000e+00 -1.793100000e-02
1121500000.0 -1.005239000e+00 -1.076600000e-02
1126000000.0 -9.845750000e-01 3.579400000e-02
1130500000.0 -1.006561000e+00 -3.291000000e-03
1135000000.0 -1.008215000e+00 -1.311100000e-02
1139500000.0 -1.014924000e+00 -4.451900000e-02
1144000000.0 -1.006934000e+00 5.040000000e-04
1148500000.0 -9.988180000e-01 -8.937000000e-03
1153000000.0 -1.002715000e+00 -3.539000000e-03
1157500000.0 -1.003020000e+00 -6.330000000e-03
1162000000.0 -1.000908000e+00 -6.982000000e-03
1166500000.0 -1.002652000e+00 -4.194000000e-03
1171000000.0 -9.987270000e-01 -6.505000000e-03
1175500000.0 -1.000120000e+00 -1.380000000e-03
1180000000.0 -1.000691000e+00 -7.878000000e-03
1184500000.0 -9.987830000e-01 -2.519000000e-03
1189000000.0 -1.002420000e+00 -5.789000000e-03
1193500000.0 -9.984770000e-01 -6.850000000e-03
1198000000.0 -9.929120000e-01 -7.612000000e-03
1202500000.0 -9.947340000e-01 -9.099000000e-03
1207000000.0 -9.937940000e-01 -6.090000000e-03
1211500000.0 -9.991290000e-01 -4.995000000e-03
1216000000.0 -1.001321000e+00 -6.767000000e-03
1220500000.0 -1.006064000e+00 -5.003000000e-03
1225000000.0 -9.988530000e-01 3.736000000e-03
1229500000.0 -1.006693000e+00 -9.506000000e-03
1234000000.0 -1.001779000e+00 4.440000000e-04
1238500000.0 -1.002763000e+00 -1.030000000e-03
1243000000.0 -1.004128000e+00 -1.150900000e-02
1247500000.0 -1.003602000e+00 -1.096600000e-02
1252000000.0 -1.003566000e+00 -6.787000000e-03
1256500000.0 -1.008927000e+00 -4.928000000e-03
1261000000.0 -1.007155000e+00 -7.672000000e-03
1265500000.0 -9.992180000e-01 -6.001000000e-03
1270000000.0 -1.009068000e+00 -1.362100000e-02
1274500000.0 -1.004991000e+00 -7.237000000e-03
1279000000.0 -1.004461000e+00 -3.216000000e-03
1283500000.0 -1.000453000e+00 -6.300000000e-03
1288000000.0 -1.005459000e+00 -7.321000000e-03
1292500000.0 -1.001993000e+00 2.434000000e-03
1297000000.0 -9.971490000e-01 -3.346000000e-03
1301500000.0 -9.969080000e-01 -1.059100000e-02
1306000000.0 -1.002918000e+00 -6.500000000e-03
1310500000.0 -1.000153000e+00 -1.071400000e-02
1315000000.0 -1.003792000e+00 -4.478000000e-03
1319500000.0 -1.001371000e+00 -4.320000000e-04
1324000000.0 -9.977670000e-01 -7.587000000e-03
1328500000.0 -1.003915000e+00 1.195000000e-03
1333000000.0 -9.921470000e-01 -2.835000000e-03
1337500000.0 -1.000866000e+00 -3.975000000e-03
1342000000.0 -9.939140000e-01 -6.126000000e-03
1346500000.0 -9.887200000e-01 -4.331000000e-03
1351000000.0 -9.928760000e-01 -5.423000000e-03
1355500000.0 -9.951400000e-01 -1.092100000e-02
1360000000.0 -9.994050000e-01 2.653000000e-03
1364500000.0 -9.950170000e-01 -6.917000000e-03
1369000000.0 -9.947730000e-01 -1.108300000e-02
1373500000.0 -9.983900000e-01 -4.501000000e-03
1378000000.0 -1.003018000e+00 1.062000000e-03
1382500000.0 -1.001691000e+00 4.969000000e-03
1387000000.0 -1.004822000e+00 -4.220000000e-03
1391500000.0 -1.000498000e+00 -2.518000000e-03
1396000000.0 -1.009427000e+00 -1.639400000e-02
1400500000.0 -1.009653000e+00 -3.537000000e-03
1405000000.0 -1.002638000e+00 1.680000000e-04
1409500000.0 -1.006202000e+00 -4.380000000e-03
1414000000.0 -1.010202000e+00 -6.033000000e-03
1418500000.0 -1.015267000e+00 -7.817000000e-03
1423000000.0 -1.010152000e+00 -1.245100000e-02
1427500000.0 -1.013212000e+00 -3.522000000e-03
1432000000.0 -1.010522000e+00 -1.016400000e-02
1436500000.0 -1.013035000e+00 -5.433000000e-03
1441000000.0 -1.010092000e+00 -5.479000000e-03
1445500000.0 -1.009452000e+00 -6.270000000e-04
1450000000.0 -1.010143000e+00 -4.048000000e-03
