! piloto_deriva / corto_deriva / r10
# HZ S RI R 50
50000.0 -9.982200000e-01 -3.653200000e-02
59500.0 -9.939520000e-01 -1.815100000e-02
69000.0 -9.982260000e-01 -4.122000000e-03
78500.0 -9.982370000e-01 -9.430000000e-04
88000.0 -9.994660000e-01 1.045000000e-03
97500.0 -1.001511000e+00 1.820000000e-04
107000.0 -1.000160000e+00 -2.761000000e-03
116500.0 -1.000084000e+00 -6.215000000e-03
126000.0 -1.001162000e+00 -1.020300000e-02
135500.0 -1.000187000e+00 -1.606600000e-02
145000.0 -1.000273000e+00 -2.251300000e-02
154500.0 -9.994530000e-01 -2.879800000e-02
164000.0 -1.000153000e+00 -3.586500000e-02
173500.0 -9.995910000e-01 -4.392700000e-02
183000.0 -9.994510000e-01 -5.231100000e-02
192500.0 -9.999640000e-01 -6.018300000e-02
202000.0 -1.000402000e+00 -6.910700000e-02
211500.0 -1.000370000e+00 -7.639000000e-02
221000.0 -1.000766000e+00 -8.562300000e-02
230500.0 -1.000842000e+00 -9.485900000e-02
240000.0 -1.000199000e+00 -1.043860000e-01
249500.0 -1.000976000e+00 -1.131250000e-01
259000.0 -1.001625000e+00 -1.221000000e-01
268500.0 -1.001554000e+00 -1.316910000e-01
278000.0 -1.001063000e+00 -1.405350000e-01
287500.0 -1.002055000e+00 -1.497620000e-01
297000.0 -1.002405000e+00 -1.588880000e-01
306500.0 -1.002310000e+00 -1.681000000e-01
316000.0 -1.002535000e+00 -1.782220000e-01
325500.0 -1.002285000e+00 -1.866510000e-01
335000.0 -1.002433000e+00 -1.971090000e-01
344500.0 -1.002918000e+00 -2.051760000e-01
354000.0 -1.003293000e+00 -2.150100000e-01
363500.0 -1.003697000e+00 -2.243830000e-01
373000.0 -1.004317000e+00 -2.338680000e-01
382500.0 -1.003983000e+00 -2.430440000e-01
392000.0 -1.004257000e+00 -2.523920000e-01
401500.0 -1.004113000e+00 -2.616220000e-01
411000.0 -1.004135000e+00 -2.704800000e-01
420500.0 -1.004636000e+00 -2.799670000e-01
430000.0 -1.005025000e+00 -2.896920000e-01
439500.0 -1.005588000e+00 -2.981950000e-01
449000.0 -1.005415000e+00 -3.079010000e-01
458500.0 -1.005518000e+00 -3.178120000e-01
468000.0 -1.006368000e+00 -3.263260000e-01
477500.0 -1.006023000e+00 -3.365060000e-01
487000.0 -1.006588000e+00 -3.455820000e-01
496500.0 -1.007214000e+00 -3.541800000e-01
506000.0 -1.007643000e+00 -3.639770000e-01
515500.0 -1.006662000e+00 -3.731630000e-01
525000.0 -1.007211000e+00 -3.821570000e-01
534500.0 -1.008180000e+00 -3.908150000e-01
544000.0 -1.007572000e+00 -4.006760000e-01
553500.0 -1.007540000e+00 -4.099550000e-01
563000.0 -1.008172000e+00 -4.189390000e-01
572500.0 -1.010134000e+00 -4.283530000e-01
582000.0 -1.009322000e+00 -4.370290000e-01
591500.0 -1.011241000e+00 -4.477460000e-01
601000.0 -1.011085000e+00 -4.569210000e-01
610500.0 -1.010843000e+00 -4.650020000e-01
620000.0 -1.011490000e+00 -4.746740000e-01
629500.0 -1.011915000e+00 -4.837470000e-01
639000.0 -1.013427000e+00 -4.931780000e-01
648500.0 -1.012521000e+00 -5.015100000e-01
658000.0 -1.013546000e+00 -5.099420000e-01
667500.0 -1.014875000e+00 -5.190990000e-01
677000.0 -1.015766000e+00 -5.281680000e-01
686500.0 -1.015578000e+00 -5.365280000e-01
696000.0 -1.017020000e+00 -5.458030000e-01
705500.0 -1.018172000e+00 -5.548450000e-01
715000.0 -1.018160000e+00 -5.642560000e-01
724500.0 -1.019572000e+00 -5.727980000e-01
734000.0 -1.020099000e+00 -5.824380000e-01
743500.0 -1.020866000e+00 -5.917980000e-01
753000.0 -1.022365000e+00 -6.010070000e-01
762500.0 -1.022658000e+00 -6.097120000e-01
772000.0 -1.023611000e+00 -6.181670000e-01
781500.0 -1.026139000e+00 -6.273740000e-01
791000.0 -1.026987000e+00 -6.354740000e-01
800500.0 -1.028263000e+00 -6.449440000e-01
810000.0 -1.029500000e+00 -6.526240000e-01
819500.0 -1.030462000e+00 -6.615650000e-01
829000.0 -1.031344000e+00 -6.719030000e-01
838500.0 -1.033690000e+00 -6.792720000e-01
848000.0 -1.035076000e+00 -6.887690000e-01
857500.0 -1.036832000e+00 -6.971200000e-01
867000.0 -1.037271000e+00 -7.069900000e-01
876500.0 -1.038904000e+00 -7.145240000e-01
886000.0 -1.040811000e+00 -7.228700000e-01
895500.0 -1.042611000e+00 -7.305600000e-01
905000.0 -1.044936000e+00 -7.403810000e-01
914500.0 -1.046408000e+00 -7.482570000e-01
924000.0 -1.047400000e+00 -7.583220000e-01
933500.0 -1.051192000e+00 -7.650610000e-01
943000.0 -1.052820000e+00 -7.744290000e-01
952500.0 -1.056363000e+00 -7.823090000e-01
962000.0 -1.057639000e+00 -7.906910000e-01
971500.0 -1.060098000e+00 -7.991830000e-01
981000.0 -1.062398000e+00 -8.074260000e-01
990500.0 -1.065054000e+00 -8.165430000e-01
1000000.0 -1.068510000e+00 -8.253070000e-01
1090000.0 -1.096533000e+00 -9.034780000e-01
1180000.0 -1.132983000e+00 -9.761720000e-01
1270000.0 -1.182869000e+00 -1.044283000e+00
1360000.0 -1.238742000e+00 -1.104724000e+00
1450000.0 -1.305190000e+00 -1.155022000e+00
1540000.0 -1.384879000e+00 -1.191055000e+00
1630000.0 -1.468276000e+00 -1.209506000e+00
1720000.0 -1.558417000e+00 -1.210707000e+00
1810000.0 -1.649364000e+00 -1.188260000e+00
1900000.0 -1.731869000e+00 -1.144083000e+00
1990000.0 -1.804519000e+00 -1.083979000e+00
2080000.0 -1.860653000e+00 -1.005154000e+00
2170000.0 -1.899155000e+00 -9.163160000e-01
2260000.0 -1.916373000e+00 -8.227180000e-01
2350000.0 -1.914339000e+00 -7.305930000e-01
2440000.0 -1.901360000e+00 -6.461430000e-01
2530000.0 -1.874692000e+00 -5.678020000e-01
2620000.0 -1.838691000e+00 -5.005970000e-01
2710000.0 -1.802431000e+00 -4.401750000e-01
2800000.0 -1.758607000e+00 -3.865500000e-01
2890000.0 -1.717147000e+00 -3.433440000e-01
2980000.0 -1.474406000e+00 -1.207930000e-01
3070000.0 -1.633849000e+00 -2.689970000e-01
3160000.0 -1.596511000e+00 -2.401110000e-01
3250000.0 -1.556735000e+00 -2.143240000e-01
3340000.0 -1.522301000e+00 -1.935960000e-01
3430000.0 -1.489601000e+00 -1.730620000e-01
3520000.0 -1.459940000e+00 -1.556930000e-01
3610000.0 -1.429930000e+00 -1.395630000e-01
3700000.0 -1.402955000e+00 -1.221990000e-01
3790000.0 -1.377574000e+00 -1.059640000e-01
3880000.0 -1.355062000e+00 -9.232600000e-02
3970000.0 -1.334572000e+00 -7.902100000e-02
4060000.0 -1.314467000e+00 -6.711700000e-02
4150000.0 -1.295628000e+00 -5.473700000e-02
4240000.0 -1.279189000e+00 -4.171800000e-02
4330000.0 -1.265611000e+00 -3.104300000e-02
4420000.0 -1.249979000e+00 -1.851400000e-02
4510000.0 -1.235086000e+00 -7.356000000e-03
4600000.0 -1.222785000e+00 3.383000000e-03
4690000.0 -1.214282000e+00 1.491200000e-02
4780000.0 -1.203394000e+00 2.611500000e-02
4870000.0 -1.194757000e+00 3.675500000e-02
4960000.0 -1.187671000e+00 4.957600000e-02
5050000.0 -1.173068000e+00 5.722300000e-02
5140000.0 -1.166696000e+00 6.945100000e-02
5230000.0 -1.163521000e+00 8.030300000e-02
5320000.0 -1.157121000e+00 9.138500000e-02
5410000.0 -1.151704000e+00 1.014130000e-01
5500000.0 -1.148305000e+00 1.116610000e-01
5590000.0 -1.143117000e+00 1.210020000e-01
5680000.0 -1.138160000e+00 1.313840000e-01
5770000.0 -1.135077000e+00 1.415340000e-01
5860000.0 -1.131815000e+00 1.508980000e-01
5950000.0 -1.129456000e+00 1.602680000e-01
6040000.0 -1.125542000e+00 1.684290000e-01
6130000.0 -1.121320000e+00 1.774650000e-01
6220000.0 -1.119664000e+00 1.852930000e-01
6310000.0 -1.117781000e+00 1.916370000e-01
6400000.0 -1.114143000e+00 2.007320000e-01
6490000.0 -1.112694000e+00 2.064280000e-01
6580000.0 -1.110010000e+00 2.133840000e-01
6670000.0 -1.108752000e+00 2.184700000e-01
6760000.0 -1.106869000e+00 2.239540000e-01
6850000.0 -1.105897000e+00 2.289480000e-01
6940000.0 -1.104655000e+00 2.331650000e-01
7030000.0 -1.103169000e+00 2.358780000e-01
7120000.0 -1.103456000e+00 2.391990000e-01
7210000.0 -1.101992000e+00 2.412810000e-01
7300000.0 -1.103596000e+00 2.416120000e-01
7390000.0 -1.101757000e+00 2.425210000e-01
7480000.0 -1.103078000e+00 2.426770000e-01
7570000.0 1.959050000e-01 1.074178000e+00
7660000.0 1.950930000e-01 1.073827000e+00
7750000.0 1.939950000e-01 1.073401000e+00
7840000.0 1.926380000e-01 1.073764000e+00
7930000.0 1.927750000e-01 1.074676000e+00
8020000.0 1.916850000e-01 1.075667000e+00
8110000.0 1.913250000e-01 1.076204000e+00
8200000.0 1.900010000e-01 1.075864000e+00
8290000.0 1.901490000e-01 1.076457000e+00
8380000.0 1.885880000e-01 1.077547000e+00
8470000.0 1.878220000e-01 1.076840000e+00
8560000.0 1.878570000e-01 1.078620000e+00
8650000.0 1.870320000e-01 1.078525000e+00
8740000.0 1.856450000e-01 1.078622000e+00
8830000.0 1.853520000e-01 1.079535000e+00
8920000.0 1.840670000e-01 1.080602000e+00
9010000.0 1.831140000e-01 1.079543000e+00
9100000.0 1.827710000e-01 1.080480000e+00
9190000.0 1.821350000e-01 1.081916000e+00
9280000.0 1.811930000e-01 1.081891000e+00
9370000.0 1.810040000e-01 1.082323000e+00
9460000.0 1.795660000e-01 1.084052000e+00
9550000.0 1.800710000e-01 1.084210000e+00
9640000.0 1.790070000e-01 1.084214000e+00
9730000.0 1.778900000e-01 1.085834000e+00
9820000.0 1.780840000e-01 1.085978000e+00
9910000.0 1.773580000e-01 1.087067000e+00
10000000.0 1.758140000e-01 1.088262000e+00
10900000.0 1.693830000e-01 1.094008000e+00
11800000.0 1.629620000e-01 1.101683000e+00
12700000.0 1.556690000e-01 1.110933000e+00
13600000.0 1.501830000e-01 1.117997000e+00
14500000.0 1.445240000e-01 1.127427000e+00
15400000.0 1.377090000e-01 1.136938000e+00
16300000.0 1.311770000e-01 1.144875000e+00
17200000.0 1.231180000e-01 1.153443000e+00
18100000.0 1.164620000e-01 1.164018000e+00
19000000.0 1.094190000e-01 1.173544000e+00
19900000.0 1.012880000e-01 1.182566000e+00
20800000.0 9.328600000e-02 1.192308000e+00
21700000.0 8.376100000e-02 1.201773000e+00
22600000.0 7.564500000e-02 1.212058000e+00
23500000.0 6.625100000e-02 1.221476000e+00
24400000.0 5.716700000e-02 1.231598000e+00
25300000.0 4.633500000e-02 1.241952000e+00
26200000.0 3.581400000e-02 1.251649000e+00
27100000.0 2.531800000e-02 1.262311000e+00
28000000.0 1.405400000e-02 1.273055000e+00
28900000.0 2.806000000e-03 1.281732000e+00
29800000.0 -8.991000000e-03 1.291966000e+00
30700000.0 -2.257400000e-02 1.302869000e+00
31600000.0 -3.591200000e-02 1.312147000e+00
32500000.0 -4.858500000e-02 1.322394000e+00
33400000.0 -6.151400000e-02 1.332147000e+00
34300000.0 -7.547400000e-02 1.342485000e+00
35200000.0 -9.037400000e-02 1.350758000e+00
36100000.0 -1.055550000e-01 1.360892000e+00
37000000.0 -1.460500000e-01 1.372868000e+00
37900000.0 -1.367820000e-01 1.378457000e+00
38800000.0 -1.546480000e-01 1.388127000e+00
39700000.0 -1.713300000e-01 1.396831000e+00
40600000.0 -1.884390000e-01 1.405365000e+00
41500000.0 -2.060700000e-01 1.413663000e+00
42400000.0 -2.246140000e-01 1.420084000e+00
43300000.0 -2.438860000e-01 1.427919000e+00
44200000.0 -2.626080000e-01 1.434924000e+00
45100000.0 -2.819040000e-01 1.442331000e+00
46000000.0 -3.035720000e-01 1.448626000e+00
46900000.0 -3.228350000e-01 1.453156000e+00
47800000.0 -3.439360000e-01 1.458066000e+00
48700000.0 -3.654950000e-01 1.464512000e+00
49600000.0 -3.868830000e-01 1.469042000e+00
50500000.0 -4.088250000e-01 1.471751000e+00
51400000.0 -4.304550000e-01 1.475651000e+00
52300000.0 -4.536650000e-01 1.478297000e+00
53200000.0 -4.764340000e-01 1.479148000e+00
54100000.0 -4.997940000e-01 1.480131000e+00
55000000.0 -5.246750000e-01 1.481721000e+00
55900000.0 -5.475070000e-01 1.482533000e+00
56800000.0 -5.693870000e-01 1.481403000e+00
57700000.0 -5.954250000e-01 1.480474000e+00
58600000.0 -6.189320000e-01 1.478485000e+00
59500000.0 -6.437800000e-01 1.474847000e+00
60400000.0 -6.683790000e-01 1.471822000e+00
61300000.0 -6.907200000e-01 1.467518000e+00
62200000.0 -7.167890000e-01 1.463092000e+00
63100000.0 -7.387190000e-01 1.456874000e+00
64000000.0 -7.647740000e-01 1.450239000e+00
64900000.0 -7.879880000e-01 1.442029000e+00
65800000.0 -8.122340000e-01 1.435848000e+00
66700000.0 -8.376010000e-01 1.427139000e+00
67600000.0 -8.610300000e-01 1.418862000e+00
68500000.0 -8.834710000e-01 1.408749000e+00
69400000.0 -9.078480000e-01 1.396444000e+00
70300000.0 -9.312530000e-01 1.388249000e+00
71200000.0 -9.538480000e-01 1.373897000e+00
72100000.0 -9.748930000e-01 1.361017000e+00
73000000.0 -9.983460000e-01 1.349301000e+00
73900000.0 -1.019592000e+00 1.334027000e+00
74800000.0 -1.040522000e+00 1.320313000e+00
75700000.0 -1.059368000e+00 1.304450000e+00
76600000.0 -1.080307000e+00 1.289058000e+00
77500000.0 -1.100497000e+00 1.272049000e+00
78400000.0 -1.120660000e+00 1.255083000e+00
79300000.0 -1.140002000e+00 1.239597000e+00
80200000.0 -1.160031000e+00 1.219311000e+00
81100000.0 -1.177156000e+00 1.201525000e+00
82000000.0 -1.191634000e+00 1.183167000e+00
82900000.0 -1.209762000e+00 1.161857000e+00
83800000.0 -1.225460000e+00 1.141658000e+00
84700000.0 -1.241071000e+00 1.121421000e+00
85600000.0 -1.255352000e+00 1.099591000e+00
86500000.0 -1.268654000e+00 1.078876000e+00
87400000.0 -1.283449000e+00 1.057877000e+00
88300000.0 -1.296738000e+00 1.036802000e+00
89200000.0 -1.307868000e+00 1.014976000e+00
90100000.0 -1.317439000e+00 9.912690000e-01
91000000.0 -1.328016000e+00 9.697930000e-01
91900000.0 -1.338124000e+00 9.463210000e-01
92800000.0 -1.346694000e+00 9.219460000e-01
93700000.0 -1.355785000e+00 9.000630000e-01
94600000.0 -1.362917000e+00 8.763790000e-01
95500000.0 -1.368207000e+00 8.533410000e-01
96400000.0 -1.374318000e+00 8.292910000e-01
97300000.0 -1.378824000e+00 8.080100000e-01
98200000.0 -1.385229000e+00 7.837360000e-01
99100000.0 -1.389295000e+00 7.612830000e-01
100000000.0 -1.391030000e+00 7.392320000e-01
109000000.0 -1.385189000e+00 5.208760000e-01
118000000.0 -1.331603000e+00 3.401300000e-01
127000000.0 -1.249733000e+00 2.008360000e-01
136000000.0 -1.134318000e+00 1.007990000e-01
145000000.0 -1.046035000e+00 2.970400000e-02
154000000.0 -1.000526000e+00 -1.900000000e-03
163000000.0 -1.002496000e+00 -3.829000000e-03
172000000.0 -1.004521000e+00 -5.597000000e-03
181000000.0 -1.007412000e+00 -8.178000000e-03
190000000.0 -1.007907000e+00 -1.026600000e-02
199000000.0 -1.007953000e+00 -1.118200000e-02
208000000.0 -1.009646000e+00 -1.135300000e-02
217000000.0 -1.009312000e+00 -1.146800000e-02
226000000.0 -1.010970000e+00 -1.082500000e-02
235000000.0 -1.010155000e+00 -1.190400000e-02
244000000.0 -1.009824000e+00 -1.148300000e-02
253000000.0 -1.009302000e+00 -1.022800000e-02
262000000.0 -1.008190000e+00 -8.539000000e-03
271000000.0 -1.006698000e+00 -6.387000000e-03
280000000.0 -1.004274000e+00 -6.220000000e-03
289000000.0 -1.003324000e+00 -2.781000000e-03
298000000.0 -9.996510000e-01 -5.740000000e-04
307000000.0 -1.003293000e+00 -4.080000000e-04
316000000.0 -1.005006000e+00 -1.972000000e-03
325000000.0 -1.009028000e+00 -2.350000000e-03
334000000.0 -1.009125000e+00 -5.075000000e-03
343000000.0 -1.010934000e+00 -3.074000000e-03
352000000.0 -1.013204000e+00 -3.406000000e-03
361000000.0 -1.005416000e+00 3.019900000e-02
370000000.0 -1.012834000e+00 1.367000000e-02
379000000.0 -1.015101000e+00 -4.113000000e-03
388000000.0 -1.014192000e+00 -4.081000000e-03
397000000.0 -1.012842000e+00 -4.285000000e-03
406000000.0 -1.003006000e+00 3.049000000e-02
415000000.0 -9.909260000e-01 4.498100000e-02
424000000.0 -1.007579000e+00 -2.526000000e-03
433000000.0 -1.007455000e+00 -7.040000000e-04
442000000.0 -1.003450000e+00 -6.800000000e-04
451000000.0 -1.001727000e+00 -1.739000000e-03
460000000.0 -1.004278000e+00 2.006000000e-03
469000000.0 -1.007365000e+00 1.471000000e-03
478000000.0 -1.010834000e+00 3.010000000e-04
487000000.0 -1.012825000e+00 4.939000000e-03
496000000.0 -1.014145000e+00 2.899000000e-03
505000000.0 -1.015570000e+00 1.059000000e-03
514000000.0 -1.016028000e+00 2.699000000e-03
523000000.0 -1.018571000e+00 1.184000000e-03
532000000.0 -1.015682000e+00 5.854000000e-03
541000000.0 -1.015865000e+00 4.089000000e-03
550000000.0 -1.015087000e+00 8.210000000e-04
559000000.0 -1.013958000e+00 3.314000000e-03
568000000.0 -1.011011000e+00 2.007000000e-03
577000000.0 -1.009300000e+00 3.523000000e-03
586000000.0 -1.004893000e+00 5.380000000e-04
595000000.0 -1.002575000e+00 1.420000000e-03
604000000.0 -1.001329000e+00 3.241000000e-03
613000000.0 -1.001508000e+00 3.412000000e-03
622000000.0 -1.006610000e+00 5.692000000e-03
631000000.0 -1.005313000e+00 8.013000000e-03
640000000.0 -1.009198000e+00 1.090700000e-02
649000000.0 -1.006967000e+00 1.399600000e-02
658000000.0 -1.009485000e+00 1.170200000e-02
667000000.0 -1.012473000e+00 1.091300000e-02
676000000.0 -1.008826000e+00 1.618200000e-02
685000000.0 -1.009754000e+00 1.502300000e-02
694000000.0 -1.009689000e+00 1.238400000e-02
703000000.0 -1.004567000e+00 1.178000000e-02
712000000.0 -1.008230000e+00 1.704500000e-02
721000000.0 -1.006976000e+00 1.039600000e-02
730000000.0 -1.005365000e+00 8.844000000e-03
739000000.0 -1.001508000e+00 4.514000000e-03
748000000.0 -1.000588000e+00 2.949000000e-03
757000000.0 -9.972190000e-01 -2.100000000e-04
766000000.0 -9.989220000e-01 5.750000000e-03
775000000.0 -9.978990000e-01 9.877000000e-03
784000000.0 -1.000761000e+00 7.884000000e-03
793000000.0 -1.000272000e+00 1.123000000e-02
802000000.0 -9.997450000e-01 9.535000000e-03
811000000.0 -9.976530000e-01 1.036500000e-02
820000000.0 -9.966930000e-01 9.582000000e-03
829000000.0 -9.982800000e-01 1.028200000e-02
838000000.0 -9.969610000e-01 8.767000000e-03
847000000.0 -9.997260000e-01 1.128300000e-02
856000000.0 -9.982160000e-01 7.542000000e-03
865000000.0 -9.970370000e-01 1.618000000e-03
874000000.0 -9.988710000e-01 -1.059000000e-03
883000000.0 -9.979860000e-01 4.458000000e-03
892000000.0 -9.999500000e-01 -9.230000000e-04
901000000.0 -9.939180000e-01 -1.006000000e-03
910000000.0 -9.972340000e-01 -9.560000000e-04
919000000.0 -1.000537000e+00 -6.055000000e-03
928000000.0 -9.999160000e-01 -6.946000000e-03
937000000.0 -9.999540000e-01 -6.696000000e-03
946000000.0 -1.001670000e+00 -6.070000000e-04
955000000.0 -9.980200000e-01 -5.710000000e-04
964000000.0 -1.002415000e+00 -9.230000000e-03
973000000.0 -1.000856000e+00 -5.310000000e-03
982000000.0 -1.000458000e+00 -8.862000000e-03
991000000.0 -9.994990000e-01 -4.200000000e-03
1000000000.0 -1.000536000e+00 -9.270000000e-03
1004500000.0 -1.003488000e+00 -7.439000000e-03
1009000000.0 -1.002270000e+00 -9.434000000e-03
1013500000.0 -1.001438000e+00 -5.872000000e-03
1018000000.0 -1.005195000e+00 -3.787000000e-03
1022500000.0 -9.991340000e-01 -7.746000000e-03
1027000000.0 -1.004635000e+00 -4.941000000e-03
1031500000.0 -1.000913000e+00 -5.544000000e-03
1036000000.0 -1.001302000e+00 -8.351000000e-03
1040500000.0 -1.003460000e+00 -4.882000000e-03
1045000000.0 -9.989370000e-01 -4.383000000e-03
1049500000.0 -1.002550000e+00 -9.435000000e-03
1054000000.0 -1.003505000e+00 -6.406000000e-03
1058500000.0 -1.001531000e+00 -9.851000000e-03
1063000000.0 -1.002321000e+00 -5.691000000e-03
1067500000.0 -1.001671000e+00 -5.637000000e-03
1072000000.0 -1.002346000e+00 -5.932000000e-03
1076500000.0 -1.003703000e+00 -1.208000000e-02
1081000000.0 -1.000623000e+00 -7.277000000e-03
1085500000.0 -1.003548000e+00 -6.149000000e-03
1090000000.0 -1.002570000e+00 -1.261900000e-02
1094500000.0 -1.005236000e+00 -9.548000000e-03
1099000000.0 -1.004297000e+00 -8.345000000e-03
1103500000.0 -1.005955000e+00 -1.338400000e-02
1108000000.0 -1.009643000e+00 -8.886000000e-03
1112500000.0 -1.012594000e+00 -1.023300000e-02
1117000000.0 -1.004885000e+00 -1.211800000e-02
1121500000.0 -1.008656000e+00 -1.104800000e-02
1126000000.0 -1.008710000e+00 -7.267000000e-03
1130500000.0 -1.004097000e+00 -8.695000000e-03
1135000000.0 -1.006320000e+00 -5.954000000e-03
1139500000.0 -1.015396000e+00 -4.184900000e-02
1144000000.0 -1.005634000e+00 -6.828000000e-03
1148500000.0 -1.007805000e+00 -6.129000000e-03
1153000000.0 -1.008636000e+00 -6.540000000e-03
1157500000.0 -9.956790000e-01 2.436600000e-02
1162000000.0 -1.008120000e+00 -1.168500000e-02
1166500000.0 -1.005329000e+00 -9.240000000e-03
1171000000.0 -1.000166000e+00 -5.927000000e-03
1175500000.0 -1.002330000e+00 -6.529000000e-03
1180000000.0 -9.989470000e-01 -3.152000000e-03
1184500000.0 -1.002876000e+00 -1.342900000e-02
1189000000.0 -1.005586000e+00 -5.842000000e-03
1193500000.0 -9.972800000e-01 6.800000000e-04
1198000000.0 -9.945360000e-01 -2.737000000e-03
1202500000.0 -1.001418000e+00 -8.495000000e-03
1207000000.0 -9.976000000e-01 -6.313000000e-03
1211500000.0 -1.000076000e+00 -2.405000000e-03
1216000000.0 -1.003232000e+00 -4.428000000e-03
1220500000.0 -1.000567000e+00 -5.133000000e-03
1225000000.0 -9.995770000e-01 -4.152000000e-03
1229500000.0 -1.005729000e+00 -1.311000000e-03
1234000000.0 -1.006595000e+00 -2.622000000e-03
1238500000.0 -1.003868000e+00 1.228000000e-03
1243000000.0 -1.004551000e+00 -1.005300000e-02
1247500000.0 -1.002750000e+00 -6.871000000e-03
1252000000.0 -1.004612000e+00 -2.946000000e-03
1256500000.0 -1.009480000e+00 -6.416000000e-03
1261000000.0 -9.975200000e-01 -2.060000000e-03
1265500000.0 -1.006012000e+00 -9.673000000e-03
1270000000.0 -1.005974000e+00 -1.190200000e-02
1274500000.0 -1.006584000e+00 -5.243000000e-03
1279000000.0 -1.004657000e+00 -5.564000000e-03
1283500000.0 -1.002621000e+00 -3.681000000e-03
1288000000.0 -1.004461000e+00 -3.810000000e-03
1292500000.0 -1.009558000e+00 -7.916000000e-03
1297000000.0 -1.003519000e+00 1.545000000e-03
1301500000.0 -1.002673000e+00 -7.193000000e-03
1306000000.0 -1.003381000e+00 -4.018000000e-03
1310500000.0 -9.956410000e-01 -1.472100000e-02
1315000000.0 -1.006936000e+00 6.933000000e-03
1319500000.0 -9.932480000e-01 -6.225000000e-03
1324000000.0 -1.007537000e+00 -1.750700000e-02
1328500000.0 -9.951960000e-01 -5.360000000e-03
1333000000.0 -9.951920000e-01 1.466100000e-02
1337500000.0 -9.940480000e-01 -1.923000000e-03
1342000000.0 -9.995500000e-01 -1.221100000e-02
1346500000.0 -9.979000000e-01 -5.100000000e-04
1351000000.0 -9.900750000e-01 1.993300000e-02
1355500000.0 -9.975900000e-01 -5.456000000e-03
1360000000.0 -9.929890000e-01 -1.688100000e-02
1364500000.0 -1.004804000e+00 2.696000000e-03
1369000000.0 -9.993340000e-01 -1.233000000e-03
1373500000.0 -1.006034000e+00 -2.450000000e-04
1378000000.0 -1.001001000e+00 -8.679000000e-03
1382500000.0 -1.007913000e+00 -1.882000000e-03
1387000000.0 -1.002529000e+00 -2.132000000e-03
1391500000.0 -1.001450000e+00 -6.394000000e-03
1396000000.0 -1.009744000e+00 -8.467000000e-03
1400500000.0 -1.001412000e+00 -2.899000000e-03
1405000000.0 -1.011489000e+00 -1.118100000e-02
1409500000.0 -1.009402000e+00 -5.087000000e-03
1414000000.0 -1.012747000e+00 3.989000000e-03
1418500000.0 -1.011839000e+00 -7.538000000e-03
1423000000.0 -1.008566000e+00 -5.238000000e-03
1427500000.0 -1.014300000e+00 -9.528000000e-03
1432000000.0 -1.010529000e+00 -6.519000000e-03
1436500000.0 -1.008703000e+00 -4.965000000e-03
1441000000.0 -1.009552000e+00 3.052000000e-03
1445500000.0 -1.011797000e+00 -7.333000000e-03
1450000000.0 -1.011298000e+00 -8.050000000e-03
