! piloto_deriva / corto_deriva / r27
# HZ S RI R 50
50000.0 -9.954460000e-01 -3.730200000e-02
59500.0 -9.976330000e-01 -1.815900000e-02
69000.0 -9.992770000e-01 -6.596000000e-03
78500.0 -9.987490000e-01 -1.611000000e-03
88000.0 -9.997300000e-01 -1.700000000e-05
97500.0 -9.997630000e-01 -2.920000000e-04
107000.0 -9.999090000e-01 -2.498000000e-03
116500.0 -9.994720000e-01 -6.394000000e-03
126000.0 -9.991060000e-01 -1.134200000e-02
135500.0 -1.000163000e+00 -1.657100000e-02
145000.0 -9.998930000e-01 -2.257600000e-02
154500.0 -1.000270000e+00 -2.970200000e-02
164000.0 -9.998710000e-01 -3.683700000e-02
173500.0 -1.000162000e+00 -4.426600000e-02
183000.0 -1.000032000e+00 -5.175900000e-02
192500.0 -1.000650000e+00 -6.073000000e-02
202000.0 -1.000035000e+00 -6.901700000e-02
211500.0 -9.997160000e-01 -7.820800000e-02
221000.0 -1.000768000e+00 -8.598700000e-02
230500.0 -1.000358000e+00 -9.467300000e-02
240000.0 -9.997580000e-01 -1.039010000e-01
249500.0 -1.000741000e+00 -1.132200000e-01
259000.0 -1.001372000e+00 -1.218310000e-01
268500.0 -1.001039000e+00 -1.316760000e-01
278000.0 -1.001486000e+00 -1.405970000e-01
287500.0 -1.002177000e+00 -1.499150000e-01
297000.0 -1.002151000e+00 -1.593470000e-01
306500.0 -1.001766000e+00 -1.682630000e-01
316000.0 -1.002745000e+00 -1.784610000e-01
325500.0 -1.002449000e+00 -1.872470000e-01
335000.0 -1.003476000e+00 -1.970590000e-01
344500.0 -1.003475000e+00 -2.056200000e-01
354000.0 -1.003532000e+00 -2.150790000e-01
363500.0 -1.003711000e+00 -2.240800000e-01
373000.0 -1.003858000e+00 -2.331700000e-01
382500.0 -1.003644000e+00 -2.425520000e-01
392000.0 -1.003866000e+00 -2.513230000e-01
401500.0 -1.004289000e+00 -2.610010000e-01
411000.0 -1.005015000e+00 -2.701050000e-01
420500.0 -1.005064000e+00 -2.804870000e-01
430000.0 -1.005639000e+00 -2.894450000e-01
439500.0 -1.005561000e+00 -2.987870000e-01
449000.0 -1.005764000e+00 -3.088860000e-01
458500.0 -1.005878000e+00 -3.181940000e-01
468000.0 -1.006446000e+00 -3.264700000e-01
477500.0 -1.006877000e+00 -3.366980000e-01
487000.0 -1.005520000e+00 -3.452400000e-01
496500.0 -1.007094000e+00 -3.554990000e-01
506000.0 -1.006542000e+00 -3.650920000e-01
515500.0 -1.007100000e+00 -3.737900000e-01
525000.0 -1.007764000e+00 -3.825770000e-01
534500.0 -1.007744000e+00 -3.924160000e-01
544000.0 -1.008810000e+00 -4.005020000e-01
553500.0 -1.008436000e+00 -4.104030000e-01
563000.0 -1.008419000e+00 -4.200390000e-01
572500.0 -1.008302000e+00 -4.292850000e-01
582000.0 -1.010074000e+00 -4.381170000e-01
591500.0 -1.010601000e+00 -4.465920000e-01
601000.0 -1.011352000e+00 -4.576170000e-01
610500.0 -1.010605000e+00 -4.651270000e-01
620000.0 -1.012189000e+00 -4.744460000e-01
629500.0 -1.013265000e+00 -4.830520000e-01
639000.0 -1.013026000e+00 -4.920290000e-01
648500.0 -1.013281000e+00 -5.019000000e-01
658000.0 -1.013209000e+00 -5.102740000e-01
667500.0 -1.014434000e+00 -5.202050000e-01
677000.0 -1.014481000e+00 -5.284860000e-01
686500.0 -1.016327000e+00 -5.368670000e-01
696000.0 -1.017298000e+00 -5.460830000e-01
705500.0 -1.017363000e+00 -5.554760000e-01
715000.0 -1.019117000e+00 -5.649600000e-01
724500.0 -1.018550000e+00 -5.728940000e-01
734000.0 -1.020476000e+00 -5.827070000e-01
743500.0 -1.022137000e+00 -5.908070000e-01
753000.0 -1.022275000e+00 -6.007880000e-01
762500.0 -1.023109000e+00 -6.098450000e-01
772000.0 -1.024389000e+00 -6.187200000e-01
781500.0 -1.026219000e+00 -6.283290000e-01
791000.0 -1.026760000e+00 -6.348160000e-01
800500.0 -1.027213000e+00 -6.451130000e-01
810000.0 -1.029133000e+00 -6.540280000e-01
819500.0 -1.030895000e+00 -6.631320000e-01
829000.0 -1.031500000e+00 -6.702210000e-01
838500.0 -1.033834000e+00 -6.796950000e-01
848000.0 -1.033722000e+00 -6.889500000e-01
857500.0 -1.035836000e+00 -6.979500000e-01
867000.0 -1.038363000e+00 -7.070290000e-01
876500.0 -1.039913000e+00 -7.147930000e-01
886000.0 -1.042911000e+00 -7.227960000e-01
895500.0 -1.041963000e+00 -7.323440000e-01
905000.0 -1.044147000e+00 -7.411590000e-01
914500.0 -1.046139000e+00 -7.482490000e-01
924000.0 -1.049119000e+00 -7.576120000e-01
933500.0 -1.050538000e+00 -7.672220000e-01
943000.0 -1.051519000e+00 -7.741650000e-01
952500.0 -1.054163000e+00 -7.840040000e-01
962000.0 -1.057389000e+00 -7.921940000e-01
971500.0 -1.060611000e+00 -8.003600000e-01
981000.0 -1.062230000e+00 -8.084410000e-01
990500.0 -1.066240000e+00 -8.165800000e-01
1000000.0 -1.067711000e+00 -8.243980000e-01
1090000.0 -1.096302000e+00 -9.020100000e-01
1180000.0 -1.134100000e+00 -9.762360000e-01
1270000.0 -1.182212000e+00 -1.044269000e+00
1360000.0 -1.238914000e+00 -1.104536000e+00
1450000.0 -1.308140000e+00 -1.156070000e+00
1540000.0 -1.386145000e+00 -1.193761000e+00
1630000.0 -1.470582000e+00 -1.211951000e+00
1720000.0 -1.560290000e+00 -1.212354000e+00
1810000.0 -1.653060000e+00 -1.189881000e+00
1900000.0 -1.732797000e+00 -1.145253000e+00
1990000.0 -1.807877000e+00 -1.081025000e+00
2080000.0 -1.861446000e+00 -1.002441000e+00
2170000.0 -1.899898000e+00 -9.135300000e-01
2260000.0 -1.917781000e+00 -8.186490000e-01
2350000.0 -1.914661000e+00 -7.288270000e-01
2440000.0 -1.899522000e+00 -6.445440000e-01
2530000.0 -1.873850000e+00 -5.663560000e-01
2620000.0 -1.839001000e+00 -4.989840000e-01
2710000.0 -1.799101000e+00 -4.396040000e-01
2800000.0 -1.757982000e+00 -3.863920000e-01
2890000.0 -1.715606000e+00 -3.401650000e-01
2980000.0 -1.719140000e+00 -3.379190000e-01
3070000.0 -1.631166000e+00 -2.785040000e-01
3160000.0 -1.593920000e+00 -2.413660000e-01
3250000.0 -1.557110000e+00 -2.149420000e-01
3340000.0 -1.521277000e+00 -1.908630000e-01
3430000.0 -1.490140000e+00 -1.706390000e-01
3520000.0 -1.456703000e+00 -1.543750000e-01
3610000.0 -1.429883000e+00 -1.376010000e-01
3700000.0 -1.403130000e+00 -1.224180000e-01
3790000.0 -1.377265000e+00 -1.067680000e-01
3880000.0 -1.354648000e+00 -9.226200000e-02
3970000.0 -1.333155000e+00 -8.003500000e-02
4060000.0 -1.313330000e+00 -6.784200000e-02
4150000.0 -1.295267000e+00 -5.386900000e-02
4240000.0 -1.279003000e+00 -4.279200000e-02
4330000.0 -1.263790000e+00 -3.121000000e-02
4420000.0 -1.248004000e+00 -1.929800000e-02
4510000.0 -1.237427000e+00 -8.239000000e-03
4600000.0 -1.224922000e+00 3.333000000e-03
4690000.0 -1.213684000e+00 1.401400000e-02
4780000.0 -1.202405000e+00 2.660100000e-02
4870000.0 -1.195251000e+00 3.809000000e-02
4960000.0 -1.187398000e+00 4.709900000e-02
5050000.0 -1.172813000e+00 5.905900000e-02
5140000.0 -1.166884000e+00 6.873200000e-02
5230000.0 -1.161993000e+00 7.969600000e-02
5320000.0 -1.156995000e+00 8.997900000e-02
5410000.0 -1.152572000e+00 1.015210000e-01
5500000.0 -1.148013000e+00 1.114080000e-01
5590000.0 -1.143993000e+00 1.217220000e-01
5680000.0 -1.140185000e+00 1.315630000e-01
5770000.0 -1.136076000e+00 1.406350000e-01
5860000.0 -1.131864000e+00 1.502620000e-01
5950000.0 -1.128963000e+00 1.579700000e-01
6040000.0 -1.125798000e+00 1.676790000e-01
6130000.0 -1.123065000e+00 1.764620000e-01
6220000.0 -1.119708000e+00 1.836420000e-01
6310000.0 -1.116469000e+00 1.925270000e-01
6400000.0 -1.114314000e+00 1.991370000e-01
6490000.0 -1.112406000e+00 2.066900000e-01
6580000.0 -1.110222000e+00 2.136260000e-01
6670000.0 -1.109032000e+00 2.186600000e-01
6760000.0 -1.107893000e+00 2.232090000e-01
6850000.0 -1.105521000e+00 2.287490000e-01
6940000.0 -1.105096000e+00 2.313980000e-01
7030000.0 -1.102947000e+00 2.361880000e-01
7120000.0 -1.102761000e+00 2.390720000e-01
7210000.0 -1.102294000e+00 2.407320000e-01
7300000.0 -1.102356000e+00 2.416250000e-01
7390000.0 -1.102560000e+00 2.419590000e-01
7480000.0 -1.103009000e+00 2.421680000e-01
7570000.0 1.966520000e-01 1.074293000e+00
7660000.0 1.948660000e-01 1.073164000e+00
7750000.0 1.949220000e-01 1.074724000e+00
7840000.0 1.929570000e-01 1.074772000e+00
7930000.0 1.924040000e-01 1.075448000e+00
8020000.0 1.918810000e-01 1.075486000e+00
8110000.0 1.914350000e-01 1.076037000e+00
8200000.0 1.897140000e-01 1.076219000e+00
8290000.0 1.897280000e-01 1.077393000e+00
8380000.0 1.893400000e-01 1.076327000e+00
8470000.0 1.872510000e-01 1.077649000e+00
8560000.0 1.870700000e-01 1.077742000e+00
8650000.0 1.861360000e-01 1.077912000e+00
8740000.0 1.860640000e-01 1.078531000e+00
8830000.0 1.842470000e-01 1.079738000e+00
8920000.0 1.841680000e-01 1.080772000e+00
9010000.0 1.839130000e-01 1.081399000e+00
9100000.0 1.839230000e-01 1.080769000e+00
9190000.0 1.830260000e-01 1.081087000e+00
9280000.0 1.828210000e-01 1.082870000e+00
9370000.0 1.804260000e-01 1.082989000e+00
9460000.0 1.794300000e-01 1.083593000e+00
9550000.0 1.796960000e-01 1.083951000e+00
9640000.0 1.794460000e-01 1.084660000e+00
9730000.0 1.778320000e-01 1.085218000e+00
9820000.0 1.782820000e-01 1.085555000e+00
9910000.0 1.769170000e-01 1.086851000e+00
10000000.0 1.756330000e-01 1.087333000e+00
10900000.0 1.699120000e-01 1.095166000e+00
11800000.0 1.639740000e-01 1.102491000e+00
12700000.0 1.566600000e-01 1.110382000e+00
13600000.0 1.506980000e-01 1.118502000e+00
14500000.0 1.447700000e-01 1.127001000e+00
15400000.0 1.374220000e-01 1.136150000e+00
16300000.0 1.312280000e-01 1.144653000e+00
17200000.0 1.236580000e-01 1.154518000e+00
18100000.0 1.174650000e-01 1.163778000e+00
19000000.0 1.089110000e-01 1.173653000e+00
19900000.0 1.012950000e-01 1.182706000e+00
20800000.0 9.297300000e-02 1.192072000e+00
21700000.0 8.520100000e-02 1.202012000e+00
22600000.0 7.538200000e-02 1.210999000e+00
23500000.0 6.659900000e-02 1.221600000e+00
24400000.0 5.657000000e-02 1.230958000e+00
25300000.0 4.754900000e-02 1.241553000e+00
26200000.0 3.516100000e-02 1.252277000e+00
27100000.0 2.490800000e-02 1.262033000e+00
28000000.0 1.438600000e-02 1.271672000e+00
28900000.0 1.537000000e-03 1.282496000e+00
29800000.0 -9.742000000e-03 1.292094000e+00
30700000.0 -2.066200000e-02 1.310869000e+00
31600000.0 -3.461300000e-02 1.311925000e+00
32500000.0 -4.884400000e-02 1.322576000e+00
33400000.0 -6.203100000e-02 1.331099000e+00
34300000.0 -7.693500000e-02 1.340821000e+00
35200000.0 -9.069900000e-02 1.351766000e+00
36100000.0 -1.052780000e-01 1.360440000e+00
37000000.0 -1.212870000e-01 1.369763000e+00
37900000.0 -1.380590000e-01 1.377818000e+00
38800000.0 -1.533640000e-01 1.387956000e+00
39700000.0 -1.713230000e-01 1.397166000e+00
40600000.0 -1.877480000e-01 1.405564000e+00
41500000.0 -2.068480000e-01 1.413643000e+00
42400000.0 -2.247990000e-01 1.420742000e+00
43300000.0 -2.428230000e-01 1.427648000e+00
44200000.0 -2.624960000e-01 1.436505000e+00
45100000.0 -2.816580000e-01 1.441391000e+00
46000000.0 -3.032360000e-01 1.447074000e+00
46900000.0 -3.246340000e-01 1.453929000e+00
47800000.0 -3.447730000e-01 1.458291000e+00
48700000.0 -3.656730000e-01 1.463511000e+00
49600000.0 -3.856900000e-01 1.467815000e+00
50500000.0 -4.095170000e-01 1.470971000e+00
51400000.0 -4.322790000e-01 1.475950000e+00
52300000.0 -4.533770000e-01 1.476925000e+00
53200000.0 -4.764490000e-01 1.480273000e+00
54100000.0 -5.007990000e-01 1.481667000e+00
55000000.0 -5.240850000e-01 1.481479000e+00
55900000.0 -5.467230000e-01 1.481088000e+00
56800000.0 -5.708360000e-01 1.481301000e+00
57700000.0 -5.946080000e-01 1.479908000e+00
58600000.0 -6.193350000e-01 1.476993000e+00
59500000.0 -6.426260000e-01 1.474928000e+00
60400000.0 -6.684940000e-01 1.470200000e+00
61300000.0 -6.929330000e-01 1.465719000e+00
62200000.0 -7.162320000e-01 1.462448000e+00
63100000.0 -7.395330000e-01 1.457370000e+00
64000000.0 -7.643840000e-01 1.451363000e+00
64900000.0 -7.882120000e-01 1.444080000e+00
65800000.0 -8.120370000e-01 1.437004000e+00
66700000.0 -8.357210000e-01 1.427776000e+00
67600000.0 -8.597210000e-01 1.417248000e+00
68500000.0 -8.830910000e-01 1.408776000e+00
69400000.0 -9.066250000e-01 1.397153000e+00
70300000.0 -9.298370000e-01 1.385181000e+00
71200000.0 -9.537700000e-01 1.373216000e+00
72100000.0 -9.756680000e-01 1.360730000e+00
73000000.0 -9.971680000e-01 1.348806000e+00
73900000.0 -1.019235000e+00 1.333910000e+00
74800000.0 -1.040108000e+00 1.319396000e+00
75700000.0 -1.061674000e+00 1.304528000e+00
76600000.0 -1.081783000e+00 1.286616000e+00
77500000.0 -1.100069000e+00 1.272539000e+00
78400000.0 -1.120605000e+00 1.255650000e+00
79300000.0 -1.139462000e+00 1.236914000e+00
80200000.0 -1.156931000e+00 1.220150000e+00
81100000.0 -1.174938000e+00 1.202514000e+00
82000000.0 -1.192313000e+00 1.181067000e+00
82900000.0 -1.210213000e+00 1.161463000e+00
83800000.0 -1.224874000e+00 1.143581000e+00
84700000.0 -1.240986000e+00 1.120521000e+00
85600000.0 -1.255016000e+00 1.101485000e+00
86500000.0 -1.269858000e+00 1.079141000e+00
87400000.0 -1.282285000e+00 1.058274000e+00
88300000.0 -1.294881000e+00 1.035514000e+00
89200000.0 -1.306996000e+00 1.014075000e+00
90100000.0 -1.318047000e+00 9.922600000e-01
91000000.0 -1.326989000e+00 9.682000000e-01
91900000.0 -1.338130000e+00 9.457380000e-01
92800000.0 -1.346687000e+00 9.229230000e-01
93700000.0 -1.356219000e+00 9.002050000e-01
94600000.0 -1.362127000e+00 8.772270000e-01
95500000.0 -1.369067000e+00 8.547030000e-01
96400000.0 -1.375393000e+00 8.305580000e-01
97300000.0 -1.378917000e+00 8.071760000e-01
98200000.0 -1.383953000e+00 7.831470000e-01
99100000.0 -1.387838000e+00 7.607580000e-01
100000000.0 -1.391114000e+00 7.387010000e-01
109000000.0 -1.387587000e+00 5.210980000e-01
118000000.0 -1.330463000e+00 3.387160000e-01
127000000.0 -1.250794000e+00 1.995810000e-01
136000000.0 -1.134382000e+00 9.933000000e-02
145000000.0 -1.046889000e+00 2.968500000e-02
154000000.0 -1.000583000e+00 -8.010000000e-04
163000000.0 -1.002634000e+00 -3.968000000e-03
172000000.0 -1.003753000e+00 -5.874000000e-03
181000000.0 -1.006079000e+00 -7.662000000e-03
190000000.0 -1.007771000e+00 -1.021500000e-02
199000000.0 -1.008912000e+00 -9.069000000e-03
208000000.0 -1.010324000e+00 -1.238400000e-02
217000000.0 -1.010141000e+00 -1.210200000e-02
226000000.0 -1.010563000e+00 -1.138900000e-02
235000000.0 -1.010667000e+00 -1.133200000e-02
244000000.0 -1.009447000e+00 -1.063200000e-02
253000000.0 -1.009327000e+00 -9.586000000e-03
262000000.0 -1.008470000e+00 -7.566000000e-03
271000000.0 -1.006249000e+00 -6.395000000e-03
280000000.0 -1.004314000e+00 -4.798000000e-03
289000000.0 -1.002085000e+00 -3.283000000e-03
298000000.0 -9.993130000e-01 6.700000000e-05
307000000.0 -1.002152000e+00 -9.830000000e-04
316000000.0 -1.005168000e+00 -1.541000000e-03
325000000.0 -1.008068000e+00 -1.244000000e-03
334000000.0 -1.011165000e+00 -3.166000000e-03
343000000.0 -1.013414000e+00 -3.777000000e-03
352000000.0 -1.020602000e+00 -3.852100000e-02
361000000.0 -1.015101000e+00 -5.260000000e-03
370000000.0 -1.015247000e+00 -5.341000000e-03
379000000.0 -1.004939000e+00 2.903700000e-02
388000000.0 -1.029027000e+00 -7.446000000e-02
397000000.0 -1.019109000e+00 -2.044400000e-02
406000000.0 -1.014595000e+00 -2.225300000e-02
415000000.0 -1.010991000e+00 -4.325000000e-03
424000000.0 -1.009687000e+00 -3.092000000e-03
433000000.0 -1.007261000e+00 -2.771000000e-03
442000000.0 -1.004118000e+00 4.140000000e-04
451000000.0 -1.000608000e+00 -6.060000000e-04
460000000.0 -1.004922000e+00 -4.490000000e-04
469000000.0 -1.007377000e+00 -4.420000000e-04
478000000.0 -1.009629000e+00 1.268000000e-03
487000000.0 -1.013397000e+00 2.292000000e-03
496000000.0 -1.013262000e+00 1.956000000e-03
505000000.0 -1.015023000e+00 1.263000000e-03
514000000.0 -1.015892000e+00 5.981000000e-03
523000000.0 -1.016866000e+00 4.691000000e-03
532000000.0 -1.016801000e+00 3.476000000e-03
541000000.0 -1.016590000e+00 3.779000000e-03
550000000.0 -1.013569000e+00 -5.470000000e-04
559000000.0 -1.012387000e+00 1.979000000e-03
568000000.0 -1.011465000e+00 1.143000000e-03
577000000.0 -1.008117000e+00 2.178000000e-03
586000000.0 -1.006138000e+00 -9.060000000e-04
595000000.0 -1.003709000e+00 9.700000000e-05
604000000.0 -9.997840000e-01 3.387000000e-03
613000000.0 -1.002133000e+00 8.067000000e-03
622000000.0 -1.005188000e+00 7.350000000e-03
631000000.0 -1.007320000e+00 8.446000000e-03
640000000.0 -1.009755000e+00 8.320000000e-03
649000000.0 -1.005942000e+00 9.513000000e-03
658000000.0 -1.013147000e+00 9.057000000e-03
667000000.0 -1.009423000e+00 1.218200000e-02
676000000.0 -1.012652000e+00 1.202700000e-02
685000000.0 -1.011840000e+00 1.046900000e-02
694000000.0 -1.010648000e+00 1.139600000e-02
703000000.0 -1.004591000e+00 9.918000000e-03
712000000.0 -1.006712000e+00 1.340600000e-02
721000000.0 -1.005030000e+00 1.225700000e-02
730000000.0 -1.004128000e+00 2.603000000e-03
739000000.0 -1.000446000e+00 4.645000000e-03
748000000.0 -1.001115000e+00 2.970000000e-03
757000000.0 -1.001197000e+00 5.961000000e-03
766000000.0 -1.000250000e+00 2.485000000e-03
775000000.0 -9.987500000e-01 4.816000000e-03
784000000.0 -1.001352000e+00 7.220000000e-03
793000000.0 -9.976440000e-01 5.347000000e-03
802000000.0 -9.972890000e-01 1.143200000e-02
811000000.0 -9.961630000e-01 5.927000000e-03
820000000.0 -9.995990000e-01 6.121000000e-03
829000000.0 -1.001216000e+00 9.612000000e-03
838000000.0 -9.983130000e-01 7.528000000e-03
847000000.0 -9.962540000e-01 8.120000000e-03
856000000.0 -9.990590000e-01 7.288000000e-03
865000000.0 -9.974010000e-01 4.101000000e-03
874000000.0 -9.953490000e-01 2.778000000e-03
883000000.0 -1.001319000e+00 2.462000000e-03
892000000.0 -9.970160000e-01 2.576000000e-03
901000000.0 -9.983970000e-01 1.570000000e-04
910000000.0 -9.986250000e-01 3.028000000e-03
919000000.0 -9.998250000e-01 -7.115000000e-03
928000000.0 -1.001626000e+00 -4.581000000e-03
937000000.0 -1.002420000e+00 -2.690000000e-03
946000000.0 -9.991960000e-01 -6.307000000e-03
955000000.0 -1.000722000e+00 -4.042000000e-03
964000000.0 -9.993290000e-01 -4.361000000e-03
973000000.0 -9.987710000e-01 -6.217000000e-03
982000000.0 -1.001301000e+00 -6.177000000e-03
991000000.0 -1.002553000e+00 -5.181000000e-03
1000000000.0 -1.000098000e+00 -4.795000000e-03
1004500000.0 -1.002082000e+00 -9.060000000e-03
1009000000.0 -1.000220000e+00 -8.229000000e-03
1013500000.0 -9.998520000e-01 -9.831000000e-03
1018000000.0 -1.000991000e+00 -1.073300000e-02
1022500000.0 -1.002918000e+00 -7.279000000e-03
1027000000.0 -1.003327000e+00 -1.003300000e-02
1031500000.0 -1.000902000e+00 -4.423000000e-03
1036000000.0 -9.991130000e-01 -2.649000000e-03
1040500000.0 -1.001186000e+00 -5.385000000e-03
1045000000.0 -9.992730000e-01 -6.161000000e-03
1049500000.0 -1.001994000e+00 -2.846000000e-03
1054000000.0 -1.000525000e+00 -6.243000000e-03
1058500000.0 -1.001214000e+00 -7.651000000e-03
1063000000.0 -1.002658000e+00 -8.324000000e-03
1067500000.0 -1.006337000e+00 -9.905000000e-03
1072000000.0 -1.002925000e+00 -1.309800000e-02
1076500000.0 -1.002289000e+00 -1.239600000e-02
1081000000.0 -1.003932000e+00 -6.544000000e-03
1085500000.0 -1.004876000e+00 -6.980000000e-03
1090000000.0 -1.007626000e+00 -1.247600000e-02
1094500000.0 -1.009849000e+00 -1.144600000e-02
1099000000.0 -1.008719000e+00 -9.447000000e-03
1103500000.0 -1.007638000e+00 -1.044100000e-02
1108000000.0 -1.007319000e+00 -1.227400000e-02
1112500000.0 -1.007522000e+00 -8.835000000e-03
1117000000.0 -1.007560000e+00 -6.302000000e-03
1121500000.0 -1.004876000e+00 -5.807000000e-03
1126000000.0 -1.008391000e+00 6.124000000e-03
1130500000.0 -1.007999000e+00 -9.853000000e-03
1135000000.0 -1.014822000e+00 -4.188300000e-02
1139500000.0 -1.007873000e+00 -1.359800000e-02
1144000000.0 -1.007024000e+00 -9.193000000e-03
1148500000.0 -1.003272000e+00 -2.444000000e-03
1153000000.0 -9.992600000e-01 -3.823000000e-03
1157500000.0 -1.010548000e+00 -1.172800000e-02
1162000000.0 -1.005814000e+00 -1.130900000e-02
1166500000.0 -9.991650000e-01 -5.115000000e-03
1171000000.0 -1.000037000e+00 -3.006000000e-03
1175500000.0 -1.002964000e+00 -4.151000000e-03
1180000000.0 -9.989520000e-01 -1.979000000e-03
1184500000.0 -9.999780000e-01 -8.320000000e-03
1189000000.0 -1.003288000e+00 -9.600000000e-04
1193500000.0 -9.964750000e-01 3.343000000e-03
1198000000.0 -9.995210000e-01 -3.936000000e-03
1202500000.0 -9.964500000e-01 -1.596000000e-03
1207000000.0 -9.971610000e-01 -2.594000000e-03
1211500000.0 -9.973230000e-01 -4.781000000e-03
1216000000.0 -1.004113000e+00 -5.952000000e-03
1220500000.0 -1.004581000e+00 9.840000000e-04
1225000000.0 -9.967400000e-01 -3.451000000e-03
1229500000.0 -9.981430000e-01 -9.303000000e-03
1234000000.0 -1.004996000e+00 -3.120000000e-04
1238500000.0 -9.998950000e-01 1.858000000e-03
1243000000.0 -1.006305000e+00 -4.868000000e-03
1247500000.0 -1.005263000e+00 -7.294000000e-03
1252000000.0 -1.005322000e+00 -6.400000000e-05
1256500000.0 -1.004029000e+00 9.290000000e-04
1261000000.0 -1.002146000e+00 -8.581000000e-03
1265500000.0 -1.000869000e+00 -1.266200000e-02
1270000000.0 -1.007386000e+00 -7.222000000e-03
1274500000.0 -1.002914000e+00 -7.498000000e-03
1279000000.0 -1.003168000e+00 2.037000000e-03
1283500000.0 -1.005472000e+00 -1.037100000e-02
1288000000.0 -1.003265000e+00 -2.003000000e-03
1292500000.0 -1.006038000e+00 1.087000000e-03
1297000000.0 -1.001548000e+00 -6.433000000e-03
1301500000.0 -1.005505000e+00 -1.525500000e-02
1306000000.0 -9.997150000e-01 -7.640000000e-03
1310500000.0 -1.001511000e+00 -6.900000000e-04
1315000000.0 -9.989600000e-01 -9.419000000e-03
1319500000.0 -9.965420000e-01 -3.971000000e-03
1324000000.0 -1.003799000e+00 -1.553700000e-02
1328500000.0 -9.938760000e-01 -1.236600000e-02
1333000000.0 -1.000388000e+00 -6.899000000e-03
1337500000.0 -1.003326000e+00 -8.340000000e-03
1342000000.0 -9.969940000e-01 3.491000000e-03
1346500000.0 -9.960610000e-01 -2.510000000e-03
1351000000.0 -9.915980000e-01 -3.680000000e-03
1355500000.0 -9.924330000e-01 -3.574000000e-03
1360000000.0 -9.948550000e-01 1.910000000e-04
1364500000.0 -9.985290000e-01 -8.355000000e-03
1369000000.0 -9.949250000e-01 1.949000000e-03
1373500000.0 -9.963890000e-01 -4.084000000e-03
1378000000.0 -9.997420000e-01 2.740000000e-04
1382500000.0 -1.000595000e+00 2.461000000e-03
1387000000.0 -1.000778000e+00 1.429600000e-02
1391500000.0 -1.001157000e+00 -2.844000000e-03
1396000000.0 -1.007105000e+00 -1.399100000e-02
1400500000.0 -1.008711000e+00 5.455000000e-03
1405000000.0 -1.006634000e+00 1.739100000e-02
1409500000.0 -1.008966000e+00 -4.564000000e-03
1414000000.0 -1.011485000e+00 -2.109000000e-02
1418500000.0 -1.012906000e+00 1.732000000e-03
1423000000.0 -1.002479000e+00 2.841000000e-03
1427500000.0 -1.006775000e+00 1.226000000e-03
1432000000.0 -1.012915000e+00 -1.166400000e-02
1436500000.0 -1.010557000e+00 -6.923000000e-03
1441000000.0 -1.009690000e+00 -4.856000000e-03
1445500000.0 -1.009510000e+00 -9.842000000e-03
1450000000.0 -1.011171000e+00 -1.092700000e-02
