! piloto_deriva / corto_deriva / r31
# HZ S RI R 50
50000.0 -9.975920000e-01 -3.768000000e-02
59500.0 -9.946750000e-01 -1.816500000e-02
69000.0 -9.977590000e-01 -4.430000000e-03
78500.0 -9.989040000e-01 -2.177000000e-03
88000.0 -9.994070000e-01 2.880000000e-04
97500.0 -9.997970000e-01 -6.780000000e-04
107000.0 -9.999740000e-01 -2.438000000e-03
116500.0 -1.000179000e+00 -6.120000000e-03
126000.0 -9.991720000e-01 -1.069500000e-02
135500.0 -9.996680000e-01 -1.682500000e-02
145000.0 -1.000379000e+00 -2.255800000e-02
154500.0 -9.999980000e-01 -2.904800000e-02
164000.0 -1.000427000e+00 -3.635800000e-02
173500.0 -9.995960000e-01 -4.482700000e-02
183000.0 -1.000052000e+00 -5.211400000e-02
192500.0 -9.991790000e-01 -5.933100000e-02
202000.0 -9.999260000e-01 -6.891400000e-02
211500.0 -1.000060000e+00 -7.652700000e-02
221000.0 -1.000547000e+00 -8.585400000e-02
230500.0 -9.998910000e-01 -9.431700000e-02
240000.0 -1.000785000e+00 -1.040220000e-01
249500.0 -8.519250000e-01 -1.205180000e-01
259000.0 -1.000279000e+00 -1.221550000e-01
268500.0 -1.001023000e+00 -1.312990000e-01
278000.0 -1.001368000e+00 -1.406540000e-01
287500.0 -1.002321000e+00 -1.501980000e-01
297000.0 -1.002417000e+00 -1.600640000e-01
306500.0 -1.002372000e+00 -1.687350000e-01
316000.0 -1.002632000e+00 -1.772020000e-01
325500.0 -1.002387000e+00 -1.873140000e-01
335000.0 -1.002452000e+00 -1.966600000e-01
344500.0 -1.003125000e+00 -2.054870000e-01
354000.0 -1.003773000e+00 -2.157240000e-01
363500.0 -1.003930000e+00 -2.241920000e-01
373000.0 -1.004292000e+00 -2.328950000e-01
382500.0 -1.003919000e+00 -2.432260000e-01
392000.0 -1.004384000e+00 -2.521620000e-01
401500.0 -1.004554000e+00 -2.612870000e-01
411000.0 -1.004390000e+00 -2.705600000e-01
420500.0 -1.004238000e+00 -2.805600000e-01
430000.0 -1.004887000e+00 -2.900820000e-01
439500.0 -1.005378000e+00 -2.994310000e-01
449000.0 -1.005483000e+00 -3.088120000e-01
458500.0 -1.006077000e+00 -3.177050000e-01
468000.0 -1.005072000e+00 -3.270470000e-01
477500.0 -1.006561000e+00 -3.367310000e-01
487000.0 -1.006113000e+00 -3.449970000e-01
496500.0 -1.006490000e+00 -3.550780000e-01
506000.0 -1.007207000e+00 -3.650780000e-01
515500.0 -1.008022000e+00 -3.742730000e-01
525000.0 -1.008065000e+00 -3.827350000e-01
534500.0 -1.008192000e+00 -3.923380000e-01
544000.0 -1.007595000e+00 -4.008610000e-01
553500.0 -1.008817000e+00 -4.112100000e-01
563000.0 -1.009766000e+00 -4.197620000e-01
572500.0 -1.009658000e+00 -4.292420000e-01
582000.0 -1.009501000e+00 -4.379910000e-01
591500.0 -1.009809000e+00 -4.469960000e-01
601000.0 -1.011178000e+00 -4.563950000e-01
610500.0 -1.010552000e+00 -4.642020000e-01
620000.0 -1.012366000e+00 -4.752760000e-01
629500.0 -1.013176000e+00 -4.831920000e-01
639000.0 -1.012235000e+00 -4.925250000e-01
648500.0 -1.015096000e+00 -5.025710000e-01
658000.0 -1.014551000e+00 -5.111740000e-01
667500.0 -1.014623000e+00 -5.205290000e-01
677000.0 -1.015390000e+00 -5.288640000e-01
686500.0 -1.015921000e+00 -5.361070000e-01
696000.0 -1.015898000e+00 -5.474850000e-01
705500.0 -1.018055000e+00 -5.556730000e-01
715000.0 -1.019669000e+00 -5.645220000e-01
724500.0 -1.019461000e+00 -5.732900000e-01
734000.0 -1.020513000e+00 -5.831840000e-01
743500.0 -1.020578000e+00 -5.918770000e-01
753000.0 -1.022278000e+00 -6.003460000e-01
762500.0 -1.023389000e+00 -6.103170000e-01
772000.0 -1.023892000e+00 -6.189250000e-01
781500.0 -1.025806000e+00 -6.276590000e-01
791000.0 -1.026333000e+00 -6.370740000e-01
800500.0 -1.027632000e+00 -6.444690000e-01
810000.0 -1.028739000e+00 -6.529960000e-01
819500.0 -1.029737000e+00 -6.633100000e-01
829000.0 -1.032230000e+00 -6.712050000e-01
838500.0 -1.033025000e+00 -6.804320000e-01
848000.0 -1.034198000e+00 -6.877550000e-01
857500.0 -1.036779000e+00 -6.977040000e-01
867000.0 -1.038620000e+00 -7.073470000e-01
876500.0 -1.039681000e+00 -7.141960000e-01
886000.0 -1.042514000e+00 -7.242310000e-01
895500.0 -1.043705000e+00 -7.316580000e-01
905000.0 -1.045511000e+00 -7.424500000e-01
914500.0 -1.047245000e+00 -7.483650000e-01
924000.0 -1.049662000e+00 -7.585880000e-01
933500.0 -1.052358000e+00 -7.659030000e-01
943000.0 -1.052664000e+00 -7.743800000e-01
952500.0 -1.054635000e+00 -7.846310000e-01
962000.0 -1.058059000e+00 -7.925700000e-01
971500.0 -1.059508000e+00 -7.990230000e-01
981000.0 -1.064528000e+00 -8.105220000e-01
990500.0 -1.065170000e+00 -8.177770000e-01
1000000.0 -1.068639000e+00 -8.251880000e-01
1090000.0 -1.099093000e+00 -9.022570000e-01
1180000.0 -1.135376000e+00 -9.759570000e-01
1270000.0 -1.182651000e+00 -1.045845000e+00
1360000.0 -1.240715000e+00 -1.106903000e+00
1450000.0 -1.308378000e+00 -1.155860000e+00
1540000.0 -1.384307000e+00 -1.194875000e+00
1630000.0 -1.472056000e+00 -1.210745000e+00
1720000.0 -1.561717000e+00 -1.209878000e+00
1810000.0 -1.651388000e+00 -1.188933000e+00
1900000.0 -1.733467000e+00 -1.145625000e+00
1990000.0 -1.805932000e+00 -1.079657000e+00
2080000.0 -1.863681000e+00 -1.002152000e+00
2170000.0 -1.898635000e+00 -9.121140000e-01
2260000.0 -1.920271000e+00 -8.224320000e-01
2350000.0 -1.914991000e+00 -7.312880000e-01
2440000.0 -1.901851000e+00 -6.448260000e-01
2530000.0 -1.873745000e+00 -5.673120000e-01
2620000.0 -1.840928000e+00 -4.979510000e-01
2710000.0 -1.799263000e+00 -4.349010000e-01
2800000.0 -1.757966000e+00 -3.849890000e-01
2890000.0 -1.715467000e+00 -3.422530000e-01
2980000.0 -1.672486000e+00 -3.221590000e-01
3070000.0 -1.632354000e+00 -2.684010000e-01
3160000.0 -1.592916000e+00 -2.411000000e-01
3250000.0 -1.556315000e+00 -2.160370000e-01
3340000.0 -1.522065000e+00 -1.914480000e-01
3430000.0 -1.490414000e+00 -1.730910000e-01
3520000.0 -1.457196000e+00 -1.549920000e-01
3610000.0 -1.427278000e+00 -1.372310000e-01
3700000.0 -1.402992000e+00 -1.207400000e-01
3790000.0 -1.377939000e+00 -1.074450000e-01
3880000.0 -1.354062000e+00 -9.439600000e-02
3970000.0 -1.332190000e+00 -7.900500000e-02
4060000.0 -1.313164000e+00 -6.784200000e-02
4150000.0 -1.294556000e+00 -5.420700000e-02
4240000.0 -1.278529000e+00 -4.284300000e-02
4330000.0 -1.262552000e+00 -2.949900000e-02
4420000.0 -1.248800000e+00 -1.960300000e-02
4510000.0 -1.236528000e+00 -7.209000000e-03
4600000.0 -1.223568000e+00 4.217000000e-03
4690000.0 -1.212734000e+00 1.458300000e-02
4780000.0 -1.203718000e+00 2.680700000e-02
4870000.0 -1.195521000e+00 3.761000000e-02
4960000.0 -1.186142000e+00 4.813800000e-02
5050000.0 -1.172495000e+00 5.847800000e-02
5140000.0 -1.167542000e+00 6.899800000e-02
5230000.0 -1.160732000e+00 8.000600000e-02
5320000.0 -1.156834000e+00 9.075200000e-02
5410000.0 -1.151145000e+00 1.014810000e-01
5500000.0 -1.147662000e+00 1.110150000e-01
5590000.0 -1.143394000e+00 1.216160000e-01
5680000.0 -1.139908000e+00 1.311730000e-01
5770000.0 -1.135089000e+00 1.418670000e-01
5860000.0 -1.132432000e+00 1.506990000e-01
5950000.0 -1.129157000e+00 1.597340000e-01
6040000.0 -1.125664000e+00 1.674990000e-01
6130000.0 -1.122770000e+00 1.767190000e-01
6220000.0 -1.119903000e+00 1.845230000e-01
6310000.0 -1.117465000e+00 1.916810000e-01
6400000.0 -1.114816000e+00 2.005870000e-01
6490000.0 -1.112643000e+00 2.060680000e-01
6580000.0 -1.111302000e+00 2.129550000e-01
6670000.0 -1.107986000e+00 2.192040000e-01
6760000.0 -1.106248000e+00 2.240550000e-01
6850000.0 -1.106474000e+00 2.280690000e-01
6940000.0 -1.104837000e+00 2.322480000e-01
7030000.0 -1.103796000e+00 2.353100000e-01
7120000.0 -1.103562000e+00 2.395570000e-01
7210000.0 -1.101903000e+00 2.411130000e-01
7300000.0 -1.102206000e+00 2.408450000e-01
7390000.0 -1.102071000e+00 2.419930000e-01
7480000.0 -1.102336000e+00 2.421670000e-01
7570000.0 1.958290000e-01 1.072811000e+00
7660000.0 1.942000000e-01 1.074295000e+00
7750000.0 1.941960000e-01 1.073676000e+00
7840000.0 1.934000000e-01 1.075447000e+00
7930000.0 1.929110000e-01 1.074870000e+00
8020000.0 1.919030000e-01 1.075443000e+00
8110000.0 1.902900000e-01 1.075930000e+00
8200000.0 1.901850000e-01 1.075804000e+00
8290000.0 1.893910000e-01 1.077071000e+00
8380000.0 1.890870000e-01 1.076296000e+00
8470000.0 1.885160000e-01 1.078469000e+00
8560000.0 1.874540000e-01 1.077440000e+00
8650000.0 1.868810000e-01 1.078117000e+00
8740000.0 1.859590000e-01 1.078071000e+00
8830000.0 1.850150000e-01 1.079535000e+00
8920000.0 1.845120000e-01 1.080096000e+00
9010000.0 1.841900000e-01 1.080578000e+00
9100000.0 1.833410000e-01 1.082115000e+00
9190000.0 1.823360000e-01 1.081444000e+00
9280000.0 1.815140000e-01 1.082288000e+00
9370000.0 1.814720000e-01 1.082627000e+00
9460000.0 1.810580000e-01 1.083455000e+00
9550000.0 1.800050000e-01 1.083497000e+00
9640000.0 1.785600000e-01 1.084910000e+00
9730000.0 1.793250000e-01 1.085693000e+00
9820000.0 1.775940000e-01 1.086265000e+00
9910000.0 1.771940000e-01 1.086924000e+00
10000000.0 1.755980000e-01 1.086768000e+00
10900000.0 1.694020000e-01 1.093670000e+00
11800000.0 1.633060000e-01 1.102264000e+00
12700000.0 1.570260000e-01 1.110152000e+00
13600000.0 1.511090000e-01 1.118463000e+00
14500000.0 1.442290000e-01 1.127126000e+00
15400000.0 1.376490000e-01 1.135907000e+00
16300000.0 1.318810000e-01 1.145113000e+00
17200000.0 1.258590000e-01 1.153221000e+00
18100000.0 1.173030000e-01 1.163161000e+00
19000000.0 1.098090000e-01 1.174583000e+00
19900000.0 1.009350000e-01 1.182692000e+00
20800000.0 9.291500000e-02 1.191708000e+00
21700000.0 8.369700000e-02 1.201857000e+00
22600000.0 7.508300000e-02 1.212245000e+00
23500000.0 6.677500000e-02 1.221853000e+00
24400000.0 5.702100000e-02 1.231286000e+00
25300000.0 4.628100000e-02 1.240812000e+00
26200000.0 3.657300000e-02 1.252190000e+00
27100000.0 2.511600000e-02 1.262384000e+00
28000000.0 1.473300000e-02 1.272484000e+00
28900000.0 3.152000000e-03 1.280579000e+00
29800000.0 -9.117000000e-03 1.292055000e+00
30700000.0 -2.140500000e-02 1.300282000e+00
31600000.0 -3.463900000e-02 1.313328000e+00
32500000.0 -4.822700000e-02 1.322191000e+00
33400000.0 -6.164900000e-02 1.331958000e+00
34300000.0 -7.569900000e-02 1.341127000e+00
35200000.0 -9.157600000e-02 1.352545000e+00
36100000.0 -1.056260000e-01 1.360797000e+00
37000000.0 -1.216010000e-01 1.370188000e+00
37900000.0 -1.370150000e-01 1.379022000e+00
38800000.0 -1.544560000e-01 1.388557000e+00
39700000.0 -1.713370000e-01 1.396742000e+00
40600000.0 -1.899390000e-01 1.404652000e+00
41500000.0 -2.062810000e-01 1.412386000e+00
42400000.0 -2.235340000e-01 1.420501000e+00
43300000.0 -2.424000000e-01 1.427840000e+00
44200000.0 -2.638690000e-01 1.434937000e+00
45100000.0 -2.839070000e-01 1.443000000e+00
46000000.0 -3.019780000e-01 1.447433000e+00
46900000.0 -3.230780000e-01 1.454317000e+00
47800000.0 -3.439720000e-01 1.458576000e+00
48700000.0 -3.648620000e-01 1.463210000e+00
49600000.0 -3.864820000e-01 1.467355000e+00
50500000.0 -4.092000000e-01 1.471179000e+00
51400000.0 -4.316740000e-01 1.474415000e+00
52300000.0 -4.546770000e-01 1.476720000e+00
53200000.0 -4.780710000e-01 1.479121000e+00
54100000.0 -5.013560000e-01 1.480695000e+00
55000000.0 -5.225470000e-01 1.482575000e+00
55900000.0 -5.488890000e-01 1.481721000e+00
56800000.0 -5.713220000e-01 1.481687000e+00
57700000.0 -5.962300000e-01 1.479035000e+00
58600000.0 -6.184310000e-01 1.479497000e+00
59500000.0 -6.436120000e-01 1.474507000e+00
60400000.0 -6.681730000e-01 1.472897000e+00
61300000.0 -6.922070000e-01 1.467882000e+00
62200000.0 -7.158180000e-01 1.461212000e+00
63100000.0 -7.393150000e-01 1.456027000e+00
64000000.0 -7.650040000e-01 1.450541000e+00
64900000.0 -7.880470000e-01 1.444191000e+00
65800000.0 -8.131080000e-01 1.435945000e+00
66700000.0 -8.373450000e-01 1.428886000e+00
67600000.0 -8.592500000e-01 1.417941000e+00
68500000.0 -8.838090000e-01 1.407965000e+00
69400000.0 -9.082490000e-01 1.397346000e+00
70300000.0 -9.300120000e-01 1.386263000e+00
71200000.0 -9.522550000e-01 1.375419000e+00
72100000.0 -9.756120000e-01 1.360883000e+00
73000000.0 -9.967830000e-01 1.347262000e+00
73900000.0 -1.018766000e+00 1.336060000e+00
74800000.0 -1.041374000e+00 1.320327000e+00
75700000.0 -1.059626000e+00 1.303913000e+00
76600000.0 -1.080013000e+00 1.287393000e+00
77500000.0 -1.101248000e+00 1.272885000e+00
78400000.0 -1.120230000e+00 1.254923000e+00
79300000.0 -1.139743000e+00 1.237414000e+00
80200000.0 -1.157031000e+00 1.220663000e+00
81100000.0 -1.176090000e+00 1.199769000e+00
82000000.0 -1.191500000e+00 1.181755000e+00
82900000.0 -1.209023000e+00 1.162087000e+00
83800000.0 -1.225099000e+00 1.139805000e+00
84700000.0 -1.239468000e+00 1.122304000e+00
85600000.0 -1.255170000e+00 1.099664000e+00
86500000.0 -1.268797000e+00 1.079588000e+00
87400000.0 -1.282663000e+00 1.058194000e+00
88300000.0 -1.294314000e+00 1.035033000e+00
89200000.0 -1.306726000e+00 1.013910000e+00
90100000.0 -1.317498000e+00 9.909100000e-01
91000000.0 -1.328915000e+00 9.691420000e-01
91900000.0 -1.337502000e+00 9.459020000e-01
92800000.0 -1.346793000e+00 9.220460000e-01
93700000.0 -1.354350000e+00 8.995460000e-01
94600000.0 -1.361234000e+00 8.757630000e-01
95500000.0 -1.369365000e+00 8.532780000e-01
96400000.0 -1.373427000e+00 8.306470000e-01
97300000.0 -1.380092000e+00 8.074160000e-01
98200000.0 -1.384964000e+00 7.844770000e-01
99100000.0 -1.388664000e+00 7.606900000e-01
100000000.0 -1.389684000e+00 7.387470000e-01
109000000.0 -1.385735000e+00 5.216790000e-01
118000000.0 -1.330850000e+00 3.393130000e-01
127000000.0 -1.248893000e+00 2.001240000e-01
136000000.0 -1.134406000e+00 1.011010000e-01
145000000.0 -1.047118000e+00 2.910900000e-02
154000000.0 -1.000201000e+00 -8.080000000e-04
163000000.0 -1.002499000e+00 -3.036000000e-03
172000000.0 -1.004133000e+00 -6.521000000e-03
181000000.0 -1.005957000e+00 -7.623000000e-03
190000000.0 -1.007591000e+00 -9.844000000e-03
199000000.0 -1.009368000e+00 -1.101800000e-02
208000000.0 -1.009157000e+00 -1.102500000e-02
217000000.0 -1.010181000e+00 -1.270400000e-02
226000000.0 -1.009587000e+00 -1.233300000e-02
235000000.0 -1.010145000e+00 -1.104200000e-02
244000000.0 -1.009413000e+00 -1.052200000e-02
253000000.0 -1.008426000e+00 -9.510000000e-03
262000000.0 -1.007988000e+00 -8.089000000e-03
271000000.0 -1.006741000e+00 -7.545000000e-03
280000000.0 -1.004452000e+00 -5.002000000e-03
289000000.0 -1.003733000e+00 -2.887000000e-03
298000000.0 -9.999220000e-01 -9.130000000e-04
307000000.0 -1.001950000e+00 -9.120000000e-04
316000000.0 -1.005361000e+00 -8.660000000e-04
325000000.0 -1.006863000e+00 -1.827000000e-03
334000000.0 -1.010184000e+00 -2.276000000e-03
343000000.0 -1.012825000e+00 -3.768000000e-03
352000000.0 -9.924750000e-01 4.408400000e-02
361000000.0 -1.023374000e+00 -3.727700000e-02
370000000.0 -1.017965000e+00 -2.193600000e-02
379000000.0 -1.033097000e+00 -5.388800000e-02
388000000.0 -1.024883000e+00 -1.917400000e-02
397000000.0 -1.013926000e+00 -2.298000000e-03
406000000.0 -1.002616000e+00 3.195000000e-02
415000000.0 -1.009928000e+00 -2.689000000e-03
424000000.0 -1.009299000e+00 -3.699000000e-03
433000000.0 -1.008339000e+00 -2.468000000e-03
442000000.0 -1.004413000e+00 -4.150000000e-04
451000000.0 -1.000344000e+00 2.077000000e-03
460000000.0 -1.004003000e+00 3.070000000e-04
469000000.0 -1.007816000e+00 2.614000000e-03
478000000.0 -1.010361000e+00 2.290000000e-03
487000000.0 -1.011771000e+00 1.036000000e-03
496000000.0 -1.014476000e+00 2.597000000e-03
505000000.0 -1.016738000e+00 3.836000000e-03
514000000.0 -1.015332000e+00 3.002000000e-03
523000000.0 -1.017677000e+00 3.607000000e-03
532000000.0 -1.016882000e+00 4.336000000e-03
541000000.0 -1.014477000e+00 4.195000000e-03
550000000.0 -1.013587000e+00 2.750000000e-04
559000000.0 -1.014474000e+00 3.426000000e-03
568000000.0 -1.009544000e+00 3.286000000e-03
577000000.0 -1.010986000e+00 3.840000000e-04
586000000.0 -1.006268000e+00 1.580000000e-04
595000000.0 -1.003800000e+00 1.949000000e-03
604000000.0 -1.000366000e+00 4.130000000e-03
613000000.0 -1.003416000e+00 4.948000000e-03
622000000.0 -1.005595000e+00 6.133000000e-03
631000000.0 -1.007583000e+00 8.536000000e-03
640000000.0 -1.009121000e+00 8.215000000e-03
649000000.0 -1.009586000e+00 1.043600000e-02
658000000.0 -1.012388000e+00 1.078600000e-02
667000000.0 -1.010736000e+00 1.122100000e-02
676000000.0 -1.013588000e+00 1.350600000e-02
685000000.0 -1.010113000e+00 1.306100000e-02
694000000.0 -1.012699000e+00 1.157000000e-02
703000000.0 -1.010153000e+00 8.142000000e-03
712000000.0 -1.005521000e+00 9.035000000e-03
721000000.0 -1.004646000e+00 8.558000000e-03
730000000.0 -1.002880000e+00 6.525000000e-03
739000000.0 -1.000206000e+00 5.023000000e-03
748000000.0 -1.000507000e+00 1.864000000e-03
757000000.0 -9.972900000e-01 8.700000000e-04
766000000.0 -9.983040000e-01 5.764000000e-03
775000000.0 -9.966280000e-01 7.502000000e-03
784000000.0 -1.001950000e+00 -1.163300000e-02
793000000.0 -9.989430000e-01 6.097000000e-03
802000000.0 -9.969950000e-01 2.928400000e-02
811000000.0 -9.959140000e-01 1.022600000e-02
820000000.0 -1.000221000e+00 -1.368500000e-02
829000000.0 -9.969050000e-01 6.092000000e-03
838000000.0 -9.960900000e-01 2.386600000e-02
847000000.0 -9.962760000e-01 7.273000000e-03
856000000.0 -1.001394000e+00 -1.668200000e-02
865000000.0 -1.000539000e+00 2.810000000e-04
874000000.0 -9.994920000e-01 1.777000000e-03
883000000.0 -9.977350000e-01 4.934000000e-03
892000000.0 -1.000930000e+00 -6.390000000e-04
901000000.0 -1.003715000e+00 -6.256000000e-03
910000000.0 -1.001535000e+00 -7.670000000e-03
919000000.0 -9.999730000e-01 -1.418000000e-03
928000000.0 -1.000035000e+00 -3.224000000e-03
937000000.0 -1.000553000e+00 -2.707000000e-03
946000000.0 -1.000188000e+00 -5.122000000e-03
955000000.0 -1.003000000e+00 -7.792000000e-03
964000000.0 -1.002838000e+00 -6.513000000e-03
973000000.0 -1.000364000e+00 -1.133000000e-02
982000000.0 -1.002531000e+00 -1.370300000e-02
991000000.0 -9.994580000e-01 -5.468000000e-03
1000000000.0 -1.002730000e+00 -7.513000000e-03
1004500000.0 -1.001944000e+00 -9.171000000e-03
1009000000.0 -1.003505000e+00 -8.343000000e-03
1013500000.0 -1.004686000e+00 -1.015600000e-02
1018000000.0 -1.001238000e+00 -4.881000000e-03
1022500000.0 -1.001468000e+00 -6.668000000e-03
1027000000.0 -1.004259000e+00 -6.476000000e-03
1031500000.0 -9.990750000e-01 -4.733000000e-03
1036000000.0 -1.000989000e+00 -7.896000000e-03
1040500000.0 -9.997190000e-01 -4.062000000e-03
1045000000.0 -9.986340000e-01 -8.840000000e-04
1049500000.0 -1.003908000e+00 -1.867600000e-02
1054000000.0 -1.004476000e+00 -2.944000000e-03
1058500000.0 -9.958160000e-01 1.263800000e-02
1063000000.0 -1.001795000e+00 -1.568000000e-03
1067500000.0 -1.003866000e+00 -2.794100000e-02
1072000000.0 -1.006215000e+00 -7.284000000e-03
1076500000.0 -1.001829000e+00 4.163000000e-03
1081000000.0 -1.003833000e+00 -1.257400000e-02
1085500000.0 -1.012113000e+00 -2.622800000e-02
1090000000.0 -1.008081000e+00 -9.575000000e-03
1094500000.0 -1.003243000e+00 1.143700000e-02
1099000000.0 -1.005339000e+00 -8.053000000e-03
1103500000.0 -1.008978000e+00 -1.073300000e-02
1108000000.0 -1.007506000e+00 -4.387000000e-03
1112500000.0 -1.007079000e+00 -1.360400000e-02
1117000000.0 -1.002113000e+00 -9.159000000e-03
1121500000.0 -1.003276000e+00 -9.154000000e-03
1126000000.0 -1.015259000e+00 -2.108700000e-02
1130500000.0 -1.007330000e+00 4.672000000e-03
1135000000.0 -1.006728000e+00 -1.197700000e-02
1139500000.0 -1.005292000e+00 -7.189000000e-03
1144000000.0 -1.008103000e+00 -1.326600000e-02
1148500000.0 -1.002310000e+00 -3.141000000e-03
1153000000.0 -1.008980000e+00 -3.516000000e-03
1157500000.0 -9.991130000e-01 -1.176000000e-02
1162000000.0 -1.003526000e+00 -3.341000000e-03
1166500000.0 -1.005268000e+00 -5.421000000e-03
1171000000.0 -9.986090000e-01 -4.036000000e-03
1175500000.0 -1.001675000e+00 -4.715000000e-03
1180000000.0 -1.000675000e+00 -8.258000000e-03
1184500000.0 -9.955620000e-01 -5.760000000e-04
1189000000.0 -9.978840000e-01 -4.937000000e-03
1193500000.0 -9.914500000e-01 2.170000000e-03
1198000000.0 -1.000037000e+00 -3.826000000e-03
1202500000.0 -1.001788000e+00 -7.659000000e-03
1207000000.0 -9.982430000e-01 -6.043000000e-03
1211500000.0 -9.997390000e-01 -3.750000000e-04
1216000000.0 -9.983380000e-01 -1.441500000e-02
1220500000.0 -9.993190000e-01 -1.329000000e-03
1225000000.0 -1.003613000e+00 -4.035000000e-03
1229500000.0 -9.969590000e-01 -3.190000000e-03
1234000000.0 -1.005424000e+00 -4.162000000e-03
1238500000.0 -1.002773000e+00 -8.726000000e-03
1243000000.0 -9.994390000e-01 -5.295000000e-03
1247500000.0 -1.003632000e+00 -6.615000000e-03
1252000000.0 -1.007506000e+00 -7.086000000e-03
1256500000.0 -1.006098000e+00 -8.241000000e-03
1261000000.0 -1.007544000e+00 -1.492600000e-02
1265500000.0 -1.007224000e+00 -1.178300000e-02
1270000000.0 -1.005550000e+00 -8.552000000e-03
1274500000.0 -1.011835000e+00 -1.240800000e-02
1279000000.0 -1.001778000e+00 -3.023000000e-03
1283500000.0 -1.008074000e+00 -8.027000000e-03
1288000000.0 -1.007878000e+00 -2.370000000e-04
1292500000.0 -1.001610000e+00 7.100000000e-05
1297000000.0 -1.010119000e+00 -1.056100000e-02
1301500000.0 -1.003701000e+00 -1.378200000e-02
1306000000.0 -1.004508000e+00 -4.164000000e-03
1310500000.0 -1.003247000e+00 -8.798000000e-03
1315000000.0 -1.003266000e+00 -9.952000000e-03
1319500000.0 -1.005413000e+00 7.840000000e-04
1324000000.0 -1.000625000e+00 -5.748000000e-03
1328500000.0 -9.949700000e-01 -2.792000000e-03
1333000000.0 -9.871390000e-01 -8.218000000e-03
1337500000.0 -9.925900000e-01 -5.673000000e-03
1342000000.0 -9.950980000e-01 -3.648000000e-03
1346500000.0 -9.943630000e-01 -2.630000000e-04
1351000000.0 -9.924290000e-01 -2.558000000e-03
1355500000.0 -9.909560000e-01 6.330000000e-04
1360000000.0 -9.996500000e-01 -1.118000000e-03
1364500000.0 -9.932100000e-01 -9.843000000e-03
1369000000.0 -9.944730000e-01 -3.083000000e-03
1373500000.0 -9.980020000e-01 1.970000000e-03
1378000000.0 -9.998480000e-01 -4.919000000e-03
1382500000.0 -1.005387000e+00 -1.078200000e-02
1387000000.0 -9.947730000e-01 1.280000000e-03
1391500000.0 -1.006882000e+00 2.472000000e-03
1396000000.0 -1.001282000e+00 2.664000000e-03
1400500000.0 -1.004414000e+00 1.579000000e-03
1405000000.0 -1.006250000e+00 -9.230000000e-04
1409500000.0 -1.011134000e+00 -3.807000000e-03
1414000000.0 -1.003648000e+00 -6.607000000e-03
1418500000.0 -1.010817000e+00 -7.064000000e-03
1423000000.0 -1.015148000e+00 -2.500000000e-03
1427500000.0 -1.007888000e+00 3.041000000e-03
1432000000.0 -1.012088000e+00 -1.283200000e-02
1436500000.0 -1.007842000e+00 -3.959000000e-03
1441000000.0 -1.009712000e+00 -1.898000000e-03
1445500000.0 -1.010851000e+00 -2.126000000e-03
1450000000.0 -1.010348000e+00 -4.987000000e-03
