! piloto_deriva / corto_deriva / r23
# HZ S RI R 50
50000.0 -9.959980000e-01 -3.715200000e-02
59500.0 -9.979420000e-01 -1.732300000e-02
69000.0 -9.985680000e-01 -5.823000000e-03
78500.0 -9.988210000e-01 -1.351000000e-03
88000.0 -9.994730000e-01 6.380000000e-04
97500.0 -1.000239000e+00 -2.320000000e-04
107000.0 -9.996510000e-01 -2.467000000e-03
116500.0 -1.000762000e+00 -6.821000000e-03
126000.0 -9.997940000e-01 -1.036700000e-02
135500.0 -9.987310000e-01 -1.636300000e-02
145000.0 -9.999120000e-01 -2.236500000e-02
154500.0 -9.989590000e-01 -2.881900000e-02
164000.0 -1.000091000e+00 -3.610200000e-02
173500.0 -9.997430000e-01 -4.398600000e-02
183000.0 -1.000023000e+00 -5.243200000e-02
192500.0 -1.000808000e+00 -5.885500000e-02
202000.0 -1.001098000e+00 -6.867000000e-02
211500.0 -1.000464000e+00 -7.688100000e-02
221000.0 -9.999480000e-01 -8.647100000e-02
230500.0 -1.000685000e+00 -9.500000000e-02
240000.0 -1.001033000e+00 -1.035510000e-01
249500.0 -1.000580000e+00 -1.130730000e-01
259000.0 -1.074228000e+00 -2.381800000e-01
268500.0 -1.001619000e+00 -1.313620000e-01
278000.0 -1.002444000e+00 -1.407370000e-01
287500.0 -1.001489000e+00 -1.497560000e-01
297000.0 -1.002352000e+00 -1.592920000e-01
306500.0 -1.002209000e+00 -1.684080000e-01
316000.0 -1.002494000e+00 -1.782720000e-01
325500.0 -1.002218000e+00 -1.873760000e-01
335000.0 -1.002950000e+00 -1.965070000e-01
344500.0 -1.003098000e+00 -2.055330000e-01
354000.0 -1.003300000e+00 -2.147910000e-01
363500.0 -1.003635000e+00 -2.246240000e-01
373000.0 -1.004199000e+00 -2.333860000e-01
382500.0 -1.004763000e+00 -2.434570000e-01
392000.0 -1.004372000e+00 -2.526010000e-01
401500.0 -1.004485000e+00 -2.612590000e-01
411000.0 -1.004975000e+00 -2.707040000e-01
420500.0 -1.004799000e+00 -2.804400000e-01
430000.0 -1.005034000e+00 -2.901470000e-01
439500.0 -1.005289000e+00 -2.995690000e-01
449000.0 -1.004884000e+00 -3.074340000e-01
458500.0 -1.006042000e+00 -3.171270000e-01
468000.0 -1.006827000e+00 -3.270870000e-01
477500.0 -1.006361000e+00 -3.361960000e-01
487000.0 -1.005826000e+00 -3.461740000e-01
496500.0 -1.006545000e+00 -3.550730000e-01
506000.0 -1.008116000e+00 -3.636720000e-01
515500.0 -1.007420000e+00 -3.741170000e-01
525000.0 -1.006821000e+00 -3.823590000e-01
534500.0 -1.008269000e+00 -3.920230000e-01
544000.0 -1.008118000e+00 -4.007420000e-01
553500.0 -1.008472000e+00 -4.099320000e-01
563000.0 -1.008564000e+00 -4.198570000e-01
572500.0 -1.010967000e+00 -4.292470000e-01
582000.0 -1.008644000e+00 -4.385530000e-01
591500.0 -1.009897000e+00 -4.466510000e-01
601000.0 -1.010141000e+00 -4.558450000e-01
610500.0 -1.011161000e+00 -4.647670000e-01
620000.0 -1.012185000e+00 -4.729150000e-01
629500.0 -1.012000000e+00 -4.836220000e-01
639000.0 -1.012658000e+00 -4.922140000e-01
648500.0 -1.013597000e+00 -5.007100000e-01
658000.0 -1.014734000e+00 -5.108780000e-01
667500.0 -1.014662000e+00 -5.201960000e-01
677000.0 -1.015490000e+00 -5.271920000e-01
686500.0 -1.016125000e+00 -5.370560000e-01
696000.0 -1.016654000e+00 -5.467610000e-01
705500.0 -1.018063000e+00 -5.557090000e-01
715000.0 -1.018936000e+00 -5.641570000e-01
724500.0 -1.020696000e+00 -5.725000000e-01
734000.0 -1.020409000e+00 -5.823740000e-01
743500.0 -1.021971000e+00 -5.922470000e-01
753000.0 -1.022648000e+00 -6.010420000e-01
762500.0 -1.023850000e+00 -6.085010000e-01
772000.0 -1.024001000e+00 -6.187250000e-01
781500.0 -1.024272000e+00 -6.269880000e-01
791000.0 -1.026531000e+00 -6.353740000e-01
800500.0 -1.027239000e+00 -6.451080000e-01
810000.0 -1.030145000e+00 -6.521970000e-01
819500.0 -1.030621000e+00 -6.620240000e-01
829000.0 -1.032589000e+00 -6.709110000e-01
838500.0 -1.032284000e+00 -6.802350000e-01
848000.0 -1.034111000e+00 -6.877370000e-01
857500.0 -1.036570000e+00 -6.966300000e-01
867000.0 -1.037161000e+00 -7.053120000e-01
876500.0 -1.039220000e+00 -7.134570000e-01
886000.0 -1.040745000e+00 -7.215860000e-01
895500.0 -1.043294000e+00 -7.310060000e-01
905000.0 -1.045107000e+00 -7.410650000e-01
914500.0 -1.046797000e+00 -7.480370000e-01
924000.0 -1.036672000e+00 -7.784510000e-01
933500.0 -1.063486000e+00 -7.453240000e-01
943000.0 -1.040672000e+00 -7.940770000e-01
952500.0 -1.068295000e+00 -7.617250000e-01
962000.0 -1.044463000e+00 -8.130830000e-01
971500.0 -1.072925000e+00 -7.800980000e-01
981000.0 -1.062402000e+00 -8.093680000e-01
990500.0 -1.064264000e+00 -8.175310000e-01
1000000.0 -1.066745000e+00 -8.255200000e-01
1090000.0 -1.097738000e+00 -9.030140000e-01
1180000.0 -1.133865000e+00 -9.764950000e-01
1270000.0 -1.181744000e+00 -1.044138000e+00
1360000.0 -1.240890000e+00 -1.105796000e+00
1450000.0 -1.307077000e+00 -1.154051000e+00
1540000.0 -1.384324000e+00 -1.193191000e+00
1630000.0 -1.471400000e+00 -1.211708000e+00
1720000.0 -1.557722000e+00 -1.209233000e+00
1810000.0 -1.650913000e+00 -1.190818000e+00
1900000.0 -1.701075000e+00 -1.165710000e+00
1990000.0 -1.782504000e+00 -1.154936000e+00
2080000.0 -1.838720000e+00 -1.076808000e+00
2170000.0 -1.888723000e+00 -9.269330000e-01
2260000.0 -1.917353000e+00 -8.223490000e-01
2350000.0 -1.915810000e+00 -7.294110000e-01
2440000.0 -1.901537000e+00 -6.447260000e-01
2530000.0 -1.873125000e+00 -5.674060000e-01
2620000.0 -1.839476000e+00 -4.971870000e-01
2710000.0 -1.801135000e+00 -4.365360000e-01
2800000.0 -1.759985000e+00 -3.886490000e-01
2890000.0 -1.713800000e+00 -3.420910000e-01
2980000.0 -1.674130000e+00 -3.021010000e-01
3070000.0 -1.632964000e+00 -2.695580000e-01
3160000.0 -1.595381000e+00 -2.403740000e-01
3250000.0 -1.557896000e+00 -2.166510000e-01
3340000.0 -1.521210000e+00 -1.930710000e-01
3430000.0 -1.488380000e+00 -1.727810000e-01
3520000.0 -1.457949000e+00 -1.543550000e-01
3610000.0 -1.429627000e+00 -1.362400000e-01
3700000.0 -1.403080000e+00 -1.218450000e-01
3790000.0 -1.376874000e+00 -1.071230000e-01
3880000.0 -1.354410000e+00 -9.340100000e-02
3970000.0 -1.333872000e+00 -7.912200000e-02
4060000.0 -1.314070000e+00 -6.673000000e-02
4150000.0 -1.295723000e+00 -5.392400000e-02
4240000.0 -1.277824000e+00 -4.373400000e-02
4330000.0 -1.264287000e+00 -3.069900000e-02
4420000.0 -1.249483000e+00 -1.899800000e-02
4510000.0 -1.235553000e+00 -9.001000000e-03
4600000.0 -1.224209000e+00 3.073000000e-03
4690000.0 -1.213052000e+00 1.631700000e-02
4780000.0 -1.203873000e+00 2.584400000e-02
4870000.0 -1.195047000e+00 3.644100000e-02
4960000.0 -1.187510000e+00 4.763000000e-02
5050000.0 -1.173214000e+00 5.966500000e-02
5140000.0 -1.167872000e+00 6.898400000e-02
5230000.0 -1.161991000e+00 8.156200000e-02
5320000.0 -1.157900000e+00 9.117900000e-02
5410000.0 -1.151565000e+00 1.013260000e-01
5500000.0 -1.147455000e+00 1.113640000e-01
5590000.0 -1.142645000e+00 1.206740000e-01
5680000.0 -1.138850000e+00 1.319180000e-01
5770000.0 -1.136972000e+00 1.406270000e-01
5860000.0 -1.132472000e+00 1.505240000e-01
5950000.0 -1.129108000e+00 1.597250000e-01
6040000.0 -1.125601000e+00 1.679300000e-01
6130000.0 -1.123933000e+00 1.760640000e-01
6220000.0 -1.119982000e+00 1.856930000e-01
6310000.0 -1.116394000e+00 1.920390000e-01
6400000.0 -1.114047000e+00 1.993430000e-01
6490000.0 -1.111942000e+00 2.070410000e-01
6580000.0 -1.110738000e+00 2.134540000e-01
6670000.0 -1.109639000e+00 2.178300000e-01
6760000.0 -1.107520000e+00 2.235880000e-01
6850000.0 -1.106062000e+00 2.282870000e-01
6940000.0 -1.105446000e+00 2.324540000e-01
7030000.0 -1.104249000e+00 2.358670000e-01
7120000.0 -1.103555000e+00 2.388840000e-01
7210000.0 -1.102525000e+00 2.406560000e-01
7300000.0 -1.103437000e+00 2.419840000e-01
7390000.0 -1.102371000e+00 2.417980000e-01
7480000.0 -1.102667000e+00 2.416670000e-01
7570000.0 1.962730000e-01 1.074155000e+00
7660000.0 1.947820000e-01 1.074253000e+00
7750000.0 1.939790000e-01 1.074429000e+00
7840000.0 1.939360000e-01 1.073777000e+00
7930000.0 1.922790000e-01 1.075554000e+00
8020000.0 1.920570000e-01 1.075250000e+00
8110000.0 1.908560000e-01 1.076163000e+00
8200000.0 1.899510000e-01 1.075366000e+00
8290000.0 1.905490000e-01 1.077303000e+00
8380000.0 1.890940000e-01 1.076559000e+00
8470000.0 1.881030000e-01 1.078155000e+00
8560000.0 1.871370000e-01 1.077378000e+00
8650000.0 1.866380000e-01 1.078440000e+00
8740000.0 1.857830000e-01 1.079628000e+00
8830000.0 1.848300000e-01 1.079278000e+00
8920000.0 1.839580000e-01 1.080324000e+00
9010000.0 1.834010000e-01 1.082042000e+00
9100000.0 1.827800000e-01 1.080999000e+00
9190000.0 1.821770000e-01 1.081645000e+00
9280000.0 1.815570000e-01 1.082177000e+00
9370000.0 1.821900000e-01 1.082948000e+00
9460000.0 1.799110000e-01 1.084837000e+00
9550000.0 1.799860000e-01 1.083523000e+00
9640000.0 1.794540000e-01 1.084898000e+00
9730000.0 1.780510000e-01 1.085066000e+00
9820000.0 1.776730000e-01 1.086021000e+00
9910000.0 1.773890000e-01 1.086840000e+00
10000000.0 1.770730000e-01 1.087580000e+00
10900000.0 1.699650000e-01 1.094556000e+00
11800000.0 1.631580000e-01 1.101824000e+00
12700000.0 1.575750000e-01 1.109905000e+00
13600000.0 1.513530000e-01 1.117115000e+00
14500000.0 1.443540000e-01 1.127513000e+00
15400000.0 1.385300000e-01 1.136049000e+00
16300000.0 1.324590000e-01 1.145669000e+00
17200000.0 1.234250000e-01 1.153523000e+00
18100000.0 1.160930000e-01 1.163757000e+00
19000000.0 1.096620000e-01 1.173248000e+00
19900000.0 1.013440000e-01 1.182698000e+00
20800000.0 9.324200000e-02 1.192035000e+00
21700000.0 8.493800000e-02 1.202942000e+00
22600000.0 7.610800000e-02 1.211682000e+00
23500000.0 6.647600000e-02 1.221668000e+00
24400000.0 5.621500000e-02 1.231522000e+00
25300000.0 4.743200000e-02 1.241283000e+00
26200000.0 3.518400000e-02 1.252002000e+00
27100000.0 2.570900000e-02 1.261223000e+00
28000000.0 1.432300000e-02 1.271856000e+00
28900000.0 2.298000000e-03 1.281649000e+00
29800000.0 -8.696000000e-03 1.292754000e+00
30700000.0 -2.172500000e-02 1.302750000e+00
31600000.0 -3.432200000e-02 1.312707000e+00
32500000.0 -4.805900000e-02 1.322369000e+00
33400000.0 -6.207000000e-02 1.332375000e+00
34300000.0 -7.623100000e-02 1.341830000e+00
35200000.0 -9.093600000e-02 1.351308000e+00
36100000.0 -1.057140000e-01 1.360610000e+00
37000000.0 -1.222610000e-01 1.370613000e+00
37900000.0 -1.374150000e-01 1.379893000e+00
38800000.0 -1.535240000e-01 1.388933000e+00
39700000.0 -1.702020000e-01 1.396947000e+00
40600000.0 -1.889860000e-01 1.404445000e+00
41500000.0 -2.071910000e-01 1.414086000e+00
42400000.0 -2.244600000e-01 1.419836000e+00
43300000.0 -2.434450000e-01 1.428115000e+00
44200000.0 -2.626250000e-01 1.434430000e+00
45100000.0 -2.828120000e-01 1.441447000e+00
46000000.0 -3.030970000e-01 1.447793000e+00
46900000.0 -3.228860000e-01 1.453908000e+00
47800000.0 -3.435290000e-01 1.458854000e+00
48700000.0 -3.656930000e-01 1.463486000e+00
49600000.0 -3.866090000e-01 1.469704000e+00
50500000.0 -4.093760000e-01 1.471642000e+00
51400000.0 -4.318490000e-01 1.474023000e+00
52300000.0 -4.547180000e-01 1.478090000e+00
53200000.0 -4.767850000e-01 1.479297000e+00
54100000.0 -4.999680000e-01 1.480120000e+00
55000000.0 -5.229950000e-01 1.482151000e+00
55900000.0 -5.463220000e-01 1.481258000e+00
56800000.0 -5.715190000e-01 1.481058000e+00
57700000.0 -5.940470000e-01 1.479712000e+00
58600000.0 -6.183180000e-01 1.476994000e+00
59500000.0 -6.426650000e-01 1.476271000e+00
60400000.0 -6.680790000e-01 1.471448000e+00
61300000.0 -6.901620000e-01 1.466358000e+00
62200000.0 -7.164850000e-01 1.461898000e+00
63100000.0 -7.399540000e-01 1.456292000e+00
64000000.0 -7.634520000e-01 1.450750000e+00
64900000.0 -7.884490000e-01 1.443676000e+00
65800000.0 -8.126710000e-01 1.435930000e+00
66700000.0 -8.369440000e-01 1.426851000e+00
67600000.0 -8.614190000e-01 1.418934000e+00
68500000.0 -8.835820000e-01 1.408711000e+00
69400000.0 -9.066240000e-01 1.397633000e+00
70300000.0 -9.287460000e-01 1.385853000e+00
71200000.0 -9.513220000e-01 1.374884000e+00
72100000.0 -9.753560000e-01 1.361768000e+00
73000000.0 -9.974270000e-01 1.349243000e+00
73900000.0 -1.018861000e+00 1.334669000e+00
74800000.0 -1.038998000e+00 1.319734000e+00
75700000.0 -1.060259000e+00 1.304689000e+00
76600000.0 -1.080261000e+00 1.288951000e+00
77500000.0 -1.101330000e+00 1.272824000e+00
78400000.0 -1.119869000e+00 1.255705000e+00
79300000.0 -1.139013000e+00 1.238661000e+00
80200000.0 -1.157052000e+00 1.220482000e+00
81100000.0 -1.174076000e+00 1.201534000e+00
82000000.0 -1.195165000e+00 1.180978000e+00
82900000.0 -1.209404000e+00 1.162572000e+00
83800000.0 -1.224284000e+00 1.142130000e+00
84700000.0 -1.239733000e+00 1.120549000e+00
85600000.0 -1.254914000e+00 1.100106000e+00
86500000.0 -1.268207000e+00 1.079207000e+00
87400000.0 -1.283720000e+00 1.057032000e+00
88300000.0 -1.295643000e+00 1.034833000e+00
89200000.0 -1.308659000e+00 1.013755000e+00
90100000.0 -1.319208000e+00 9.913770000e-01
91000000.0 -1.328137000e+00 9.701490000e-01
91900000.0 -1.337634000e+00 9.465630000e-01
92800000.0 -1.347922000e+00 9.235660000e-01
93700000.0 -1.354694000e+00 8.999000000e-01
94600000.0 -1.362189000e+00 8.769300000e-01
95500000.0 -1.367737000e+00 8.532910000e-01
96400000.0 -1.373497000e+00 8.299720000e-01
97300000.0 -1.379509000e+00 8.059740000e-01
98200000.0 -1.383463000e+00 7.828020000e-01
99100000.0 -1.386483000e+00 7.610270000e-01
100000000.0 -1.391234000e+00 7.386530000e-01
109000000.0 -1.385496000e+00 5.208320000e-01
118000000.0 -1.331230000e+00 3.396170000e-01
127000000.0 -1.252012000e+00 2.000040000e-01
136000000.0 -1.134904000e+00 1.013530000e-01
145000000.0 -1.046282000e+00 2.865800000e-02
154000000.0 -1.000101000e+00 -7.120000000e-04
163000000.0 -1.002900000e+00 -4.101000000e-03
172000000.0 -1.003863000e+00 -6.236000000e-03
181000000.0 -1.005797000e+00 -8.146000000e-03
190000000.0 -1.008059000e+00 -8.395000000e-03
199000000.0 -1.009014000e+00 -1.091800000e-02
208000000.0 -1.009156000e+00 -1.193000000e-02
217000000.0 -1.010664000e+00 -1.214200000e-02
226000000.0 -1.009198000e+00 -1.121800000e-02
235000000.0 -1.010076000e+00 -1.235000000e-02
244000000.0 -1.009544000e+00 -1.037500000e-02
253000000.0 -1.009087000e+00 -9.680000000e-03
262000000.0 -1.007862000e+00 -9.790000000e-03
271000000.0 -1.006213000e+00 -5.986000000e-03
280000000.0 -1.004214000e+00 -5.721000000e-03
289000000.0 -1.003293000e+00 -2.008000000e-03
298000000.0 -9.994910000e-01 1.730000000e-04
307000000.0 -1.001987000e+00 -1.000000000e-03
316000000.0 -1.004719000e+00 -1.013000000e-03
325000000.0 -1.006465000e+00 -2.072000000e-03
334000000.0 -1.011316000e+00 -3.530000000e-03
343000000.0 -1.014103000e+00 -4.948000000e-03
352000000.0 -1.013953000e+00 -3.496000000e-03
361000000.0 -1.013127000e+00 -2.587000000e-03
370000000.0 -1.015053000e+00 -4.157000000e-03
379000000.0 -1.022988000e+00 -3.922900000e-02
388000000.0 -1.014155000e+00 -6.307000000e-03
397000000.0 -1.003744000e+00 2.953200000e-02
406000000.0 -1.012062000e+00 -3.427000000e-03
415000000.0 -1.019101000e+00 -3.712300000e-02
424000000.0 -1.008571000e+00 -2.082000000e-03
433000000.0 -1.004867000e+00 1.447100000e-02
442000000.0 -1.003841000e+00 -5.600000000e-04
451000000.0 -1.000841000e+00 -1.700000000e-05
460000000.0 -1.004280000e+00 -6.070000000e-04
469000000.0 -1.007832000e+00 1.463000000e-03
478000000.0 -1.009568000e+00 7.790000000e-04
487000000.0 -1.012688000e+00 2.570000000e-03
496000000.0 -1.014048000e+00 3.342000000e-03
505000000.0 -1.015723000e+00 2.122000000e-03
514000000.0 -1.015596000e+00 4.131000000e-03
523000000.0 -1.018108000e+00 2.708000000e-03
532000000.0 -1.016870000e+00 1.171000000e-03
541000000.0 -1.017909000e+00 4.002000000e-03
550000000.0 -1.015275000e+00 6.720000000e-04
559000000.0 -1.010102000e+00 1.863000000e-02
568000000.0 -1.011311000e+00 7.267000000e-03
577000000.0 -1.009410000e+00 2.358000000e-03
586000000.0 -1.005283000e+00 3.979000000e-03
595000000.0 -1.002687000e+00 2.090000000e-04
604000000.0 -9.991720000e-01 2.396000000e-03
613000000.0 -1.007078000e+00 -1.209200000e-02
622000000.0 -1.009173000e+00 7.326000000e-03
631000000.0 -1.007464000e+00 2.695500000e-02
640000000.0 -1.009976000e+00 9.877000000e-03
649000000.0 -1.011131000e+00 -5.990000000e-03
658000000.0 -1.011887000e+00 9.401000000e-03
667000000.0 -1.006721000e+00 2.783400000e-02
676000000.0 -1.013995000e+00 1.355900000e-02
685000000.0 -1.010451000e+00 1.095300000e-02
694000000.0 -1.009567000e+00 1.661600000e-02
703000000.0 -1.011053000e+00 1.435100000e-02
712000000.0 -1.001253000e+00 7.692000000e-03
721000000.0 -1.008658000e+00 9.621000000e-03
730000000.0 -1.003539000e+00 6.433000000e-03
739000000.0 -1.000439000e+00 2.204000000e-03
748000000.0 -9.991210000e-01 -5.950000000e-04
757000000.0 -1.000630000e+00 1.708000000e-03
766000000.0 -1.001742000e+00 -7.720000000e-04
775000000.0 -1.000463000e+00 7.037000000e-03
784000000.0 -9.973640000e-01 6.232000000e-03
793000000.0 -9.994680000e-01 5.898000000e-03
802000000.0 -9.997890000e-01 7.788000000e-03
811000000.0 -9.999000000e-01 1.339600000e-02
820000000.0 -9.991750000e-01 6.029000000e-03
829000000.0 -9.998260000e-01 8.777000000e-03
838000000.0 -9.999850000e-01 7.230000000e-03
847000000.0 -9.977340000e-01 4.510000000e-03
856000000.0 -9.961960000e-01 6.259000000e-03
865000000.0 -9.971020000e-01 -1.642000000e-03
874000000.0 -9.984850000e-01 -1.850000000e-04
883000000.0 -9.991870000e-01 2.300000000e-05
892000000.0 -9.979190000e-01 5.469000000e-03
901000000.0 -1.003576000e+00 -3.141000000e-03
910000000.0 -9.966800000e-01 -2.035000000e-03
919000000.0 -1.000072000e+00 -6.932000000e-03
928000000.0 -1.001913000e+00 -5.737000000e-03
937000000.0 -9.995960000e-01 -4.442000000e-03
946000000.0 -1.000815000e+00 -6.550000000e-03
955000000.0 -1.003991000e+00 -5.975000000e-03
964000000.0 -1.001551000e+00 -5.802000000e-03
973000000.0 -1.001271000e+00 -7.556000000e-03
982000000.0 -1.000398000e+00 -4.979000000e-03
991000000.0 -9.990750000e-01 -1.613000000e-03
1000000000.0 -1.002184000e+00 -7.750000000e-03
1004500000.0 -1.001344000e+00 -1.220800000e-02
1009000000.0 -1.002637000e+00 -6.935000000e-03
1013500000.0 -1.000254000e+00 -7.509000000e-03
1018000000.0 -1.001713000e+00 -6.133000000e-03
1022500000.0 -1.002395000e+00 -5.703000000e-03
1027000000.0 -1.001472000e+00 -6.328000000e-03
1031500000.0 -9.995040000e-01 -7.862000000e-03
1036000000.0 -1.000232000e+00 -5.542000000e-03
1040500000.0 -1.002438000e+00 -8.245000000e-03
1045000000.0 -1.000016000e+00 -5.730000000e-03
1049500000.0 -1.000118000e+00 -9.126000000e-03
1054000000.0 -9.991370000e-01 -4.370000000e-04
1058500000.0 -1.005065000e+00 -1.089800000e-02
1063000000.0 -1.000321000e+00 -5.417000000e-03
1067500000.0 -1.006291000e+00 -7.904000000e-03
1072000000.0 -1.003962000e+00 -1.157300000e-02
1076500000.0 -1.005259000e+00 -5.102000000e-03
1081000000.0 -1.002654000e+00 -7.438000000e-03
1085500000.0 -1.003835000e+00 -1.074800000e-02
1090000000.0 -1.008814000e+00 -1.150200000e-02
1094500000.0 -1.006515000e+00 -6.422000000e-03
1099000000.0 -1.006652000e+00 -1.243700000e-02
1103500000.0 -1.007406000e+00 -1.834500000e-02
1108000000.0 -1.009925000e+00 -1.145400000e-02
1112500000.0 -1.006030000e+00 -8.181000000e-03
1117000000.0 -1.004258000e+00 -8.608000000e-03
1121500000.0 -1.008392000e+00 -4.616000000e-03
1126000000.0 -1.007827000e+00 -1.201400000e-02
1130500000.0 -1.011349000e+00 -8.836000000e-03
1135000000.0 -1.008061000e+00 -8.502000000e-03
1139500000.0 -1.006339000e+00 -1.026500000e-02
1144000000.0 -1.003036000e+00 -1.009200000e-02
1148500000.0 -1.001231000e+00 -1.156600000e-02
1153000000.0 -1.001477000e+00 -2.852000000e-03
1157500000.0 -1.007808000e+00 -1.503300000e-02
1162000000.0 -1.007165000e+00 -1.106300000e-02
1166500000.0 -1.002121000e+00 -6.700000000e-03
1171000000.0 -1.002467000e+00 -4.841000000e-03
1175500000.0 -9.985210000e-01 2.660000000e-04
1180000000.0 -1.000964000e+00 -9.825000000e-03
1184500000.0 -9.952410000e-01 -4.790000000e-03
1189000000.0 -1.002124000e+00 -3.766000000e-03
1193500000.0 -9.971700000e-01 -7.864000000e-03
1198000000.0 -9.979090000e-01 -2.276200000e-02
1202500000.0 -1.003296000e+00 -3.889000000e-03
1207000000.0 -9.981380000e-01 -4.146000000e-03
1211500000.0 -9.753340000e-01 6.609300000e-02
1216000000.0 -9.985970000e-01 2.005000000e-03
1220500000.0 -9.777300000e-01 6.026100000e-02
1225000000.0 -9.925060000e-01 3.342000000e-02
1229500000.0 -1.010262000e+00 -5.261000000e-03
1234000000.0 -1.002530000e+00 -9.306000000e-03
1238500000.0 -9.975340000e-01 -5.821000000e-03
1243000000.0 -1.008941000e+00 -3.309000000e-03
1247500000.0 -1.003579000e+00 -1.325600000e-02
1252000000.0 -1.008274000e+00 -1.060900000e-02
1256500000.0 -1.000086000e+00 -2.397000000e-03
1261000000.0 -1.007538000e+00 5.370000000e-04
1265500000.0 -1.003825000e+00 -7.152000000e-03
1270000000.0 -1.006094000e+00 -4.279000000e-03
1274500000.0 -1.008423000e+00 -7.685000000e-03
1279000000.0 -1.010638000e+00 -3.889000000e-03
1283500000.0 -1.005963000e+00 -8.330000000e-04
1288000000.0 -1.004015000e+00 -1.479400000e-02
1292500000.0 -1.009009000e+00 -1.290000000e-02
1297000000.0 -1.008155000e+00 -7.881000000e-03
1301500000.0 -1.007081000e+00 -5.262000000e-03
1306000000.0 -1.004204000e+00 -1.157300000e-02
1310500000.0 -9.944330000e-01 -6.872000000e-03
1315000000.0 -1.001150000e+00 -2.871000000e-03
1319500000.0 -1.000517000e+00 -3.830000000e-03
1324000000.0 -9.977970000e-01 -3.250000000e-04
1328500000.0 -9.986110000e-01 -6.461000000e-03
1333000000.0 -9.986340000e-01 -1.660300000e-02
1337500000.0 -9.944450000e-01 -5.464000000e-03
1342000000.0 -9.912440000e-01 2.084000000e-03
1346500000.0 -9.968400000e-01 3.919000000e-03
1351000000.0 -9.924650000e-01 -1.303200000e-02
1355500000.0 -9.890910000e-01 2.560000000e-04
1360000000.0 -9.922490000e-01 3.050000000e-04
1364500000.0 -1.002955000e+00 -1.395300000e-02
1369000000.0 -9.938790000e-01 -1.686200000e-02
1373500000.0 -9.982940000e-01 -7.679000000e-03
1378000000.0 -1.000039000e+00 -3.479000000e-03
1382500000.0 -1.002721000e+00 1.756000000e-03
1387000000.0 -1.004513000e+00 -1.041700000e-02
1391500000.0 -1.006004000e+00 1.581000000e-03
1396000000.0 -1.008222000e+00 -1.419000000e-03
1400500000.0 -1.009125000e+00 4.600000000e-05
1405000000.0 -1.009476000e+00 -6.918000000e-03
1409500000.0 -9.997560000e-01 2.640000000e-04
1414000000.0 -1.010012000e+00 -9.384000000e-03
1418500000.0 -1.010211000e+00 -1.490000000e-04
1423000000.0 -1.004488000e+00 -3.574000000e-03
1427500000.0 -1.015647000e+00 -1.066800000e-02
1432000000.0 -1.008322000e+00 -1.424400000e-02
1436500000.0 -1.013646000e+00 -5.561000000e-03
1441000000.0 -1.008765000e+00 -1.894000000e-03
1445500000.0 -1.011428000e+00 -6.066000000e-03
1450000000.0 -1.008864000e+00 -8.064000000e-03
