! piloto_deriva / corto_deriva / r60
# HZ S RI R 50
50000.0 -9.989050000e-01 -3.743500000e-02
59500.0 -9.948660000e-01 -1.761100000e-02
69000.0 -9.977540000e-01 -9.207000000e-03
78500.0 -9.987260000e-01 -1.170000000e-03
88000.0 -9.986740000e-01 -2.790000000e-04
97500.0 -9.992000000e-01 -3.000000000e-06
107000.0 -9.993560000e-01 -2.674000000e-03
116500.0 -9.999060000e-01 -5.886000000e-03
126000.0 -1.001609000e+00 -1.185900000e-02
135500.0 -9.997950000e-01 -1.579900000e-02
145000.0 -1.000339000e+00 -2.192400000e-02
154500.0 -1.000379000e+00 -2.935200000e-02
164000.0 -9.996760000e-01 -3.671700000e-02
173500.0 -1.000328000e+00 -4.436500000e-02
183000.0 -9.995810000e-01 -5.228700000e-02
192500.0 -9.994550000e-01 -6.079200000e-02
202000.0 -1.000482000e+00 -6.884800000e-02
211500.0 -1.000587000e+00 -7.714200000e-02
221000.0 -1.000370000e+00 -8.643100000e-02
230500.0 -1.000638000e+00 -9.516000000e-02
240000.0 -1.002074000e+00 -1.044370000e-01
249500.0 -1.001398000e+00 -1.138420000e-01
259000.0 -1.001346000e+00 -1.228910000e-01
268500.0 -1.001531000e+00 -1.322290000e-01
278000.0 -1.002048000e+00 -1.406480000e-01
287500.0 -1.001911000e+00 -1.502020000e-01
297000.0 -1.002105000e+00 -1.597860000e-01
306500.0 -1.003306000e+00 -1.696240000e-01
316000.0 -1.001635000e+00 -1.781670000e-01
325500.0 -1.002822000e+00 -1.879700000e-01
335000.0 -1.003363000e+00 -1.976000000e-01
344500.0 -1.003002000e+00 -2.054130000e-01
354000.0 -1.002513000e+00 -2.161080000e-01
363500.0 -1.003932000e+00 -2.239920000e-01
373000.0 -1.003416000e+00 -2.344130000e-01
382500.0 -1.004509000e+00 -2.435840000e-01
392000.0 -1.004418000e+00 -2.533780000e-01
401500.0 -1.004561000e+00 -2.627040000e-01
411000.0 -1.004434000e+00 -2.720160000e-01
420500.0 -1.005589000e+00 -2.811300000e-01
430000.0 -1.004782000e+00 -2.906290000e-01
439500.0 -1.005931000e+00 -3.001360000e-01
449000.0 -1.005698000e+00 -3.095970000e-01
458500.0 -1.006351000e+00 -3.188140000e-01
468000.0 -1.005896000e+00 -3.282330000e-01
477500.0 -1.006219000e+00 -3.374870000e-01
487000.0 -1.007121000e+00 -3.464860000e-01
496500.0 -1.007237000e+00 -3.549690000e-01
506000.0 -1.007577000e+00 -3.651090000e-01
515500.0 -1.007389000e+00 -3.741110000e-01
525000.0 -1.008358000e+00 -3.840770000e-01
534500.0 -1.008502000e+00 -3.921610000e-01
544000.0 -1.008453000e+00 -4.019870000e-01
553500.0 -1.008252000e+00 -4.113670000e-01
563000.0 -1.008546000e+00 -4.200820000e-01
572500.0 -1.010003000e+00 -4.300800000e-01
582000.0 -1.009866000e+00 -4.387510000e-01
591500.0 -1.010748000e+00 -4.479760000e-01
601000.0 -1.011702000e+00 -4.566420000e-01
610500.0 -1.010938000e+00 -4.660980000e-01
620000.0 -1.011400000e+00 -4.756780000e-01
629500.0 -1.012005000e+00 -4.849980000e-01
639000.0 -1.014232000e+00 -4.940570000e-01
648500.0 -1.014133000e+00 -5.024330000e-01
658000.0 -1.014840000e+00 -5.122570000e-01
667500.0 -1.015331000e+00 -5.215250000e-01
677000.0 -1.016860000e+00 -5.297790000e-01
686500.0 -1.015711000e+00 -5.391680000e-01
696000.0 -1.018147000e+00 -5.487320000e-01
705500.0 -1.016372000e+00 -5.567800000e-01
715000.0 -1.017998000e+00 -5.662350000e-01
724500.0 -1.019659000e+00 -5.746610000e-01
734000.0 -1.020454000e+00 -5.839870000e-01
743500.0 -1.020841000e+00 -5.930430000e-01
753000.0 -1.022570000e+00 -6.007140000e-01
762500.0 -1.023873000e+00 -6.107290000e-01
772000.0 -1.024835000e+00 -6.205710000e-01
781500.0 -1.025523000e+00 -6.287720000e-01
791000.0 -1.027260000e+00 -6.373750000e-01
800500.0 -1.027607000e+00 -6.460240000e-01
810000.0 -1.029684000e+00 -6.553440000e-01
819500.0 -1.030333000e+00 -6.635170000e-01
829000.0 -1.032572000e+00 -6.733610000e-01
838500.0 -1.033134000e+00 -6.808390000e-01
848000.0 -1.035731000e+00 -6.906050000e-01
857500.0 -1.037314000e+00 -6.990260000e-01
867000.0 -1.038934000e+00 -7.071380000e-01
876500.0 -1.040621000e+00 -7.161280000e-01
886000.0 -1.043392000e+00 -7.255330000e-01
895500.0 -1.044516000e+00 -7.337470000e-01
905000.0 -1.046035000e+00 -7.428360000e-01
914500.0 -1.048306000e+00 -7.503210000e-01
924000.0 -1.049405000e+00 -7.592380000e-01
933500.0 -1.051637000e+00 -7.690300000e-01
943000.0 -1.054115000e+00 -7.766180000e-01
952500.0 -1.057583000e+00 -7.854200000e-01
962000.0 -1.058540000e+00 -7.940460000e-01
971500.0 -1.060991000e+00 -8.009640000e-01
981000.0 -1.063882000e+00 -8.125200000e-01
990500.0 -1.066318000e+00 -8.200860000e-01
1000000.0 -1.068891000e+00 -8.271230000e-01
1090000.0 -1.098327000e+00 -9.056160000e-01
1180000.0 -1.135714000e+00 -9.783020000e-01
1270000.0 -1.184999000e+00 -1.047214000e+00
1360000.0 -1.241456000e+00 -1.106903000e+00
1450000.0 -1.310875000e+00 -1.159372000e+00
1540000.0 -1.389913000e+00 -1.191296000e+00
1630000.0 -1.475379000e+00 -1.211723000e+00
1720000.0 -1.567328000e+00 -1.207425000e+00
1810000.0 -1.655612000e+00 -1.187661000e+00
1900000.0 -1.737846000e+00 -1.140224000e+00
1990000.0 -1.811049000e+00 -1.075446000e+00
2080000.0 -1.864585000e+00 -9.981700000e-01
2170000.0 -1.899804000e+00 -9.058890000e-01
2260000.0 -1.918648000e+00 -8.127110000e-01
2350000.0 -1.917454000e+00 -7.242140000e-01
2440000.0 -1.899530000e+00 -6.414260000e-01
2530000.0 -1.870431000e+00 -5.628260000e-01
2620000.0 -1.837271000e+00 -4.924050000e-01
2710000.0 -1.798682000e+00 -4.340830000e-01
2800000.0 -1.756606000e+00 -3.836730000e-01
2890000.0 -1.712978000e+00 -3.384540000e-01
2980000.0 -1.671655000e+00 -3.010160000e-01
3070000.0 -1.632604000e+00 -2.673790000e-01
3160000.0 -1.591083000e+00 -2.392890000e-01
3250000.0 -1.555421000e+00 -2.136540000e-01
3340000.0 -1.519198000e+00 -1.931800000e-01
3430000.0 -1.487863000e+00 -1.718720000e-01
3520000.0 -1.455325000e+00 -1.528420000e-01
3610000.0 -1.428702000e+00 -1.356540000e-01
3700000.0 -1.401158000e+00 -1.216500000e-01
3790000.0 -1.375899000e+00 -1.063880000e-01
3880000.0 -1.352825000e+00 -9.290700000e-02
3970000.0 -1.331415000e+00 -7.968600000e-02
4060000.0 -1.311523000e+00 -6.801300000e-02
4150000.0 -1.294895000e+00 -5.539600000e-02
4240000.0 -1.279130000e+00 -4.216400000e-02
4330000.0 -1.261994000e+00 -3.061400000e-02
4420000.0 -1.247092000e+00 -1.875400000e-02
4510000.0 -1.234379000e+00 -7.749000000e-03
4600000.0 -1.223532000e+00 4.158000000e-03
4690000.0 -1.213702000e+00 1.460500000e-02
4780000.0 -1.202262000e+00 2.596200000e-02
4870000.0 -1.192961000e+00 3.539400000e-02
4960000.0 -1.187040000e+00 4.784800000e-02
5050000.0 -1.172369000e+00 5.904100000e-02
5140000.0 -1.166705000e+00 6.890200000e-02
5230000.0 -1.161005000e+00 7.897900000e-02
5320000.0 -1.155896000e+00 9.075600000e-02
5410000.0 -1.152322000e+00 1.009180000e-01
5500000.0 -1.147566000e+00 1.115190000e-01
5590000.0 -1.143268000e+00 1.209470000e-01
5680000.0 -1.138096000e+00 1.322260000e-01
5770000.0 -1.135164000e+00 1.418680000e-01
5860000.0 -1.131095000e+00 1.502430000e-01
5950000.0 -1.127779000e+00 1.590300000e-01
6040000.0 -1.125994000e+00 1.679750000e-01
6130000.0 -1.121193000e+00 1.771140000e-01
6220000.0 -1.119060000e+00 1.842960000e-01
6310000.0 -1.117051000e+00 1.931570000e-01
6400000.0 -1.114820000e+00 1.999990000e-01
6490000.0 -1.112375000e+00 2.078480000e-01
6580000.0 -1.110220000e+00 2.119170000e-01
6670000.0 -1.108238000e+00 2.176220000e-01
6760000.0 -1.107841000e+00 2.245170000e-01
6850000.0 -1.105529000e+00 2.280410000e-01
6940000.0 -1.104446000e+00 2.314850000e-01
7030000.0 -1.104045000e+00 2.349780000e-01
7120000.0 -1.103141000e+00 2.385550000e-01
7210000.0 -1.101713000e+00 2.404120000e-01
7300000.0 -1.100863000e+00 2.417890000e-01
7390000.0 -1.101420000e+00 2.416850000e-01
7480000.0 -1.102419000e+00 2.430750000e-01
7570000.0 1.950240000e-01 1.073497000e+00
7660000.0 1.944140000e-01 1.073876000e+00
7750000.0 1.948580000e-01 1.073455000e+00
7840000.0 1.929500000e-01 1.074238000e+00
7930000.0 1.922080000e-01 1.075348000e+00
8020000.0 1.923370000e-01 1.074847000e+00
8110000.0 1.899940000e-01 1.075098000e+00
8200000.0 1.911010000e-01 1.076425000e+00
8290000.0 1.890770000e-01 1.076578000e+00
8380000.0 1.900400000e-01 1.076507000e+00
8470000.0 1.875890000e-01 1.076997000e+00
8560000.0 1.875120000e-01 1.077065000e+00
8650000.0 1.865000000e-01 1.078066000e+00
8740000.0 1.844070000e-01 1.078681000e+00
8830000.0 1.849510000e-01 1.079931000e+00
8920000.0 1.844290000e-01 1.080207000e+00
9010000.0 1.831180000e-01 1.080791000e+00
9100000.0 1.840300000e-01 1.080426000e+00
9190000.0 1.823750000e-01 1.082362000e+00
9280000.0 1.813770000e-01 1.082176000e+00
9370000.0 1.804250000e-01 1.082666000e+00
9460000.0 1.801600000e-01 1.083519000e+00
9550000.0 1.797180000e-01 1.083787000e+00
9640000.0 1.785530000e-01 1.084485000e+00
9730000.0 1.783380000e-01 1.086406000e+00
9820000.0 1.767890000e-01 1.085025000e+00
9910000.0 1.769240000e-01 1.085880000e+00
10000000.0 1.761510000e-01 1.087431000e+00
10900000.0 1.706470000e-01 1.094063000e+00
11800000.0 1.634170000e-01 1.102219000e+00
12700000.0 1.560220000e-01 1.110198000e+00
13600000.0 1.497390000e-01 1.118443000e+00
14500000.0 1.441870000e-01 1.127319000e+00
15400000.0 1.370930000e-01 1.136687000e+00
16300000.0 1.312990000e-01 1.145739000e+00
17200000.0 1.244360000e-01 1.154042000e+00
18100000.0 1.169240000e-01 1.162663000e+00
19000000.0 1.093660000e-01 1.173299000e+00
19900000.0 1.018160000e-01 1.182111000e+00
20800000.0 9.363300000e-02 1.191267000e+00
21700000.0 8.455200000e-02 1.200608000e+00
22600000.0 7.613400000e-02 1.211242000e+00
23500000.0 6.621300000e-02 1.221704000e+00
24400000.0 5.704600000e-02 1.231139000e+00
25300000.0 4.637400000e-02 1.241938000e+00
26200000.0 3.702100000e-02 1.250481000e+00
27100000.0 2.558000000e-02 1.262045000e+00
28000000.0 1.470900000e-02 1.271086000e+00
28900000.0 2.225000000e-03 1.282506000e+00
29800000.0 -8.863000000e-03 1.291006000e+00
30700000.0 -2.238800000e-02 1.302160000e+00
31600000.0 -3.520300000e-02 1.311988000e+00
32500000.0 -4.892000000e-02 1.321512000e+00
33400000.0 -6.243700000e-02 1.332427000e+00
34300000.0 -7.674600000e-02 1.341357000e+00
35200000.0 -9.143600000e-02 1.350973000e+00
36100000.0 -1.065930000e-01 1.360043000e+00
37000000.0 -1.221090000e-01 1.369743000e+00
37900000.0 -1.380360000e-01 1.379715000e+00
38800000.0 -1.538150000e-01 1.387598000e+00
39700000.0 -1.697570000e-01 1.396518000e+00
40600000.0 -1.881000000e-01 1.404333000e+00
41500000.0 -2.060700000e-01 1.413875000e+00
42400000.0 -2.250930000e-01 1.421643000e+00
43300000.0 -2.434450000e-01 1.427532000e+00
44200000.0 -2.620150000e-01 1.434063000e+00
45100000.0 -2.840490000e-01 1.441871000e+00
46000000.0 -3.032690000e-01 1.449458000e+00
46900000.0 -3.223700000e-01 1.452826000e+00
47800000.0 -3.449000000e-01 1.458803000e+00
48700000.0 -3.658890000e-01 1.462961000e+00
49600000.0 -3.868680000e-01 1.467547000e+00
50500000.0 -4.088080000e-01 1.471530000e+00
51400000.0 -4.314370000e-01 1.475748000e+00
52300000.0 -4.529860000e-01 1.477228000e+00
53200000.0 -4.765780000e-01 1.479657000e+00
54100000.0 -5.003210000e-01 1.481444000e+00
55000000.0 -5.246730000e-01 1.481986000e+00
55900000.0 -5.456460000e-01 1.481559000e+00
56800000.0 -5.723460000e-01 1.480478000e+00
57700000.0 -5.939590000e-01 1.480110000e+00
58600000.0 -6.186090000e-01 1.478244000e+00
59500000.0 -6.434650000e-01 1.475330000e+00
60400000.0 -6.681570000e-01 1.471125000e+00
61300000.0 -6.926000000e-01 1.466511000e+00
62200000.0 -7.160150000e-01 1.463174000e+00
63100000.0 -7.401770000e-01 1.456977000e+00
64000000.0 -7.631680000e-01 1.450700000e+00
64900000.0 -7.878720000e-01 1.442437000e+00
65800000.0 -8.134110000e-01 1.435669000e+00
66700000.0 -8.365640000e-01 1.428073000e+00
67600000.0 -8.624030000e-01 1.418618000e+00
68500000.0 -8.833340000e-01 1.407776000e+00
69400000.0 -9.076750000e-01 1.397385000e+00
70300000.0 -9.305480000e-01 1.388340000e+00
71200000.0 -9.532590000e-01 1.375851000e+00
72100000.0 -9.759880000e-01 1.362155000e+00
73000000.0 -9.972370000e-01 1.348597000e+00
73900000.0 -1.017949000e+00 1.335041000e+00
74800000.0 -1.040491000e+00 1.319217000e+00
75700000.0 -1.061229000e+00 1.304315000e+00
76600000.0 -1.082146000e+00 1.288537000e+00
77500000.0 -1.103118000e+00 1.270935000e+00
78400000.0 -1.120536000e+00 1.254617000e+00
79300000.0 -1.139758000e+00 1.236945000e+00
80200000.0 -1.155876000e+00 1.219448000e+00
81100000.0 -1.176005000e+00 1.200552000e+00
82000000.0 -1.168573000e+00 1.196955000e+00
82900000.0 -1.210117000e+00 1.162396000e+00
83800000.0 -1.225450000e+00 1.142351000e+00
84700000.0 -1.242435000e+00 1.122691000e+00
85600000.0 -1.254121000e+00 1.100436000e+00
86500000.0 -1.269517000e+00 1.079894000e+00
87400000.0 -1.282324000e+00 1.055831000e+00
88300000.0 -1.295553000e+00 1.034234000e+00
89200000.0 -1.306986000e+00 1.013839000e+00
90100000.0 -1.317909000e+00 9.906250000e-01
91000000.0 -1.327694000e+00 9.691440000e-01
91900000.0 -1.337955000e+00 9.453560000e-01
92800000.0 -1.345671000e+00 9.225780000e-01
93700000.0 -1.355148000e+00 8.996460000e-01
94600000.0 -1.362822000e+00 8.762140000e-01
95500000.0 -1.367252000e+00 8.534390000e-01
96400000.0 -1.374632000e+00 8.304770000e-01
97300000.0 -1.379272000e+00 8.079830000e-01
98200000.0 -1.384955000e+00 7.833420000e-01
99100000.0 -1.387697000e+00 7.597430000e-01
100000000.0 -1.390477000e+00 7.375380000e-01
109000000.0 -1.384598000e+00 5.205550000e-01
118000000.0 -1.330449000e+00 3.398470000e-01
127000000.0 -1.249867000e+00 2.000600000e-01
136000000.0 -1.135108000e+00 9.911100000e-02
145000000.0 -1.046251000e+00 2.904000000e-02
154000000.0 -1.000124000e+00 -1.162000000e-03
163000000.0 -1.001819000e+00 -3.464000000e-03
172000000.0 -1.004038000e+00 -6.182000000e-03
181000000.0 -1.005413000e+00 -8.985000000e-03
190000000.0 -1.007179000e+00 -1.075000000e-02
199000000.0 -1.008326000e+00 -1.073600000e-02
208000000.0 -1.009517000e+00 -1.122100000e-02
217000000.0 -1.009682000e+00 -1.182300000e-02
226000000.0 -1.010649000e+00 -1.115200000e-02
235000000.0 -1.009873000e+00 -1.241500000e-02
244000000.0 -1.010127000e+00 -1.099300000e-02
253000000.0 -1.008911000e+00 -9.802000000e-03
262000000.0 -1.008031000e+00 -8.505000000e-03
271000000.0 -1.006458000e+00 -7.846000000e-03
280000000.0 -1.004733000e+00 -5.716000000e-03
289000000.0 -1.001814000e+00 -3.916000000e-03
298000000.0 -1.002656000e+00 -1.734600000e-02
307000000.0 -1.002056000e+00 -1.190000000e-04
316000000.0 -1.002219000e+00 1.601000000e-02
325000000.0 -1.007161000e+00 -2.194000000e-03
334000000.0 -1.010994000e+00 -2.059300000e-02
343000000.0 -1.011422000e+00 -3.117000000e-03
352000000.0 -1.011020000e+00 1.344000000e-02
361000000.0 -1.022132000e+00 -3.865100000e-02
370000000.0 -1.014506000e+00 -5.349000000e-03
379000000.0 -1.013709000e+00 -2.911000000e-03
388000000.0 -1.021725000e+00 -3.873100000e-02
397000000.0 -1.014138000e+00 -6.170000000e-03
406000000.0 -1.012717000e+00 -2.654000000e-03
415000000.0 -1.012735000e+00 -2.138000000e-02
424000000.0 -1.008547000e+00 -2.438000000e-03
433000000.0 -1.006864000e+00 -3.551000000e-03
442000000.0 -1.002587000e+00 -5.660000000e-04
451000000.0 -1.000358000e+00 -8.350000000e-04
460000000.0 -1.003749000e+00 -8.440000000e-04
469000000.0 -1.006914000e+00 4.513000000e-03
478000000.0 -1.010468000e+00 3.034000000e-03
487000000.0 -1.013490000e+00 9.810000000e-04
496000000.0 -1.014340000e+00 4.920000000e-04
505000000.0 -1.015692000e+00 1.060000000e-03
514000000.0 -1.017062000e+00 2.093000000e-03
523000000.0 -1.017871000e+00 5.644000000e-03
532000000.0 -1.017495000e+00 3.252000000e-03
541000000.0 -1.016368000e+00 3.677000000e-03
550000000.0 -1.015264000e+00 1.792000000e-03
559000000.0 -1.014289000e+00 1.456000000e-03
568000000.0 -1.011011000e+00 1.160000000e-03
577000000.0 -1.008019000e+00 1.418000000e-03
586000000.0 -1.005926000e+00 -2.390000000e-04
595000000.0 -1.000160000e+00 1.722000000e-03
604000000.0 -1.000885000e+00 5.021000000e-03
613000000.0 -1.003203000e+00 4.326000000e-03
622000000.0 -1.006318000e+00 5.628000000e-03
631000000.0 -1.008704000e+00 8.162000000e-03
640000000.0 -1.007831000e+00 9.974000000e-03
649000000.0 -1.008173000e+00 1.129300000e-02
658000000.0 -1.010797000e+00 1.444500000e-02
667000000.0 -1.008604000e+00 1.426900000e-02
676000000.0 -1.012043000e+00 9.964000000e-03
685000000.0 -1.013316000e+00 7.621000000e-03
694000000.0 -1.010478000e+00 1.455200000e-02
703000000.0 -1.014137000e+00 1.119800000e-02
712000000.0 -1.008413000e+00 9.386000000e-03
721000000.0 -1.005880000e+00 8.156000000e-03
730000000.0 -1.005414000e+00 7.889000000e-03
739000000.0 -1.001463000e+00 6.484000000e-03
748000000.0 -1.000767000e+00 -1.258000000e-03
757000000.0 -9.975660000e-01 7.503000000e-03
766000000.0 -9.978050000e-01 2.924000000e-03
775000000.0 -1.000736000e+00 7.935000000e-03
784000000.0 -9.982150000e-01 5.177000000e-03
793000000.0 -9.978400000e-01 4.625000000e-03
802000000.0 -9.988290000e-01 8.668000000e-03
811000000.0 -9.993180000e-01 7.629000000e-03
820000000.0 -9.990900000e-01 8.059000000e-03
829000000.0 -1.000908000e+00 5.535000000e-03
838000000.0 -9.976150000e-01 4.608000000e-03
847000000.0 -9.973990000e-01 6.815000000e-03
856000000.0 -9.954400000e-01 5.929000000e-03
865000000.0 -9.980780000e-01 -7.900000000e-05
874000000.0 -9.963010000e-01 1.262000000e-03
883000000.0 -9.962290000e-01 5.879000000e-03
892000000.0 -9.989570000e-01 -6.166000000e-03
901000000.0 -9.995620000e-01 -1.174000000e-03
910000000.0 -1.000856000e+00 -4.494000000e-03
919000000.0 -1.000745000e+00 -4.947000000e-03
928000000.0 -9.993850000e-01 -6.596000000e-03
937000000.0 -1.000710000e+00 -7.995000000e-03
946000000.0 -9.986460000e-01 1.069000000e-03
955000000.0 -1.001127000e+00 -4.003000000e-03
964000000.0 -1.000938000e+00 -6.075000000e-03
973000000.0 -1.003127000e+00 -8.861000000e-03
982000000.0 -1.001378000e+00 -2.663000000e-03
991000000.0 -1.003067000e+00 -1.140000000e-02
1000000000.0 -1.003192000e+00 -7.877000000e-03
1004500000.0 -1.002196000e+00 -9.382000000e-03
1009000000.0 -1.003135000e+00 -5.762000000e-03
1013500000.0 -1.002271000e+00 -4.420000000e-03
1018000000.0 -1.001739000e+00 -1.222900000e-02
1022500000.0 -1.002581000e+00 -6.639000000e-03
1027000000.0 -1.002090000e+00 -4.734000000e-03
1031500000.0 -1.001281000e+00 -5.356000000e-03
1036000000.0 -1.001269000e+00 -4.189000000e-03
1040500000.0 -1.001461000e+00 -9.480000000e-03
1045000000.0 -1.000755000e+00 -4.326000000e-03
1049500000.0 -9.997690000e-01 -7.828000000e-03
1054000000.0 -1.001985000e+00 -1.069700000e-02
1058500000.0 -9.987640000e-01 -6.831000000e-03
1063000000.0 -1.006136000e+00 -6.526000000e-03
1067500000.0 -1.000681000e+00 -3.730000000e-03
1072000000.0 -1.006345000e+00 -1.311700000e-02
1076500000.0 -1.006840000e+00 -4.364000000e-03
1081000000.0 -1.006121000e+00 -8.852000000e-03
1085500000.0 -1.002345000e+00 -3.562000000e-03
1090000000.0 -1.004214000e+00 -1.205800000e-02
1094500000.0 -1.002594000e+00 -5.533000000e-03
1099000000.0 -1.006190000e+00 -7.780000000e-03
1103500000.0 -1.005525000e+00 -1.186600000e-02
1108000000.0 -1.006813000e+00 -1.289400000e-02
1112500000.0 -1.010217000e+00 -1.328200000e-02
1117000000.0 -1.001730000e+00 -1.657900000e-02
1121500000.0 -1.010165000e+00 -1.318200000e-02
1126000000.0 -1.073395000e+00 -1.068770000e-01
1130500000.0 -1.008536000e+00 -1.327200000e-02
1135000000.0 -1.010829000e+00 -9.145000000e-03
1139500000.0 -1.011693000e+00 -8.748000000e-03
1144000000.0 -9.928100000e-01 2.816500000e-02
1148500000.0 -1.003971000e+00 -6.648000000e-03
1153000000.0 -1.004237000e+00 -9.478000000e-03
1157500000.0 -1.018221000e+00 -4.191900000e-02
1162000000.0 -1.003320000e+00 -1.007600000e-02
1166500000.0 -9.995540000e-01 -1.389200000e-02
1171000000.0 -1.003962000e+00 -4.088000000e-03
1175500000.0 -1.001840000e+00 -1.225000000e-03
1180000000.0 -1.001811000e+00 -5.334000000e-03
1184500000.0 -9.970280000e-01 -2.968000000e-03
1189000000.0 -1.003468000e+00 -8.287000000e-03
1193500000.0 -9.909940000e-01 -6.337000000e-03
1198000000.0 -9.984680000e-01 -1.135600000e-02
1202500000.0 -9.922490000e-01 -1.830000000e-03
1207000000.0 -9.988140000e-01 -6.151000000e-03
1211500000.0 -9.986500000e-01 -2.610000000e-04
1216000000.0 -1.002896000e+00 -7.448000000e-03
1220500000.0 -1.002923000e+00 -1.129900000e-02
1225000000.0 -1.002442000e+00 -5.751000000e-03
1229500000.0 -1.007272000e+00 -5.514000000e-03
1234000000.0 -1.000597000e+00 -5.373000000e-03
1238500000.0 -1.004970000e+00 -6.198000000e-03
1243000000.0 -9.983360000e-01 -2.579000000e-03
1247500000.0 -1.000083000e+00 -2.267000000e-03
1252000000.0 -1.005518000e+00 -6.019000000e-03
1256500000.0 -1.004449000e+00 -2.397000000e-03
1261000000.0 -1.000039000e+00 3.031000000e-03
1265500000.0 -1.004283000e+00 -1.374600000e-02
1270000000.0 -1.001221000e+00 -7.226000000e-03
1274500000.0 -1.010458000e+00 -6.344000000e-03
1279000000.0 -1.007259000e+00 -2.242000000e-03
1283500000.0 -1.008074000e+00 -8.583000000e-03
1288000000.0 -1.008523000e+00 -8.390000000e-04
1292500000.0 -9.982900000e-01 -2.146000000e-03
1297000000.0 -1.003682000e+00 -1.600000000e-04
1301500000.0 -9.996360000e-01 -5.134000000e-03
1306000000.0 -1.002189000e+00 -1.711000000e-03
1310500000.0 -1.001046000e+00 -4.020000000e-04
1315000000.0 -1.006868000e+00 -3.750000000e-03
1319500000.0 -1.001441000e+00 -1.067400000e-02
1324000000.0 -1.002011000e+00 -2.224000000e-03
1328500000.0 -1.004457000e+00 -1.320000000e-04
1333000000.0 -9.978380000e-01 -1.552500000e-02
1337500000.0 -9.944750000e-01 -8.390000000e-03
1342000000.0 -9.987610000e-01 -5.700000000e-03
1346500000.0 -9.946860000e-01 2.570000000e-04
1351000000.0 -9.922020000e-01 -8.144000000e-03
1355500000.0 -9.908810000e-01 -1.570000000e-04
1360000000.0 -9.957340000e-01 5.520000000e-03
1364500000.0 -9.978730000e-01 -1.100000000e-04
1369000000.0 -1.002862000e+00 -6.337000000e-03
1373500000.0 -9.924190000e-01 -3.970000000e-03
1378000000.0 -9.954110000e-01 -1.126000000e-03
1382500000.0 -1.005391000e+00 -4.778000000e-03
1387000000.0 -1.003831000e+00 -4.752000000e-03
1391500000.0 -9.999370000e-01 -3.000000000e-06
1396000000.0 -1.007350000e+00 -6.739000000e-03
1400500000.0 -1.008212000e+00 1.024000000e-03
1405000000.0 -1.008672000e+00 -1.490000000e-04
1409500000.0 -1.000991000e+00 -5.548000000e-03
1414000000.0 -1.008286000e+00 -4.824000000e-03
1418500000.0 -1.009016000e+00 -2.008000000e-03
1423000000.0 -1.005938000e+00 -1.021400000e-02
1427500000.0 -1.015875000e+00 4.885000000e-03
1432000000.0 -1.010438000e+00 -8.341000000e-03
1436500000.0 -1.012288000e+00 5.549000000e-03
1441000000.0 -1.008537000e+00 -1.415600000e-02
1445500000.0 -1.012663000e+00 -9.415000000e-03
1450000000.0 -1.009702000e+00 -3.658000000e-03
