! piloto_deriva / corto_deriva / r11
# HZ S RI R 50
50000.0 -9.954750000e-01 -3.742000000e-02
59500.0 -9.942770000e-01 -1.801400000e-02
69000.0 -9.981920000e-01 -9.860000000e-03
78500.0 -9.992290000e-01 -4.850000000e-04
88000.0 -1.000223000e+00 1.151000000e-03
97500.0 -9.993820000e-01 -5.600000000e-04
107000.0 -9.996380000e-01 -2.610000000e-03
116500.0 -9.998960000e-01 -5.792000000e-03
126000.0 -1.000837000e+00 -1.059700000e-02
135500.0 -1.000535000e+00 -1.630300000e-02
145000.0 -9.993960000e-01 -2.302500000e-02
154500.0 -1.000057000e+00 -2.880100000e-02
164000.0 -9.997070000e-01 -3.627800000e-02
173500.0 -1.000153000e+00 -4.429200000e-02
183000.0 -1.000131000e+00 -5.205300000e-02
192500.0 -9.998840000e-01 -5.962700000e-02
202000.0 -9.998870000e-01 -6.853000000e-02
211500.0 -1.000010000e+00 -7.721700000e-02
221000.0 -1.000471000e+00 -8.638700000e-02
230500.0 -1.000600000e+00 -9.422600000e-02
240000.0 -1.001123000e+00 -1.038820000e-01
249500.0 -1.001140000e+00 -1.130500000e-01
259000.0 -1.001380000e+00 -1.221730000e-01
268500.0 -1.041117000e+00 -9.659300000e-02
278000.0 -1.001645000e+00 -1.409510000e-01
287500.0 -1.002155000e+00 -1.500970000e-01
297000.0 -1.001252000e+00 -1.589430000e-01
306500.0 -1.001831000e+00 -1.684930000e-01
316000.0 -1.002479000e+00 -1.776810000e-01
325500.0 -1.002227000e+00 -1.866770000e-01
335000.0 -1.003358000e+00 -1.957060000e-01
344500.0 -1.003628000e+00 -2.047840000e-01
354000.0 -1.004151000e+00 -2.144390000e-01
363500.0 -1.003686000e+00 -2.234820000e-01
373000.0 -1.003386000e+00 -2.336690000e-01
382500.0 -1.003848000e+00 -2.425270000e-01
392000.0 -1.004182000e+00 -2.522690000e-01
401500.0 -1.005206000e+00 -2.617740000e-01
411000.0 -1.005010000e+00 -2.701950000e-01
420500.0 -1.004965000e+00 -2.799210000e-01
430000.0 -1.004982000e+00 -2.879620000e-01
439500.0 -1.004664000e+00 -2.978300000e-01
449000.0 -1.005828000e+00 -3.081540000e-01
458500.0 -1.005735000e+00 -3.176030000e-01
468000.0 -1.006909000e+00 -3.273240000e-01
477500.0 -1.005820000e+00 -3.364540000e-01
487000.0 -1.006363000e+00 -3.455390000e-01
496500.0 -1.006895000e+00 -3.552530000e-01
506000.0 -1.007183000e+00 -3.637210000e-01
515500.0 -1.006854000e+00 -3.727530000e-01
525000.0 -1.007310000e+00 -3.823700000e-01
534500.0 -1.007722000e+00 -3.921680000e-01
544000.0 -1.007886000e+00 -4.007220000e-01
553500.0 -1.009288000e+00 -4.098390000e-01
563000.0 -1.009162000e+00 -4.195710000e-01
572500.0 -1.009849000e+00 -4.277250000e-01
582000.0 -1.009803000e+00 -4.375830000e-01
591500.0 -1.010233000e+00 -4.470230000e-01
601000.0 -1.010466000e+00 -4.558360000e-01
610500.0 -1.011018000e+00 -4.651870000e-01
620000.0 -1.011658000e+00 -4.743480000e-01
629500.0 -1.011917000e+00 -4.826970000e-01
639000.0 -1.012978000e+00 -4.922220000e-01
648500.0 -1.013044000e+00 -5.018400000e-01
658000.0 -1.014347000e+00 -5.098870000e-01
667500.0 -1.014539000e+00 -5.191060000e-01
677000.0 -1.015396000e+00 -5.285500000e-01
686500.0 -1.015405000e+00 -5.369200000e-01
696000.0 -1.015576000e+00 -5.456840000e-01
705500.0 -1.017758000e+00 -5.552220000e-01
715000.0 -1.018354000e+00 -5.654190000e-01
724500.0 -1.019616000e+00 -5.744700000e-01
734000.0 -1.020014000e+00 -5.823390000e-01
743500.0 -1.020286000e+00 -5.908860000e-01
753000.0 -1.022795000e+00 -5.998030000e-01
762500.0 -1.022916000e+00 -6.089680000e-01
772000.0 -1.024282000e+00 -6.174540000e-01
781500.0 -1.023915000e+00 -6.267010000e-01
791000.0 -1.027443000e+00 -6.364700000e-01
800500.0 -1.027718000e+00 -6.428160000e-01
810000.0 -1.029227000e+00 -6.526970000e-01
819500.0 -1.030568000e+00 -6.622770000e-01
829000.0 -1.031480000e+00 -6.707970000e-01
838500.0 -1.032523000e+00 -6.790160000e-01
848000.0 -1.034598000e+00 -6.879910000e-01
857500.0 -1.036372000e+00 -6.978640000e-01
867000.0 -1.037559000e+00 -7.068100000e-01
876500.0 -1.040438000e+00 -7.146680000e-01
886000.0 -1.041517000e+00 -7.222440000e-01
895500.0 -1.043356000e+00 -7.303620000e-01
905000.0 -1.045511000e+00 -7.400540000e-01
914500.0 -1.045385000e+00 -7.483940000e-01
924000.0 -1.049618000e+00 -7.570620000e-01
933500.0 -1.051925000e+00 -7.672610000e-01
943000.0 -1.052956000e+00 -7.743060000e-01
952500.0 -1.054776000e+00 -7.840550000e-01
962000.0 -1.058040000e+00 -7.907500000e-01
971500.0 -1.061180000e+00 -7.996800000e-01
981000.0 -1.063072000e+00 -8.071850000e-01
990500.0 -1.063762000e+00 -8.163570000e-01
1000000.0 -1.066282000e+00 -8.255810000e-01
1090000.0 -1.095394000e+00 -9.033760000e-01
1180000.0 -1.135155000e+00 -9.755780000e-01
1270000.0 -1.181930000e+00 -1.044875000e+00
1360000.0 -1.238740000e+00 -1.104128000e+00
1450000.0 -1.306213000e+00 -1.155581000e+00
1540000.0 -1.383447000e+00 -1.192169000e+00
1630000.0 -1.469324000e+00 -1.211207000e+00
1720000.0 -1.559747000e+00 -1.211965000e+00
1810000.0 -1.651135000e+00 -1.188256000e+00
1900000.0 -1.732468000e+00 -1.145706000e+00
1990000.0 -1.805344000e+00 -1.080545000e+00
2080000.0 -1.859579000e+00 -1.002114000e+00
2170000.0 -1.897989000e+00 -9.150700000e-01
2260000.0 -1.915014000e+00 -8.235700000e-01
2350000.0 -1.914353000e+00 -7.334310000e-01
2440000.0 -1.900977000e+00 -6.460170000e-01
2530000.0 -1.874228000e+00 -5.676840000e-01
2620000.0 -1.839877000e+00 -4.992990000e-01
2710000.0 -1.800659000e+00 -4.371970000e-01
2800000.0 -1.757014000e+00 -3.887050000e-01
2890000.0 -1.717230000e+00 -3.411610000e-01
2980000.0 -1.675769000e+00 -3.036910000e-01
3070000.0 -1.634059000e+00 -2.699320000e-01
3160000.0 -1.593975000e+00 -2.408800000e-01
3250000.0 -1.557291000e+00 -2.156450000e-01
3340000.0 -1.522862000e+00 -1.929200000e-01
3430000.0 -1.489755000e+00 -1.729430000e-01
3520000.0 -1.458159000e+00 -1.537910000e-01
3610000.0 -1.429551000e+00 -1.381130000e-01
3700000.0 -1.403070000e+00 -1.218520000e-01
3790000.0 -1.376274000e+00 -1.062340000e-01
3880000.0 -1.355281000e+00 -9.377300000e-02
3970000.0 -1.333555000e+00 -7.996500000e-02
4060000.0 -1.313602000e+00 -6.645700000e-02
4150000.0 -1.296142000e+00 -5.486500000e-02
4240000.0 -1.279305000e+00 -4.112300000e-02
4330000.0 -1.262588000e+00 -3.200000000e-02
4420000.0 -1.249678000e+00 -1.919600000e-02
4510000.0 -1.236934000e+00 -8.310000000e-03
4600000.0 -1.224872000e+00 4.085000000e-03
4690000.0 -1.213793000e+00 1.495500000e-02
4780000.0 -1.204322000e+00 2.704800000e-02
4870000.0 -1.196517000e+00 3.696900000e-02
4960000.0 -1.187439000e+00 4.674400000e-02
5050000.0 -1.172435000e+00 5.790800000e-02
5140000.0 -1.166855000e+00 6.927400000e-02
5230000.0 -1.162889000e+00 7.918700000e-02
5320000.0 -1.157085000e+00 9.021600000e-02
5410000.0 -1.152794000e+00 1.002230000e-01
5500000.0 -1.148889000e+00 1.105490000e-01
5590000.0 -1.143205000e+00 1.202560000e-01
5680000.0 -1.139391000e+00 1.313030000e-01
5770000.0 -1.135459000e+00 1.416410000e-01
5860000.0 -1.132445000e+00 1.495200000e-01
5950000.0 -1.128290000e+00 1.593100000e-01
6040000.0 -1.126144000e+00 1.687260000e-01
6130000.0 -1.122530000e+00 1.770060000e-01
6220000.0 -1.120432000e+00 1.841800000e-01
6310000.0 -1.116192000e+00 1.923530000e-01
6400000.0 -1.114636000e+00 1.986700000e-01
6490000.0 -1.112989000e+00 2.068060000e-01
6580000.0 -1.110369000e+00 2.129800000e-01
6670000.0 -1.108833000e+00 2.186110000e-01
6760000.0 -1.107390000e+00 2.236070000e-01
6850000.0 -1.105790000e+00 2.287600000e-01
6940000.0 -1.104688000e+00 2.329180000e-01
7030000.0 -1.104713000e+00 2.366730000e-01
7120000.0 -1.103514000e+00 2.382750000e-01
7210000.0 -1.102572000e+00 2.417770000e-01
7300000.0 -1.102008000e+00 2.417270000e-01
7390000.0 -1.102472000e+00 2.427460000e-01
7480000.0 -1.102689000e+00 2.427720000e-01
7570000.0 1.957160000e-01 1.072876000e+00
7660000.0 1.945640000e-01 1.073805000e+00
7750000.0 1.942920000e-01 1.075042000e+00
7840000.0 1.932490000e-01 1.073682000e+00
7930000.0 1.915090000e-01 1.074428000e+00
8020000.0 1.918400000e-01 1.075363000e+00
8110000.0 1.911000000e-01 1.075526000e+00
8200000.0 1.902950000e-01 1.076375000e+00
8290000.0 1.893150000e-01 1.076358000e+00
8380000.0 1.881040000e-01 1.077169000e+00
8470000.0 1.880390000e-01 1.077960000e+00
8560000.0 1.866770000e-01 1.077217000e+00
8650000.0 1.864620000e-01 1.077584000e+00
8740000.0 1.858930000e-01 1.079303000e+00
8830000.0 1.846820000e-01 1.079424000e+00
8920000.0 1.839840000e-01 1.079931000e+00
9010000.0 1.840690000e-01 1.080338000e+00
9100000.0 1.834310000e-01 1.081480000e+00
9190000.0 1.816750000e-01 1.081789000e+00
9280000.0 1.815640000e-01 1.082215000e+00
9370000.0 1.806520000e-01 1.082585000e+00
9460000.0 1.801460000e-01 1.083656000e+00
9550000.0 1.788100000e-01 1.084124000e+00
9640000.0 1.791320000e-01 1.084829000e+00
9730000.0 1.780630000e-01 1.084553000e+00
9820000.0 1.779820000e-01 1.086368000e+00
9910000.0 1.770360000e-01 1.086930000e+00
10000000.0 1.763450000e-01 1.086616000e+00
10900000.0 1.693340000e-01 1.094099000e+00
11800000.0 1.637380000e-01 1.102401000e+00
12700000.0 1.575800000e-01 1.110945000e+00
13600000.0 1.506810000e-01 1.118636000e+00
14500000.0 1.441380000e-01 1.127056000e+00
15400000.0 1.386260000e-01 1.135443000e+00
16300000.0 1.314820000e-01 1.145067000e+00
17200000.0 1.244240000e-01 1.153468000e+00
18100000.0 1.167280000e-01 1.163668000e+00
19000000.0 1.095690000e-01 1.172761000e+00
19900000.0 1.012390000e-01 1.182074000e+00
20800000.0 9.321400000e-02 1.192476000e+00
21700000.0 8.462300000e-02 1.202446000e+00
22600000.0 7.580400000e-02 1.211799000e+00
23500000.0 6.621900000e-02 1.221214000e+00
24400000.0 5.754700000e-02 1.231614000e+00
25300000.0 4.650600000e-02 1.241978000e+00
26200000.0 3.678500000e-02 1.251942000e+00
27100000.0 2.424200000e-02 1.262761000e+00
28000000.0 1.416500000e-02 1.272022000e+00
28900000.0 5.500000000e-04 1.282337000e+00
29800000.0 -9.284000000e-03 1.291506000e+00
30700000.0 -2.200800000e-02 1.303292000e+00
31600000.0 -3.483900000e-02 1.312175000e+00
32500000.0 -4.816500000e-02 1.322297000e+00
33400000.0 -6.218200000e-02 1.331831000e+00
34300000.0 -7.635800000e-02 1.341416000e+00
35200000.0 -9.119900000e-02 1.350800000e+00
36100000.0 -1.052730000e-01 1.360763000e+00
37000000.0 -1.219840000e-01 1.371977000e+00
37900000.0 -1.381670000e-01 1.379459000e+00
38800000.0 -1.547040000e-01 1.388366000e+00
39700000.0 -1.703470000e-01 1.395958000e+00
40600000.0 -1.884410000e-01 1.404873000e+00
41500000.0 -2.062680000e-01 1.413321000e+00
42400000.0 -2.235220000e-01 1.421078000e+00
43300000.0 -2.430930000e-01 1.428202000e+00
44200000.0 -2.629030000e-01 1.434976000e+00
45100000.0 -2.827300000e-01 1.441123000e+00
46000000.0 -3.029930000e-01 1.447344000e+00
46900000.0 -3.226050000e-01 1.453302000e+00
47800000.0 -3.440020000e-01 1.459319000e+00
48700000.0 -3.645030000e-01 1.463878000e+00
49600000.0 -3.872250000e-01 1.468564000e+00
50500000.0 -4.082270000e-01 1.471847000e+00
51400000.0 -4.303260000e-01 1.474729000e+00
52300000.0 -4.535440000e-01 1.476797000e+00
53200000.0 -4.758050000e-01 1.479032000e+00
54100000.0 -4.995180000e-01 1.481002000e+00
55000000.0 -5.234490000e-01 1.480553000e+00
55900000.0 -5.469040000e-01 1.482332000e+00
56800000.0 -5.706460000e-01 1.481485000e+00
57700000.0 -5.937830000e-01 1.479828000e+00
58600000.0 -6.194240000e-01 1.477535000e+00
59500000.0 -6.424610000e-01 1.474888000e+00
60400000.0 -6.671800000e-01 1.470798000e+00
61300000.0 -6.902950000e-01 1.468163000e+00
62200000.0 -7.160000000e-01 1.463990000e+00
63100000.0 -7.411650000e-01 1.456010000e+00
64000000.0 -7.634450000e-01 1.451136000e+00
64900000.0 -7.880670000e-01 1.444747000e+00
65800000.0 -8.132980000e-01 1.435800000e+00
66700000.0 -8.368480000e-01 1.427857000e+00
67600000.0 -8.589370000e-01 1.418010000e+00
68500000.0 -8.835660000e-01 1.407896000e+00
69400000.0 -9.058570000e-01 1.397473000e+00
70300000.0 -9.295480000e-01 1.386973000e+00
71200000.0 -9.520960000e-01 1.374732000e+00
72100000.0 -9.749470000e-01 1.361425000e+00
73000000.0 -9.957690000e-01 1.348562000e+00
73900000.0 -1.019783000e+00 1.334393000e+00
74800000.0 -1.040273000e+00 1.320060000e+00
75700000.0 -1.059640000e+00 1.305137000e+00
76600000.0 -1.081697000e+00 1.288366000e+00
77500000.0 -1.099328000e+00 1.272777000e+00
78400000.0 -1.121240000e+00 1.254758000e+00
79300000.0 -1.139915000e+00 1.238500000e+00
80200000.0 -1.158154000e+00 1.218970000e+00
81100000.0 -1.175860000e+00 1.200607000e+00
82000000.0 -1.193089000e+00 1.183063000e+00
82900000.0 -1.207988000e+00 1.162684000e+00
83800000.0 -1.226055000e+00 1.142413000e+00
84700000.0 -1.239518000e+00 1.121842000e+00
85600000.0 -1.254421000e+00 1.101586000e+00
86500000.0 -1.268612000e+00 1.080455000e+00
87400000.0 -1.282420000e+00 1.057540000e+00
88300000.0 -1.297880000e+00 1.036112000e+00
89200000.0 -1.305459000e+00 1.014080000e+00
90100000.0 -1.317031000e+00 9.910470000e-01
91000000.0 -1.327565000e+00 9.697570000e-01
91900000.0 -1.338566000e+00 9.462610000e-01
92800000.0 -1.346975000e+00 9.236130000e-01
93700000.0 -1.354866000e+00 8.985170000e-01
94600000.0 -1.360347000e+00 8.764550000e-01
95500000.0 -1.368444000e+00 8.516740000e-01
96400000.0 -1.374814000e+00 8.293300000e-01
97300000.0 -1.381126000e+00 8.066370000e-01
98200000.0 -1.384475000e+00 7.838500000e-01
99100000.0 -1.389014000e+00 7.614550000e-01
100000000.0 -1.390800000e+00 7.374010000e-01
109000000.0 -1.384423000e+00 5.219230000e-01
118000000.0 -1.331693000e+00 3.398280000e-01
127000000.0 -1.249303000e+00 2.003390000e-01
136000000.0 -1.134327000e+00 9.961500000e-02
145000000.0 -1.046222000e+00 3.011000000e-02
154000000.0 -1.000735000e+00 -1.153000000e-03
163000000.0 -1.002453000e+00 -4.056000000e-03
172000000.0 -1.003679000e+00 -6.358000000e-03
181000000.0 -1.006583000e+00 -8.084000000e-03
190000000.0 -1.008242000e+00 -1.032200000e-02
199000000.0 -1.008187000e+00 -9.693000000e-03
208000000.0 -1.010089000e+00 -1.153000000e-02
217000000.0 -1.010550000e+00 -1.100400000e-02
226000000.0 -1.009519000e+00 -1.257400000e-02
235000000.0 -1.010866000e+00 -1.143500000e-02
244000000.0 -1.008714000e+00 -9.870000000e-03
253000000.0 -1.008648000e+00 -9.306000000e-03
262000000.0 -1.008036000e+00 -9.036000000e-03
271000000.0 -1.006804000e+00 -6.945000000e-03
280000000.0 -1.004207000e+00 -4.892000000e-03
289000000.0 -1.002929000e+00 -2.354000000e-03
298000000.0 -1.000731000e+00 -8.290000000e-04
307000000.0 -1.001878000e+00 -5.650000000e-04
316000000.0 -1.006817000e+00 -2.623000000e-03
325000000.0 -1.008662000e+00 -2.580000000e-03
334000000.0 -1.010357000e+00 -4.085000000e-03
343000000.0 -1.011444000e+00 -1.969000000e-03
352000000.0 -1.022454000e+00 -3.929700000e-02
361000000.0 -1.014637000e+00 -5.393000000e-03
370000000.0 -1.012044000e+00 1.564500000e-02
379000000.0 -1.012466000e+00 1.316800000e-02
388000000.0 -1.011719000e+00 1.500800000e-02
397000000.0 -1.013417000e+00 -2.429000000e-03
406000000.0 -1.012589000e+00 -4.892000000e-03
415000000.0 -1.008937000e+00 1.544700000e-02
424000000.0 -1.008561000e+00 -2.369000000e-03
433000000.0 -1.006907000e+00 -3.621000000e-03
442000000.0 -1.002998000e+00 -3.150000000e-04
451000000.0 -9.999170000e-01 1.149000000e-03
460000000.0 -1.003976000e+00 -1.017000000e-03
469000000.0 -1.008418000e+00 1.835000000e-03
478000000.0 -1.010801000e+00 1.197000000e-03
487000000.0 -1.012299000e+00 3.041000000e-03
496000000.0 -1.013886000e+00 2.277000000e-03
505000000.0 -1.015454000e+00 2.670000000e-03
514000000.0 -1.017501000e+00 4.015000000e-03
523000000.0 -1.015777000e+00 4.064000000e-03
532000000.0 -1.017639000e+00 4.178000000e-03
541000000.0 -1.014765000e+00 2.363000000e-03
550000000.0 -1.015935000e+00 7.410000000e-04
559000000.0 -1.012442000e+00 3.050000000e-03
568000000.0 -1.012035000e+00 -4.060000000e-04
577000000.0 -1.009473000e+00 2.983000000e-03
586000000.0 -1.006554000e+00 1.883000000e-03
595000000.0 -1.002027000e+00 5.054000000e-03
604000000.0 -1.000348000e+00 5.287000000e-03
613000000.0 -1.002925000e+00 7.823000000e-03
622000000.0 -1.003290000e+00 9.802000000e-03
631000000.0 -1.008271000e+00 9.264000000e-03
640000000.0 -1.008592000e+00 8.057000000e-03
649000000.0 -1.013689000e+00 8.933000000e-03
658000000.0 -1.009748000e+00 1.126200000e-02
667000000.0 -1.011943000e+00 1.571600000e-02
676000000.0 -1.010416000e+00 1.611900000e-02
685000000.0 -1.009854000e+00 1.228600000e-02
694000000.0 -1.008110000e+00 9.913000000e-03
703000000.0 -1.006351000e+00 7.086000000e-03
712000000.0 -1.005975000e+00 1.683600000e-02
721000000.0 -1.004352000e+00 8.619000000e-03
730000000.0 -1.002236000e+00 7.795000000e-03
739000000.0 -1.002312000e+00 2.405000000e-03
748000000.0 -9.989890000e-01 2.385000000e-03
757000000.0 -1.001014000e+00 6.900000000e-03
766000000.0 -9.993600000e-01 4.911000000e-03
775000000.0 -9.989690000e-01 2.550000000e-03
784000000.0 -9.990150000e-01 5.177000000e-03
793000000.0 -9.988680000e-01 6.832000000e-03
802000000.0 -1.000820000e+00 8.092000000e-03
811000000.0 -9.971280000e-01 3.298000000e-03
820000000.0 -9.986450000e-01 8.419000000e-03
829000000.0 -9.971250000e-01 7.484000000e-03
838000000.0 -9.946080000e-01 8.390000000e-03
847000000.0 -9.963720000e-01 6.184000000e-03
856000000.0 -9.976740000e-01 4.880000000e-03
865000000.0 -9.996410000e-01 -2.961000000e-03
874000000.0 -9.999430000e-01 4.835000000e-03
883000000.0 -9.981490000e-01 1.070000000e-03
892000000.0 -9.983460000e-01 2.371000000e-03
901000000.0 -9.999460000e-01 -4.011000000e-03
910000000.0 -9.979540000e-01 -1.342000000e-03
919000000.0 -1.000736000e+00 -5.051000000e-03
928000000.0 -9.993080000e-01 -3.637000000e-03
937000000.0 -1.000993000e+00 -4.208000000e-03
946000000.0 -9.991500000e-01 -9.089000000e-03
955000000.0 -1.001667000e+00 -1.002900000e-02
964000000.0 -1.004261000e+00 -7.972000000e-03
973000000.0 -1.004341000e+00 -8.440000000e-03
982000000.0 -1.003203000e+00 -5.375000000e-03
991000000.0 -1.001403000e+00 -7.089000000e-03
1000000000.0 -1.002739000e+00 -6.852000000e-03
1004500000.0 -1.004597000e+00 -1.372100000e-02
1009000000.0 -1.005380000e+00 -9.103000000e-03
1013500000.0 -1.000888000e+00 -5.111000000e-03
1018000000.0 -1.000365000e+00 -4.523000000e-03
1022500000.0 -1.003933000e+00 -9.098000000e-03
1027000000.0 -1.002690000e+00 -3.875000000e-03
1031500000.0 -1.001503000e+00 -6.080000000e-03
1036000000.0 -1.002740000e+00 -3.058000000e-03
1040500000.0 -1.001136000e+00 9.080000000e-04
1045000000.0 -1.001518000e+00 2.319000000e-03
1049500000.0 -1.000428000e+00 -7.574000000e-03
1054000000.0 -9.987770000e-01 -5.080000000e-03
1058500000.0 -1.001848000e+00 -6.144000000e-03
1063000000.0 -1.000135000e+00 -8.422000000e-03
1067500000.0 -1.001595000e+00 -8.411000000e-03
1072000000.0 -1.005770000e+00 -6.501000000e-03
1076500000.0 -1.004789000e+00 -8.851000000e-03
1081000000.0 -1.007326000e+00 -1.398100000e-02
1085500000.0 -1.003287000e+00 -1.218500000e-02
1090000000.0 -1.004428000e+00 -8.114000000e-03
1094500000.0 -1.009100000e+00 -6.202000000e-03
1099000000.0 -1.004589000e+00 -1.237800000e-02
1103500000.0 -1.004116000e+00 -1.233200000e-02
1108000000.0 -1.007061000e+00 -8.593000000e-03
1112500000.0 -1.008076000e+00 -8.499000000e-03
1117000000.0 -1.005969000e+00 -5.420000000e-03
1121500000.0 -1.006657000e+00 -1.255500000e-02
1126000000.0 -1.020402000e+00 -3.534700000e-02
1130500000.0 -1.011977000e+00 -6.909000000e-03
1135000000.0 -1.007247000e+00 -1.783200000e-02
1139500000.0 -9.964230000e-01 2.527000000e-02
1144000000.0 -1.010017000e+00 -1.170500000e-02
1148500000.0 -1.005017000e+00 -5.502000000e-03
1153000000.0 -1.006804000e+00 -5.657000000e-03
1157500000.0 -1.006010000e+00 5.719000000e-03
1162000000.0 -1.005332000e+00 -1.227200000e-02
1166500000.0 -1.006567000e+00 -2.678000000e-03
1171000000.0 -1.001708000e+00 -2.567000000e-03
1175500000.0 -9.992200000e-01 -5.228000000e-03
1180000000.0 -1.001465000e+00 -8.084000000e-03
1184500000.0 -9.959880000e-01 -2.846000000e-03
1189000000.0 -1.004296000e+00 -1.860000000e-04
1193500000.0 -9.988740000e-01 -1.323000000e-03
1198000000.0 -9.957130000e-01 -1.110000000e-04
1202500000.0 -9.907400000e-01 -6.789000000e-03
1207000000.0 -9.980330000e-01 -6.249000000e-03
1211500000.0 -1.000765000e+00 -1.258700000e-02
1216000000.0 -9.986050000e-01 6.470000000e-04
1220500000.0 -1.006019000e+00 -3.741000000e-03
1225000000.0 -1.007638000e+00 -4.885000000e-03
1229500000.0 -1.003988000e+00 -5.902000000e-03
1234000000.0 -1.003903000e+00 -2.170000000e-03
1238500000.0 -1.003319000e+00 -7.164000000e-03
1243000000.0 -1.000636000e+00 -5.449000000e-03
1247500000.0 -1.005855000e+00 -7.575000000e-03
1252000000.0 -1.002510000e+00 -1.047300000e-02
1256500000.0 -1.005903000e+00 -1.015200000e-02
1261000000.0 -1.008258000e+00 -8.179000000e-03
1265500000.0 -1.003776000e+00 -9.034000000e-03
1270000000.0 -1.008113000e+00 -9.051000000e-03
1274500000.0 -1.006928000e+00 -5.974000000e-03
1279000000.0 -1.006898000e+00 6.100000000e-05
1283500000.0 -1.004223000e+00 -3.242000000e-03
1288000000.0 -9.982890000e-01 -9.553000000e-03
1292500000.0 -1.005630000e+00 -2.440000000e-04
1297000000.0 -9.989670000e-01 -6.860000000e-04
1301500000.0 -1.004317000e+00 -1.127400000e-02
1306000000.0 -9.891670000e-01 3.394000000e-02
1310500000.0 -1.002553000e+00 -3.712000000e-03
1315000000.0 -1.003155000e+00 -9.019000000e-03
1319500000.0 -9.980000000e-01 -7.927000000e-03
1324000000.0 -1.002542000e+00 -5.122000000e-03
1328500000.0 -9.967040000e-01 -3.877000000e-03
1333000000.0 -9.984440000e-01 -7.792000000e-03
1337500000.0 -9.912100000e-01 -1.131000000e-03
1342000000.0 -9.903550000e-01 8.540000000e-04
1346500000.0 -9.963760000e-01 -5.756000000e-03
1351000000.0 -9.946210000e-01 -4.683000000e-03
1355500000.0 -9.879940000e-01 2.622000000e-03
1360000000.0 -9.973370000e-01 -2.307000000e-03
1364500000.0 -9.993590000e-01 -4.060000000e-04
1369000000.0 -9.989530000e-01 -1.062600000e-02
1373500000.0 -1.000165000e+00 4.522000000e-03
1378000000.0 -9.958730000e-01 -2.255000000e-03
1382500000.0 -1.002795000e+00 -2.626000000e-03
1387000000.0 -1.004758000e+00 4.972000000e-03
1391500000.0 -1.001335000e+00 -2.772000000e-03
1396000000.0 -1.001459000e+00 8.042000000e-03
1400500000.0 -1.014765000e+00 -7.975000000e-03
1405000000.0 -1.009032000e+00 -6.728000000e-03
1409500000.0 -1.011847000e+00 -3.240000000e-04
1414000000.0 -1.011448000e+00 5.800000000e-04
1418500000.0 -1.007827000e+00 -7.356000000e-03
1423000000.0 -1.014653000e+00 -6.850000000e-03
1427500000.0 -1.017162000e+00 -1.906100000e-02
1432000000.0 -1.009704000e+00 -1.241400000e-02
1436500000.0 -1.013032000e+00 -5.560000000e-03
1441000000.0 -1.006361000e+00 -3.773000000e-03
1445500000.0 -1.009849000e+00 -6.304000000e-03
1450000000.0 -1.008699000e+00 -8.122000000e-03
