! piloto_deriva / sol_corto / r03
# HZ S RI R 50
50000.0 -9.985460000e-01 -3.738100000e-02
59500.0 -9.954230000e-01 -1.707500000e-02
69000.0 -9.965740000e-01 -4.497000000e-03
78500.0 -9.989910000e-01 -1.366000000e-03
88000.0 -1.000104000e+00 6.780000000e-04
97500.0 -1.000197000e+00 1.940000000e-04
107000.0 -9.989330000e-01 -2.000000000e-03
116500.0 -9.999740000e-01 -6.138000000e-03
126000.0 -9.991390000e-01 -1.003300000e-02
135500.0 -1.000388000e+00 -1.499100000e-02
145000.0 -9.995560000e-01 -2.235200000e-02
154500.0 -1.000190000e+00 -2.831100000e-02
164000.0 -1.000032000e+00 -3.575500000e-02
173500.0 -1.000440000e+00 -4.388600000e-02
183000.0 -9.997210000e-01 -5.194700000e-02
192500.0 -9.997820000e-01 -5.940200000e-02
202000.0 -9.996130000e-01 -6.815300000e-02
211500.0 -1.000148000e+00 -7.668100000e-02
221000.0 -1.000786000e+00 -8.561900000e-02
230500.0 -1.000257000e+00 -9.446800000e-02
240000.0 -1.001704000e+00 -1.027280000e-01
249500.0 -1.050142000e+00 -9.370300000e-02
259000.0 -1.000929000e+00 -1.205550000e-01
268500.0 -1.001510000e+00 -1.302900000e-01
278000.0 -1.001640000e+00 -1.398080000e-01
287500.0 -1.001381000e+00 -1.494290000e-01
297000.0 -1.001631000e+00 -1.586330000e-01
306500.0 -1.001830000e+00 -1.679540000e-01
316000.0 -1.002884000e+00 -1.767880000e-01
325500.0 -1.002264000e+00 -1.865120000e-01
335000.0 -1.002357000e+00 -1.964950000e-01
344500.0 -1.002966000e+00 -2.045610000e-01
354000.0 -1.002984000e+00 -2.148350000e-01
363500.0 -1.003815000e+00 -2.234840000e-01
373000.0 -1.003750000e+00 -2.332430000e-01
382500.0 -1.003733000e+00 -2.428220000e-01
392000.0 -1.004371000e+00 -2.511540000e-01
401500.0 -1.004515000e+00 -2.603090000e-01
411000.0 -1.004732000e+00 -2.706020000e-01
420500.0 -1.004952000e+00 -2.795620000e-01
430000.0 -1.005459000e+00 -2.885920000e-01
439500.0 -1.005275000e+00 -2.982520000e-01
449000.0 -1.005145000e+00 -3.074730000e-01
458500.0 -1.005895000e+00 -3.167660000e-01
468000.0 -1.006477000e+00 -3.257320000e-01
477500.0 -1.006137000e+00 -3.350050000e-01
487000.0 -1.006083000e+00 -3.448220000e-01
496500.0 -1.006649000e+00 -3.545980000e-01
506000.0 -1.007758000e+00 -3.631640000e-01
515500.0 -1.007026000e+00 -3.722050000e-01
525000.0 -1.008022000e+00 -3.815850000e-01
534500.0 -1.007413000e+00 -3.904480000e-01
544000.0 -1.007592000e+00 -3.995650000e-01
553500.0 -1.007958000e+00 -4.100060000e-01
563000.0 -1.009172000e+00 -4.180710000e-01
572500.0 -1.008113000e+00 -4.271810000e-01
582000.0 -1.009772000e+00 -4.366160000e-01
591500.0 -1.009525000e+00 -4.458590000e-01
601000.0 -1.010109000e+00 -4.537300000e-01
610500.0 -1.010598000e+00 -4.640400000e-01
620000.0 -1.011134000e+00 -4.731820000e-01
629500.0 -1.011505000e+00 -4.825930000e-01
639000.0 -1.012681000e+00 -4.911750000e-01
648500.0 -1.013533000e+00 -4.999950000e-01
658000.0 -1.013896000e+00 -5.097950000e-01
667500.0 -1.014400000e+00 -5.185990000e-01
677000.0 -1.015286000e+00 -5.271610000e-01
686500.0 -1.015031000e+00 -5.374460000e-01
696000.0 -1.015486000e+00 -5.454760000e-01
705500.0 -1.017436000e+00 -5.545210000e-01
715000.0 -1.018571000e+00 -5.628920000e-01
724500.0 -1.019182000e+00 -5.720210000e-01
734000.0 -1.019612000e+00 -5.806920000e-01
743500.0 -1.020719000e+00 -5.895380000e-01
753000.0 -1.021644000e+00 -5.992720000e-01
762500.0 -1.022671000e+00 -6.072290000e-01
772000.0 -1.023105000e+00 -6.172170000e-01
781500.0 -1.024899000e+00 -6.264380000e-01
791000.0 -1.015727000e+00 -6.531450000e-01
800500.0 -1.036523000e+00 -6.236050000e-01
810000.0 -1.019022000e+00 -6.724960000e-01
819500.0 -1.039829000e+00 -6.402240000e-01
829000.0 -1.020761000e+00 -6.888970000e-01
838500.0 -1.041221000e+00 -6.585370000e-01
848000.0 -1.023096000e+00 -7.058910000e-01
857500.0 -1.035890000e+00 -6.964210000e-01
867000.0 -1.037174000e+00 -7.036650000e-01
876500.0 -1.037984000e+00 -7.129710000e-01
886000.0 -1.040743000e+00 -7.215910000e-01
895500.0 -1.040957000e+00 -7.298380000e-01
905000.0 -1.043188000e+00 -7.400520000e-01
914500.0 -1.045370000e+00 -7.451760000e-01
924000.0 -1.047345000e+00 -7.556740000e-01
933500.0 -1.049570000e+00 -7.642800000e-01
943000.0 -1.051323000e+00 -7.726430000e-01
952500.0 -1.053991000e+00 -7.825530000e-01
962000.0 -1.056379000e+00 -7.894990000e-01
971500.0 -1.058942000e+00 -7.977730000e-01
981000.0 -1.062129000e+00 -8.052590000e-01
990500.0 -1.064892000e+00 -8.142980000e-01
1000000.0 -1.066094000e+00 -8.237980000e-01
1090000.0 -1.096541000e+00 -9.002870000e-01
1180000.0 -1.130593000e+00 -9.730680000e-01
1270000.0 -1.178074000e+00 -1.042503000e+00
1360000.0 -1.235374000e+00 -1.099594000e+00
1450000.0 -1.301705000e+00 -1.152926000e+00
1540000.0 -1.377409000e+00 -1.191245000e+00
1630000.0 -1.462679000e+00 -1.207404000e+00
1720000.0 -1.553446000e+00 -1.213624000e+00
1810000.0 -1.643804000e+00 -1.192813000e+00
1900000.0 -1.726319000e+00 -1.147944000e+00
1990000.0 -1.802615000e+00 -1.082574000e+00
2080000.0 -1.857546000e+00 -1.007852000e+00
2170000.0 -1.897424000e+00 -9.241060000e-01
2260000.0 -1.912543000e+00 -8.293590000e-01
2350000.0 -1.912577000e+00 -7.385750000e-01
2440000.0 -1.899639000e+00 -6.514780000e-01
2530000.0 -1.875103000e+00 -5.731900000e-01
2620000.0 -1.839959000e+00 -5.026990000e-01
2710000.0 -1.804771000e+00 -4.436110000e-01
2800000.0 -1.763094000e+00 -3.887530000e-01
2890000.0 -1.718579000e+00 -3.439470000e-01
2980000.0 -1.676465000e+00 -3.038040000e-01
3070000.0 -1.636311000e+00 -2.742020000e-01
3160000.0 -1.596727000e+00 -2.446740000e-01
3250000.0 -1.560625000e+00 -2.160510000e-01
3340000.0 -1.523289000e+00 -1.951320000e-01
3430000.0 -1.490943000e+00 -1.737230000e-01
3520000.0 -1.461585000e+00 -1.546890000e-01
3610000.0 -1.431871000e+00 -1.380220000e-01
3700000.0 -1.405456000e+00 -1.224090000e-01
3790000.0 -1.379645000e+00 -1.070050000e-01
3880000.0 -1.355551000e+00 -9.156200000e-02
3970000.0 -1.333925000e+00 -8.081700000e-02
4060000.0 -1.316128000e+00 -6.647200000e-02
4150000.0 -1.296885000e+00 -5.534600000e-02
4240000.0 -1.280506000e+00 -4.199800000e-02
4330000.0 -1.264419000e+00 -3.109300000e-02
4420000.0 -1.251611000e+00 -1.851000000e-02
4510000.0 -1.237889000e+00 -8.296000000e-03
4600000.0 -1.224990000e+00 3.763000000e-03
4690000.0 -1.214754000e+00 1.525200000e-02
4780000.0 -1.205213000e+00 2.560600000e-02
4870000.0 -1.195435000e+00 3.711400000e-02
4960000.0 -1.188325000e+00 4.874900000e-02
5050000.0 -1.173351000e+00 5.954300000e-02
5140000.0 -1.167886000e+00 6.983600000e-02
5230000.0 -1.162615000e+00 8.041100000e-02
5320000.0 -1.157106000e+00 9.075200000e-02
5410000.0 -1.152651000e+00 1.021690000e-01
5500000.0 -1.147827000e+00 1.111780000e-01
5590000.0 -1.143834000e+00 1.213530000e-01
5680000.0 -1.139910000e+00 1.322150000e-01
5770000.0 -1.135961000e+00 1.422450000e-01
5860000.0 -1.132813000e+00 1.512160000e-01
5950000.0 -1.128822000e+00 1.597500000e-01
6040000.0 -1.125540000e+00 1.691390000e-01
6130000.0 -1.123010000e+00 1.774530000e-01
6220000.0 -1.120218000e+00 1.847630000e-01
6310000.0 -1.117257000e+00 1.924600000e-01
6400000.0 -1.115384000e+00 2.006200000e-01
6490000.0 -1.113859000e+00 2.063110000e-01
6580000.0 -1.111131000e+00 2.129730000e-01
6670000.0 -1.109178000e+00 2.193040000e-01
6760000.0 -1.107131000e+00 2.249160000e-01
6850000.0 -1.106357000e+00 2.288240000e-01
6940000.0 -1.105046000e+00 2.320920000e-01
7030000.0 -1.103930000e+00 2.361070000e-01
7120000.0 -1.104202000e+00 2.391360000e-01
7210000.0 -1.102641000e+00 2.410000000e-01
7300000.0 -1.101714000e+00 2.416120000e-01
7390000.0 -1.102030000e+00 2.424240000e-01
7480000.0 -1.102607000e+00 2.437060000e-01
7570000.0 1.952690000e-01 1.074920000e+00
7660000.0 1.950420000e-01 1.074400000e+00
7750000.0 1.942900000e-01 1.074127000e+00
7840000.0 1.930710000e-01 1.075068000e+00
7930000.0 1.919800000e-01 1.075730000e+00
8020000.0 1.907340000e-01 1.075344000e+00
8110000.0 1.915470000e-01 1.075871000e+00
8200000.0 1.904900000e-01 1.075752000e+00
8290000.0 1.901230000e-01 1.076601000e+00
8380000.0 1.889170000e-01 1.077461000e+00
8470000.0 1.883760000e-01 1.077427000e+00
8560000.0 1.884810000e-01 1.077474000e+00
8650000.0 1.873290000e-01 1.078859000e+00
8740000.0 1.852850000e-01 1.079725000e+00
8830000.0 1.854810000e-01 1.079012000e+00
8920000.0 1.843910000e-01 1.081572000e+00
9010000.0 1.835290000e-01 1.081659000e+00
9100000.0 1.830550000e-01 1.081478000e+00
9190000.0 1.829010000e-01 1.081350000e+00
9280000.0 1.825540000e-01 1.083530000e+00
9370000.0 1.820260000e-01 1.083699000e+00
9460000.0 1.805740000e-01 1.083813000e+00
9550000.0 1.807090000e-01 1.083522000e+00
9640000.0 1.792180000e-01 1.085020000e+00
9730000.0 1.783510000e-01 1.085807000e+00
9820000.0 1.775660000e-01 1.085563000e+00
9910000.0 1.765670000e-01 1.087350000e+00
10000000.0 1.769510000e-01 1.086365000e+00
10900000.0 1.700190000e-01 1.094419000e+00
11800000.0 1.643670000e-01 1.102281000e+00
12700000.0 1.574870000e-01 1.110510000e+00
13600000.0 1.503970000e-01 1.118087000e+00
14500000.0 1.438690000e-01 1.127420000e+00
15400000.0 1.379760000e-01 1.136328000e+00
16300000.0 1.307160000e-01 1.146172000e+00
17200000.0 1.243600000e-01 1.153675000e+00
18100000.0 1.169200000e-01 1.164441000e+00
19000000.0 1.095130000e-01 1.172762000e+00
19900000.0 1.022990000e-01 1.183624000e+00
20800000.0 9.355100000e-02 1.192637000e+00
21700000.0 8.493800000e-02 1.201624000e+00
22600000.0 7.554500000e-02 1.210856000e+00
23500000.0 6.617500000e-02 1.221779000e+00
24400000.0 5.817400000e-02 1.230833000e+00
25300000.0 4.663000000e-02 1.240690000e+00
26200000.0 3.697600000e-02 1.251809000e+00
27100000.0 2.553700000e-02 1.262057000e+00
28000000.0 1.542800000e-02 1.271984000e+00
28900000.0 2.396000000e-03 1.281299000e+00
29800000.0 -8.855000000e-03 1.291288000e+00
30700000.0 -2.118100000e-02 1.302572000e+00
31600000.0 -3.351500000e-02 1.312307000e+00
32500000.0 -4.835600000e-02 1.322571000e+00
33400000.0 -6.265100000e-02 1.331822000e+00
34300000.0 -7.583300000e-02 1.341577000e+00
35200000.0 -9.067200000e-02 1.352155000e+00
36100000.0 -1.061470000e-01 1.360790000e+00
37000000.0 -1.221110000e-01 1.372213000e+00
37900000.0 -1.366000000e-01 1.378713000e+00
38800000.0 -1.547460000e-01 1.388723000e+00
39700000.0 -1.701330000e-01 1.397839000e+00
40600000.0 -1.881940000e-01 1.405802000e+00
41500000.0 -2.072300000e-01 1.412840000e+00
42400000.0 -2.246300000e-01 1.421370000e+00
43300000.0 -2.429670000e-01 1.427524000e+00
44200000.0 -2.626090000e-01 1.434974000e+00
45100000.0 -2.823990000e-01 1.441629000e+00
46000000.0 -3.015230000e-01 1.448622000e+00
46900000.0 -3.233680000e-01 1.453684000e+00
47800000.0 -3.432180000e-01 1.459795000e+00
48700000.0 -3.651910000e-01 1.464163000e+00
49600000.0 -3.871620000e-01 1.468269000e+00
50500000.0 -4.099910000e-01 1.471822000e+00
51400000.0 -4.307100000e-01 1.476054000e+00
52300000.0 -4.536960000e-01 1.477433000e+00
53200000.0 -4.754100000e-01 1.478593000e+00
54100000.0 -4.996970000e-01 1.481273000e+00
55000000.0 -5.237350000e-01 1.481482000e+00
55900000.0 -5.475110000e-01 1.481719000e+00
56800000.0 -5.709080000e-01 1.481394000e+00
57700000.0 -5.963640000e-01 1.481164000e+00
58600000.0 -6.185980000e-01 1.477427000e+00
59500000.0 -6.435710000e-01 1.474607000e+00
60400000.0 -6.680160000e-01 1.473362000e+00
61300000.0 -6.912260000e-01 1.468071000e+00
62200000.0 -7.158330000e-01 1.461986000e+00
63100000.0 -7.400570000e-01 1.457056000e+00
64000000.0 -7.652130000e-01 1.452370000e+00
64900000.0 -7.872960000e-01 1.443561000e+00
65800000.0 -8.128960000e-01 1.435097000e+00
66700000.0 -8.355320000e-01 1.427011000e+00
67600000.0 -8.602130000e-01 1.418443000e+00
68500000.0 -8.837670000e-01 1.408554000e+00
69400000.0 -9.080610000e-01 1.398771000e+00
70300000.0 -9.301500000e-01 1.386235000e+00
71200000.0 -9.531710000e-01 1.374708000e+00
72100000.0 -9.744200000e-01 1.362314000e+00
73000000.0 -9.984160000e-01 1.347743000e+00
73900000.0 -1.020793000e+00 1.333623000e+00
74800000.0 -1.038754000e+00 1.319404000e+00
75700000.0 -1.061495000e+00 1.304827000e+00
76600000.0 -1.081712000e+00 1.288916000e+00
77500000.0 -1.101262000e+00 1.272877000e+00
78400000.0 -1.121039000e+00 1.255189000e+00
79300000.0 -1.139187000e+00 1.237453000e+00
80200000.0 -1.157739000e+00 1.218493000e+00
81100000.0 -1.175550000e+00 1.201236000e+00
82000000.0 -1.192195000e+00 1.181432000e+00
82900000.0 -1.210204000e+00 1.162230000e+00
83800000.0 -1.224691000e+00 1.142089000e+00
84700000.0 -1.240988000e+00 1.123413000e+00
85600000.0 -1.256475000e+00 1.101425000e+00
86500000.0 -1.269050000e+00 1.080304000e+00
87400000.0 -1.282698000e+00 1.057474000e+00
88300000.0 -1.294970000e+00 1.035817000e+00
89200000.0 -1.307475000e+00 1.013028000e+00
90100000.0 -1.319337000e+00 9.908210000e-01
91000000.0 -1.327778000e+00 9.686760000e-01
91900000.0 -1.336940000e+00 9.464600000e-01
92800000.0 -1.346362000e+00 9.226150000e-01
93700000.0 -1.354140000e+00 9.013690000e-01
94600000.0 -1.363506000e+00 8.771220000e-01
95500000.0 -1.369534000e+00 8.548540000e-01
96400000.0 -1.375118000e+00 8.295210000e-01
97300000.0 -1.379450000e+00 8.070270000e-01
98200000.0 -1.384724000e+00 7.840260000e-01
99100000.0 -1.388138000e+00 7.620030000e-01
100000000.0 -1.390200000e+00 7.386790000e-01
109000000.0 -1.385407000e+00 5.212360000e-01
118000000.0 -1.330893000e+00 3.390740000e-01
127000000.0 -1.248532000e+00 2.010250000e-01
136000000.0 -1.133960000e+00 9.910900000e-02
145000000.0 -1.046296000e+00 2.990900000e-02
154000000.0 -1.000806000e+00 -1.082000000e-03
163000000.0 -1.002787000e+00 -4.282000000e-03
172000000.0 -1.004123000e+00 -5.723000000e-03
181000000.0 -1.006447000e+00 -8.936000000e-03
190000000.0 -1.007931000e+00 -8.801000000e-03
199000000.0 -1.008427000e+00 -9.353000000e-03
208000000.0 -1.009595000e+00 -1.122600000e-02
217000000.0 -1.010239000e+00 -1.066900000e-02
226000000.0 -1.011065000e+00 -1.096400000e-02
235000000.0 -1.010478000e+00 -1.082300000e-02
244000000.0 -1.009825000e+00 -1.149100000e-02
253000000.0 -1.009179000e+00 -1.004700000e-02
262000000.0 -1.008074000e+00 -8.645000000e-03
271000000.0 -1.007240000e+00 -6.892000000e-03
280000000.0 -1.005122000e+00 -6.270000000e-03
289000000.0 -1.002742000e+00 -3.859000000e-03
298000000.0 -9.997160000e-01 -1.327000000e-03
307000000.0 -1.002503000e+00 -4.060000000e-04
316000000.0 -1.005172000e+00 -8.950000000e-04
325000000.0 -1.008105000e+00 -1.341000000e-03
334000000.0 -1.011818000e+00 -3.542000000e-03
343000000.0 -1.013005000e+00 -2.519000000e-03
352000000.0 -1.020796000e+00 -3.724800000e-02
361000000.0 -1.013483000e+00 -3.911000000e-03
370000000.0 -1.022901000e+00 -3.834700000e-02
379000000.0 -1.014342000e+00 -5.130000000e-03
388000000.0 -9.974640000e-01 2.497300000e-02
397000000.0 -1.013423000e+00 -3.305000000e-03
406000000.0 -1.010999000e+00 1.427600000e-02
415000000.0 -1.012977000e+00 -3.808500000e-02
424000000.0 -1.008679000e+00 -9.180000000e-04
433000000.0 -1.006285000e+00 -2.088000000e-03
442000000.0 -1.000822000e+00 -1.855000000e-03
451000000.0 -1.000643000e+00 1.477000000e-03
460000000.0 -1.004228000e+00 4.660000000e-04
469000000.0 -1.007745000e+00 2.319000000e-03
478000000.0 -1.009287000e+00 2.490000000e-03
487000000.0 -1.012840000e+00 5.262000000e-03
496000000.0 -1.013194000e+00 3.997000000e-03
505000000.0 -1.016486000e+00 2.984000000e-03
514000000.0 -1.016503000e+00 3.883000000e-03
523000000.0 -1.018490000e+00 1.386000000e-03
532000000.0 -1.016716000e+00 2.793000000e-03
541000000.0 -1.016531000e+00 2.888000000e-03
550000000.0 -1.017336000e+00 3.133000000e-03
559000000.0 -1.011639000e+00 4.621000000e-03
568000000.0 -1.012220000e+00 3.906000000e-03
577000000.0 -1.008612000e+00 8.460000000e-04
586000000.0 -1.006645000e+00 -8.760000000e-04
595000000.0 -1.003817000e+00 -1.950000000e-04
604000000.0 -1.003224000e+00 1.440000000e-03
613000000.0 -1.005822000e+00 4.365000000e-03
622000000.0 -1.006605000e+00 5.585000000e-03
631000000.0 -1.007421000e+00 1.056300000e-02
640000000.0 -1.009690000e+00 9.198000000e-03
649000000.0 -1.008777000e+00 8.858000000e-03
658000000.0 -1.010134000e+00 1.126100000e-02
667000000.0 -1.007067000e+00 1.645300000e-02
676000000.0 -1.011884000e+00 1.263300000e-02
685000000.0 -1.011646000e+00 1.561500000e-02
694000000.0 -1.011541000e+00 1.188800000e-02
703000000.0 -1.015470000e+00 -9.143000000e-03
712000000.0 -1.005515000e+00 1.452800000e-02
721000000.0 -1.006399000e+00 7.257000000e-03
730000000.0 -1.003958000e+00 4.274000000e-03
739000000.0 -1.000009000e+00 4.723000000e-03
748000000.0 -9.999020000e-01 1.316000000e-03
757000000.0 -9.980060000e-01 2.198000000e-03
766000000.0 -9.986440000e-01 5.482000000e-03
775000000.0 -9.988800000e-01 6.577000000e-03
784000000.0 -9.985980000e-01 2.456700000e-02
793000000.0 -9.968580000e-01 9.538000000e-03
802000000.0 -1.000216000e+00 -1.066800000e-02
811000000.0 -9.976280000e-01 7.099000000e-03
820000000.0 -9.962720000e-01 6.633000000e-03
829000000.0 -9.997540000e-01 5.036000000e-03
838000000.0 -9.961950000e-01 8.058000000e-03
847000000.0 -9.991410000e-01 1.044300000e-02
856000000.0 -9.945300000e-01 2.198300000e-02
865000000.0 -9.984430000e-01 -2.702000000e-03
874000000.0 -9.989470000e-01 -1.659900000e-02
883000000.0 -1.001156000e+00 -4.496000000e-03
892000000.0 -9.957150000e-01 3.194000000e-03
901000000.0 -9.990470000e-01 -4.600000000e-03
910000000.0 -9.943860000e-01 -4.865000000e-03
919000000.0 -9.988430000e-01 1.013000000e-03
928000000.0 -1.000345000e+00 -8.839000000e-03
937000000.0 -9.980700000e-01 -2.958000000e-03
946000000.0 -9.995700000e-01 -8.737000000e-03
955000000.0 -1.000121000e+00 -7.704000000e-03
964000000.0 -1.000740000e+00 -1.089300000e-02
973000000.0 -1.000252000e+00 -5.882000000e-03
982000000.0 -1.001473000e+00 -5.718000000e-03
991000000.0 -1.001091000e+00 -1.211300000e-02
1000000000.0 -1.002285000e+00 -9.059000000e-03
1004500000.0 -1.001299000e+00 -3.942000000e-03
1009000000.0 -1.004138000e+00 -1.035200000e-02
1013500000.0 -1.000370000e+00 -8.819000000e-03
1018000000.0 -1.002599000e+00 -1.011800000e-02
1022500000.0 -9.994530000e-01 -3.601000000e-03
1027000000.0 -1.000813000e+00 -9.011000000e-03
1031500000.0 -1.000252000e+00 -4.123000000e-03
1036000000.0 -1.002617000e+00 -1.291500000e-02
1040500000.0 -1.001108000e+00 -7.188000000e-03
1045000000.0 -1.002694000e+00 -3.381000000e-03
1049500000.0 -9.984670000e-01 -3.595000000e-03
1054000000.0 -1.001941000e+00 -6.787000000e-03
1058500000.0 -1.004723000e+00 -7.424000000e-03
1063000000.0 -1.000293000e+00 -9.586000000e-03
1067500000.0 -1.001515000e+00 -1.212100000e-02
1072000000.0 -1.004626000e+00 -1.123600000e-02
1076500000.0 -1.005408000e+00 -7.122000000e-03
1081000000.0 -1.005452000e+00 -1.140400000e-02
1085500000.0 -1.006743000e+00 -1.329300000e-02
1090000000.0 -1.005512000e+00 -1.129800000e-02
1094500000.0 -1.002690000e+00 -1.062900000e-02
1099000000.0 -1.006562000e+00 -8.666000000e-03
1103500000.0 -1.003819000e+00 -1.074700000e-02
1108000000.0 -1.005745000e+00 -1.391500000e-02
1112500000.0 -1.007966000e+00 -1.198100000e-02
1117000000.0 -1.004629000e+00 -7.190000000e-03
1121500000.0 -9.955630000e-01 2.672800000e-02
1126000000.0 -1.014732000e+00 -2.512100000e-02
1130500000.0 -1.023758000e+00 -6.205700000e-02
1135000000.0 -1.011537000e+00 -4.112800000e-02
1139500000.0 -1.007276000e+00 -8.599000000e-03
1144000000.0 -9.839150000e-01 4.276400000e-02
1148500000.0 -1.011815000e+00 -2.388100000e-02
1153000000.0 -1.008999000e+00 -2.120000000e-04
1157500000.0 -1.003205000e+00 -6.520000000e-03
1162000000.0 -1.002263000e+00 -1.054200000e-02
1166500000.0 -1.005604000e+00 -4.777000000e-03
1171000000.0 -9.994310000e-01 -9.969000000e-03
1175500000.0 -1.002396000e+00 -1.219500000e-02
1180000000.0 -1.005430000e+00 -4.677000000e-03
1184500000.0 -1.001799000e+00 -5.390000000e-04
1189000000.0 -1.001937000e+00 -1.310000000e-03
1193500000.0 -9.905240000e-01 5.254000000e-03
1198000000.0 -1.001233000e+00 -5.163000000e-03
1202500000.0 -9.930010000e-01 -3.884000000e-03
1207000000.0 -9.937540000e-01 -6.470000000e-04
1211500000.0 -9.995840000e-01 7.800000000e-04
1216000000.0 -9.952340000e-01 -5.929000000e-03
1220500000.0 -9.994240000e-01 -3.926000000e-03
1225000000.0 -1.003580000e+00 -8.020000000e-04
1229500000.0 -1.005401000e+00 -1.305300000e-02
1234000000.0 -1.000560000e+00 -6.039000000e-03
1238500000.0 -1.005068000e+00 3.878000000e-03
1243000000.0 -1.004668000e+00 -1.078100000e-02
1247500000.0 -1.004541000e+00 -1.040000000e-03
1252000000.0 -1.001147000e+00 -2.050000000e-04
1256500000.0 -1.005530000e+00 -5.474000000e-03
1261000000.0 -1.002784000e+00 -1.121400000e-02
1265500000.0 -1.005894000e+00 -1.343700000e-02
1270000000.0 -1.004340000e+00 -1.158000000e-03
1274500000.0 -1.006381000e+00 -1.004700000e-02
1279000000.0 -1.005654000e+00 -8.362000000e-03
1283500000.0 -1.002778000e+00 -4.788000000e-03
1288000000.0 -1.002134000e+00 -1.101100000e-02
1292500000.0 -1.004262000e+00 -2.428000000e-03
1297000000.0 -1.003786000e+00 -8.000000000e-04
1301500000.0 -1.001287000e+00 -1.751000000e-03
1306000000.0 -1.003811000e+00 -9.312000000e-03
1310500000.0 -1.002875000e+00 -8.604000000e-03
1315000000.0 -1.003895000e+00 -6.608000000e-03
1319500000.0 -1.004117000e+00 -3.815000000e-03
1324000000.0 -1.002177000e+00 -9.980000000e-03
1328500000.0 -1.001834000e+00 -8.796000000e-03
1333000000.0 -9.958080000e-01 -7.037000000e-03
1337500000.0 -9.973160000e-01 3.894000000e-03
1342000000.0 -9.945500000e-01 -5.227000000e-03
1346500000.0 -9.926310000e-01 3.708000000e-03
1351000000.0 -9.954020000e-01 -4.115000000e-03
1355500000.0 -9.915710000e-01 -7.740000000e-03
1360000000.0 -1.000095000e+00 -1.446000000e-03
1364500000.0 -9.985260000e-01 -3.961000000e-03
1369000000.0 -1.000811000e+00 -2.659000000e-03
1373500000.0 -9.986190000e-01 -5.723000000e-03
1378000000.0 -1.003235000e+00 -3.891000000e-03
1382500000.0 -1.006003000e+00 8.909000000e-03
1387000000.0 -1.008442000e+00 -5.816000000e-03
1391500000.0 -1.004108000e+00 -1.680000000e-04
1396000000.0 -1.008450000e+00 -3.219000000e-03
1400500000.0 -1.007880000e+00 1.705000000e-03
1405000000.0 -1.009688000e+00 -4.763000000e-03
1409500000.0 -1.006322000e+00 -1.029000000e-03
1414000000.0 -1.003238000e+00 -2.213000000e-03
1418500000.0 -1.010802000e+00 9.400000000e-05
1423000000.0 -1.011838000e+00 6.143000000e-03
1427500000.0 -1.008376000e+00 -9.310000000e-04
1432000000.0 -1.011422000e+00 -7.802000000e-03
1436500000.0 -1.013753000e+00 -2.335000000e-03
1441000000.0 -1.007563000e+00 -8.459000000e-03
1445500000.0 -1.012452000e+00 -1.607000000e-03
1450000000.0 -1.011416000e+00 -1.886000000e-03
