! piloto_deriva / corto_deriva / r54
# HZ S RI R 50
50000.0 -9.978470000e-01 -3.595600000e-02
59500.0 -1.000114000e+00 -1.808200000e-02
69000.0 -9.985960000e-01 -8.648000000e-03
78500.0 -9.995210000e-01 -1.400000000e-03
88000.0 -9.998250000e-01 -2.000000000e-06
97500.0 -9.994300000e-01 -4.200000000e-04
107000.0 -9.999770000e-01 -2.432000000e-03
116500.0 -9.995500000e-01 -6.668000000e-03
126000.0 -9.986320000e-01 -1.093500000e-02
135500.0 -9.994300000e-01 -1.646100000e-02
145000.0 -1.000851000e+00 -2.310400000e-02
154500.0 -9.999030000e-01 -2.993000000e-02
164000.0 -9.993160000e-01 -3.755300000e-02
173500.0 -9.995920000e-01 -4.364600000e-02
183000.0 -9.993890000e-01 -5.259200000e-02
192500.0 -9.993150000e-01 -6.078200000e-02
202000.0 -1.000156000e+00 -6.840100000e-02
211500.0 -1.000349000e+00 -7.697900000e-02
221000.0 -9.999820000e-01 -8.591700000e-02
230500.0 -1.000143000e+00 -9.469700000e-02
240000.0 -1.001209000e+00 -1.045210000e-01
249500.0 -1.001065000e+00 -1.134890000e-01
259000.0 -1.001129000e+00 -1.227070000e-01
268500.0 -1.001468000e+00 -1.318450000e-01
278000.0 -1.001686000e+00 -1.413050000e-01
287500.0 -1.000960000e+00 -1.497680000e-01
297000.0 -1.002396000e+00 -1.594510000e-01
306500.0 -1.002765000e+00 -1.685050000e-01
316000.0 -1.002831000e+00 -1.778730000e-01
325500.0 -1.002774000e+00 -1.876180000e-01
335000.0 -1.002450000e+00 -1.975410000e-01
344500.0 -1.002590000e+00 -2.063610000e-01
354000.0 -1.004292000e+00 -2.165800000e-01
363500.0 -1.003320000e+00 -2.251220000e-01
373000.0 -1.004072000e+00 -2.342570000e-01
382500.0 -1.003707000e+00 -2.429940000e-01
392000.0 -1.004883000e+00 -2.535290000e-01
401500.0 -1.004509000e+00 -2.620490000e-01
411000.0 -1.004615000e+00 -2.722620000e-01
420500.0 -1.004859000e+00 -2.798680000e-01
430000.0 -1.004836000e+00 -2.907180000e-01
439500.0 -1.005401000e+00 -3.004520000e-01
449000.0 -1.005860000e+00 -3.090610000e-01
458500.0 -1.005134000e+00 -3.183050000e-01
468000.0 -1.007438000e+00 -3.275570000e-01
477500.0 -1.006541000e+00 -3.367190000e-01
487000.0 -1.006853000e+00 -3.458510000e-01
496500.0 -1.007609000e+00 -3.551620000e-01
506000.0 -1.006849000e+00 -3.649690000e-01
515500.0 -1.007373000e+00 -3.744790000e-01
525000.0 -1.007249000e+00 -3.837650000e-01
534500.0 -1.007944000e+00 -3.928860000e-01
544000.0 -1.008540000e+00 -4.021010000e-01
553500.0 -1.008868000e+00 -4.103050000e-01
563000.0 -1.010195000e+00 -4.210090000e-01
572500.0 -1.009213000e+00 -4.296570000e-01
582000.0 -1.008484000e+00 -4.393110000e-01
591500.0 -1.011006000e+00 -4.475470000e-01
601000.0 -1.010991000e+00 -4.567980000e-01
610500.0 -1.010844000e+00 -4.659930000e-01
620000.0 -1.012014000e+00 -4.745640000e-01
629500.0 -1.011702000e+00 -4.847810000e-01
639000.0 -1.013231000e+00 -4.936650000e-01
648500.0 -1.014060000e+00 -5.013710000e-01
658000.0 -1.013485000e+00 -5.107900000e-01
667500.0 -1.014748000e+00 -5.200990000e-01
677000.0 -1.015946000e+00 -5.292220000e-01
686500.0 -1.016548000e+00 -5.395580000e-01
696000.0 -1.017395000e+00 -5.470560000e-01
705500.0 -1.017491000e+00 -5.573040000e-01
715000.0 -1.019364000e+00 -5.659300000e-01
724500.0 -1.019686000e+00 -5.745050000e-01
734000.0 -1.021405000e+00 -5.824890000e-01
743500.0 -1.021603000e+00 -5.930920000e-01
753000.0 -1.022053000e+00 -6.011370000e-01
762500.0 -1.023237000e+00 -6.108870000e-01
772000.0 -1.024124000e+00 -6.198400000e-01
781500.0 -1.025047000e+00 -6.272700000e-01
791000.0 -1.027552000e+00 -6.359690000e-01
800500.0 -1.027915000e+00 -6.457080000e-01
810000.0 -1.030490000e+00 -6.548220000e-01
819500.0 -1.031901000e+00 -6.638680000e-01
829000.0 -1.032990000e+00 -6.729340000e-01
838500.0 -1.032988000e+00 -6.814590000e-01
848000.0 -1.034098000e+00 -6.904110000e-01
857500.0 -1.037307000e+00 -6.988430000e-01
867000.0 -1.038247000e+00 -7.069380000e-01
876500.0 -1.039582000e+00 -7.164260000e-01
886000.0 -1.042251000e+00 -7.252090000e-01
895500.0 -1.044927000e+00 -7.335970000e-01
905000.0 -1.045592000e+00 -7.415310000e-01
914500.0 -1.047238000e+00 -7.502380000e-01
924000.0 -1.050215000e+00 -7.584070000e-01
933500.0 -1.051074000e+00 -7.679190000e-01
943000.0 -1.055685000e+00 -7.759790000e-01
952500.0 -1.057113000e+00 -7.829000000e-01
962000.0 -1.059087000e+00 -7.930580000e-01
971500.0 -1.061694000e+00 -8.020280000e-01
981000.0 -1.062457000e+00 -8.106910000e-01
990500.0 -1.067171000e+00 -8.186960000e-01
1000000.0 -1.069628000e+00 -8.272210000e-01
1090000.0 -1.098042000e+00 -9.061310000e-01
1180000.0 -1.136443000e+00 -9.771210000e-01
1270000.0 -1.184486000e+00 -1.048060000e+00
1360000.0 -1.243219000e+00 -1.107661000e+00
1450000.0 -1.310951000e+00 -1.158327000e+00
1540000.0 -1.389237000e+00 -1.191411000e+00
1630000.0 -1.472971000e+00 -1.211437000e+00
1720000.0 -1.564626000e+00 -1.206473000e+00
1810000.0 -1.636884000e+00 -1.219572000e+00
1900000.0 -1.757074000e+00 -1.108987000e+00
1990000.0 -1.793180000e+00 -1.113819000e+00
2080000.0 -1.880615000e+00 -9.641030000e-01
2170000.0 -1.887266000e+00 -9.422030000e-01
2260000.0 -1.928488000e+00 -7.799360000e-01
2350000.0 -1.906540000e+00 -7.641410000e-01
2440000.0 -1.901261000e+00 -6.414110000e-01
2530000.0 -1.874370000e+00 -5.633520000e-01
2620000.0 -1.839934000e+00 -4.943450000e-01
2710000.0 -1.799922000e+00 -4.352700000e-01
2800000.0 -1.755804000e+00 -3.838300000e-01
2890000.0 -1.713193000e+00 -3.398230000e-01
2980000.0 -1.668632000e+00 -1.821720000e-01
3070000.0 -1.631903000e+00 -2.677690000e-01
3160000.0 -1.593175000e+00 -2.396230000e-01
3250000.0 -1.555534000e+00 -2.165240000e-01
3340000.0 -1.520305000e+00 -1.917910000e-01
3430000.0 -1.486133000e+00 -1.713460000e-01
3520000.0 -1.455583000e+00 -1.533860000e-01
3610000.0 -1.428628000e+00 -1.369080000e-01
3700000.0 -1.402165000e+00 -1.221740000e-01
3790000.0 -1.377877000e+00 -1.068170000e-01
3880000.0 -1.355508000e+00 -9.258800000e-02
3970000.0 -1.331896000e+00 -8.049100000e-02
4060000.0 -1.313633000e+00 -6.676700000e-02
4150000.0 -1.293643000e+00 -5.524800000e-02
4240000.0 -1.277599000e+00 -4.279800000e-02
4330000.0 -1.262921000e+00 -3.198400000e-02
4420000.0 -1.248586000e+00 -1.927100000e-02
4510000.0 -1.235505000e+00 -7.441000000e-03
4600000.0 -1.224227000e+00 3.766000000e-03
4690000.0 -1.212608000e+00 1.494100000e-02
4780000.0 -1.203411000e+00 2.550200000e-02
4870000.0 -1.194606000e+00 3.694900000e-02
4960000.0 -1.186672000e+00 4.746900000e-02
5050000.0 -1.171613000e+00 5.912700000e-02
5140000.0 -1.167798000e+00 6.857600000e-02
5230000.0 -1.161445000e+00 7.937100000e-02
5320000.0 -1.156093000e+00 9.064200000e-02
5410000.0 -1.152558000e+00 1.005020000e-01
5500000.0 -1.148002000e+00 1.109070000e-01
5590000.0 -1.143039000e+00 1.210850000e-01
5680000.0 -1.138774000e+00 1.313550000e-01
5770000.0 -1.134568000e+00 1.407130000e-01
5860000.0 -1.131306000e+00 1.516940000e-01
5950000.0 -1.128701000e+00 1.594030000e-01
6040000.0 -1.123973000e+00 1.677320000e-01
6130000.0 -1.122630000e+00 1.768120000e-01
6220000.0 -1.120347000e+00 1.848300000e-01
6310000.0 -1.117516000e+00 1.915180000e-01
6400000.0 -1.114075000e+00 1.992190000e-01
6490000.0 -1.112348000e+00 2.055660000e-01
6580000.0 -1.110587000e+00 2.130180000e-01
6670000.0 -1.108753000e+00 2.183140000e-01
6760000.0 -1.107741000e+00 2.241110000e-01
6850000.0 -1.106083000e+00 2.276820000e-01
6940000.0 -1.104121000e+00 2.305410000e-01
7030000.0 -1.104188000e+00 2.363090000e-01
7120000.0 -1.103130000e+00 2.383520000e-01
7210000.0 -1.103038000e+00 2.401650000e-01
7300000.0 -1.101568000e+00 2.420670000e-01
7390000.0 -1.101776000e+00 2.422700000e-01
7480000.0 -1.102553000e+00 2.422480000e-01
7570000.0 1.951300000e-01 1.073542000e+00
7660000.0 1.939440000e-01 1.072719000e+00
7750000.0 1.944310000e-01 1.073599000e+00
7840000.0 1.918080000e-01 1.075025000e+00
7930000.0 1.915940000e-01 1.075576000e+00
8020000.0 1.916480000e-01 1.075025000e+00
8110000.0 1.908560000e-01 1.076017000e+00
8200000.0 1.895880000e-01 1.075378000e+00
8290000.0 1.892450000e-01 1.076512000e+00
8380000.0 1.881470000e-01 1.077550000e+00
8470000.0 1.892750000e-01 1.076888000e+00
8560000.0 1.864150000e-01 1.078008000e+00
8650000.0 1.857490000e-01 1.077978000e+00
8740000.0 1.852550000e-01 1.079671000e+00
8830000.0 1.849790000e-01 1.079176000e+00
8920000.0 1.840030000e-01 1.080318000e+00
9010000.0 1.833460000e-01 1.080143000e+00
9100000.0 1.831930000e-01 1.080353000e+00
9190000.0 1.822230000e-01 1.080578000e+00
9280000.0 1.824590000e-01 1.081886000e+00
9370000.0 1.804500000e-01 1.084724000e+00
9460000.0 1.795600000e-01 1.083671000e+00
9550000.0 1.797590000e-01 1.084346000e+00
9640000.0 1.792620000e-01 1.085718000e+00
9730000.0 1.782460000e-01 1.085151000e+00
9820000.0 1.779140000e-01 1.086257000e+00
9910000.0 1.764360000e-01 1.086292000e+00
10000000.0 1.767790000e-01 1.086946000e+00
10900000.0 1.700560000e-01 1.093832000e+00
11800000.0 1.629800000e-01 1.101909000e+00
12700000.0 1.568060000e-01 1.110305000e+00
13600000.0 1.499400000e-01 1.118395000e+00
14500000.0 1.449930000e-01 1.126417000e+00
15400000.0 1.382480000e-01 1.135791000e+00
16300000.0 1.302860000e-01 1.144518000e+00
17200000.0 1.240160000e-01 1.153345000e+00
18100000.0 1.176220000e-01 1.164477000e+00
19000000.0 1.082040000e-01 1.172725000e+00
19900000.0 1.020490000e-01 1.182594000e+00
20800000.0 9.374900000e-02 1.191967000e+00
21700000.0 8.525600000e-02 1.202798000e+00
22600000.0 7.729700000e-02 1.210482000e+00
23500000.0 6.689600000e-02 1.221556000e+00
24400000.0 5.648600000e-02 1.230444000e+00
25300000.0 4.677300000e-02 1.240542000e+00
26200000.0 3.636400000e-02 1.251765000e+00
27100000.0 2.484900000e-02 1.262421000e+00
28000000.0 1.354600000e-02 1.271732000e+00
28900000.0 2.467000000e-03 1.281151000e+00
29800000.0 -9.270000000e-03 1.291172000e+00
30700000.0 -2.345300000e-02 1.302592000e+00
31600000.0 -3.491000000e-02 1.311206000e+00
32500000.0 -2.521900000e-02 1.320169000e+00
33400000.0 -6.237900000e-02 1.333392000e+00
34300000.0 -7.628800000e-02 1.341870000e+00
35200000.0 -1.144870000e-01 1.352769000e+00
36100000.0 -8.249400000e-02 1.360080000e+00
37000000.0 -1.450440000e-01 1.370726000e+00
37900000.0 -1.374880000e-01 1.378773000e+00
38800000.0 -1.771860000e-01 1.387928000e+00
39700000.0 -1.458150000e-01 1.396796000e+00
40600000.0 -2.140120000e-01 1.404759000e+00
41500000.0 -2.061960000e-01 1.413514000e+00
42400000.0 -2.249890000e-01 1.420566000e+00
43300000.0 -2.429350000e-01 1.429341000e+00
44200000.0 -2.633450000e-01 1.434750000e+00
45100000.0 -2.813830000e-01 1.441577000e+00
46000000.0 -3.040170000e-01 1.447191000e+00
46900000.0 -3.233810000e-01 1.453730000e+00
47800000.0 -3.447320000e-01 1.458779000e+00
48700000.0 -3.653090000e-01 1.464577000e+00
49600000.0 -3.871010000e-01 1.468155000e+00
50500000.0 -4.095930000e-01 1.471490000e+00
51400000.0 -4.308090000e-01 1.475749000e+00
52300000.0 -4.542840000e-01 1.477327000e+00
53200000.0 -4.766960000e-01 1.479506000e+00
54100000.0 -4.997310000e-01 1.479124000e+00
55000000.0 -5.233490000e-01 1.482608000e+00
55900000.0 -5.468540000e-01 1.481826000e+00
56800000.0 -5.703680000e-01 1.481171000e+00
57700000.0 -5.947540000e-01 1.480067000e+00
58600000.0 -6.195980000e-01 1.479115000e+00
59500000.0 -6.432920000e-01 1.474214000e+00
60400000.0 -6.680140000e-01 1.470973000e+00
61300000.0 -6.913350000e-01 1.467682000e+00
62200000.0 -7.172980000e-01 1.462961000e+00
63100000.0 -7.393100000e-01 1.456986000e+00
64000000.0 -7.643720000e-01 1.451306000e+00
64900000.0 -7.880910000e-01 1.444513000e+00
65800000.0 -8.127700000e-01 1.434918000e+00
66700000.0 -8.365220000e-01 1.426643000e+00
67600000.0 -8.598160000e-01 1.418133000e+00
68500000.0 -8.842990000e-01 1.409264000e+00
69400000.0 -9.056200000e-01 1.397754000e+00
70300000.0 -9.307230000e-01 1.385819000e+00
71200000.0 -9.535260000e-01 1.375849000e+00
72100000.0 -9.749050000e-01 1.361387000e+00
73000000.0 -9.979890000e-01 1.349974000e+00
73900000.0 -1.018489000e+00 1.335101000e+00
74800000.0 -1.039570000e+00 1.319747000e+00
75700000.0 -1.059711000e+00 1.303724000e+00
76600000.0 -1.081474000e+00 1.287841000e+00
77500000.0 -1.101023000e+00 1.272727000e+00
78400000.0 -1.120810000e+00 1.254759000e+00
79300000.0 -1.138834000e+00 1.237337000e+00
80200000.0 -1.156344000e+00 1.219049000e+00
81100000.0 -1.175301000e+00 1.200366000e+00
82000000.0 -1.191894000e+00 1.182041000e+00
82900000.0 -1.209858000e+00 1.162977000e+00
83800000.0 -1.225268000e+00 1.141529000e+00
84700000.0 -1.240931000e+00 1.122805000e+00
85600000.0 -1.255377000e+00 1.100881000e+00
86500000.0 -1.269231000e+00 1.080288000e+00
87400000.0 -1.283388000e+00 1.058925000e+00
88300000.0 -1.295269000e+00 1.035744000e+00
89200000.0 -1.306089000e+00 1.013452000e+00
90100000.0 -1.319163000e+00 9.909460000e-01
91000000.0 -1.328439000e+00 9.683200000e-01
91900000.0 -1.337778000e+00 9.464970000e-01
92800000.0 -1.346887000e+00 9.236340000e-01
93700000.0 -1.354727000e+00 9.010890000e-01
94600000.0 -1.361186000e+00 8.766260000e-01
95500000.0 -1.368357000e+00 8.530320000e-01
96400000.0 -1.376469000e+00 8.303260000e-01
97300000.0 -1.379627000e+00 8.066160000e-01
98200000.0 -1.384658000e+00 7.816900000e-01
99100000.0 -1.387798000e+00 7.603390000e-01
100000000.0 -1.390477000e+00 7.379750000e-01
109000000.0 -1.385399000e+00 5.200560000e-01
118000000.0 -1.332459000e+00 3.381980000e-01
127000000.0 -1.250391000e+00 1.976530000e-01
136000000.0 -1.134441000e+00 1.003750000e-01
145000000.0 -1.046206000e+00 3.032400000e-02
154000000.0 -1.000208000e+00 -6.840000000e-04
163000000.0 -1.002516000e+00 -3.700000000e-03
172000000.0 -1.004732000e+00 -6.740000000e-03
181000000.0 -1.006378000e+00 -8.323000000e-03
190000000.0 -1.007642000e+00 -9.901000000e-03
199000000.0 -1.008425000e+00 -1.046500000e-02
208000000.0 -1.008901000e+00 -1.127500000e-02
217000000.0 -1.010345000e+00 -1.269400000e-02
226000000.0 -1.010586000e+00 -1.077500000e-02
235000000.0 -1.010066000e+00 -1.199000000e-02
244000000.0 -1.009466000e+00 -1.151600000e-02
253000000.0 -1.008495000e+00 -9.419000000e-03
262000000.0 -1.008400000e+00 -9.217000000e-03
271000000.0 -1.005682000e+00 -6.720000000e-03
280000000.0 -1.004481000e+00 -5.155000000e-03
289000000.0 -1.002261000e+00 -2.739000000e-03
298000000.0 -9.995550000e-01 3.830000000e-04
307000000.0 -1.003211000e+00 -2.160000000e-04
316000000.0 -1.006586000e+00 -7.610000000e-04
325000000.0 -1.008807000e+00 -2.636000000e-03
334000000.0 -1.010627000e+00 -1.914000000e-03
343000000.0 -1.011655000e+00 -2.111000000e-03
352000000.0 -1.011983000e+00 -3.623000000e-03
361000000.0 -1.013755000e+00 -4.198000000e-03
370000000.0 -1.014504000e+00 -3.436000000e-03
379000000.0 -1.012936000e+00 1.421500000e-02
388000000.0 -1.022474000e+00 -4.010400000e-02
397000000.0 -1.004563000e+00 3.148500000e-02
406000000.0 -1.011371000e+00 -3.460000000e-03
415000000.0 -9.917020000e-01 4.470100000e-02
424000000.0 -1.007948000e+00 -4.136000000e-03
433000000.0 -1.006103000e+00 1.450000000e-04
442000000.0 -1.002701000e+00 -1.766000000e-03
451000000.0 -9.992150000e-01 -8.300000000e-05
460000000.0 -1.004393000e+00 7.990000000e-04
469000000.0 -1.007208000e+00 -1.508000000e-03
478000000.0 -1.009578000e+00 1.054000000e-03
487000000.0 -1.011584000e+00 1.704000000e-03
496000000.0 -1.014719000e+00 1.811000000e-03
505000000.0 -1.016492000e+00 4.346000000e-03
514000000.0 -1.016766000e+00 3.232000000e-03
523000000.0 -1.016890000e+00 1.399000000e-03
532000000.0 -1.017401000e+00 2.011000000e-03
541000000.0 -1.015956000e+00 4.333000000e-03
550000000.0 -1.015435000e+00 1.317000000e-03
559000000.0 -1.013417000e+00 4.089000000e-03
568000000.0 -1.009721000e+00 -9.330000000e-04
577000000.0 -1.008792000e+00 1.676000000e-03
586000000.0 -1.006958000e+00 1.632000000e-03
595000000.0 -1.000880000e+00 6.280000000e-04
604000000.0 -1.000555000e+00 1.990000000e-04
613000000.0 -1.006100000e+00 3.650000000e-03
622000000.0 -1.004531000e+00 8.272000000e-03
631000000.0 -1.006882000e+00 9.942000000e-03
640000000.0 -1.011919000e+00 7.184000000e-03
649000000.0 -1.011463000e+00 1.223000000e-02
658000000.0 -1.011544000e+00 1.316000000e-02
667000000.0 -1.008828000e+00 1.381800000e-02
676000000.0 -1.008979000e+00 1.028800000e-02
685000000.0 -1.012535000e+00 1.348400000e-02
694000000.0 -1.010342000e+00 8.912000000e-03
703000000.0 -1.011604000e+00 6.245000000e-03
712000000.0 -1.007606000e+00 1.356900000e-02
721000000.0 -1.005212000e+00 7.768000000e-03
730000000.0 -1.005062000e+00 6.809000000e-03
739000000.0 -1.003897000e+00 3.819000000e-03
748000000.0 -9.993640000e-01 -1.810000000e-03
757000000.0 -1.000847000e+00 1.806000000e-03
766000000.0 -9.984320000e-01 1.998000000e-03
775000000.0 -1.000818000e+00 3.465000000e-03
784000000.0 -9.966320000e-01 8.786000000e-03
793000000.0 -9.999310000e-01 5.968000000e-03
802000000.0 -9.995460000e-01 9.057000000e-03
811000000.0 -1.001704000e+00 5.507000000e-03
820000000.0 -1.000202000e+00 6.239000000e-03
829000000.0 -9.999850000e-01 8.737000000e-03
838000000.0 -9.970150000e-01 9.115000000e-03
847000000.0 -9.984900000e-01 7.636000000e-03
856000000.0 -9.990770000e-01 5.479000000e-03
865000000.0 -9.966420000e-01 -1.719000000e-03
874000000.0 -9.976100000e-01 4.863000000e-03
883000000.0 -9.962090000e-01 3.799000000e-03
892000000.0 -9.980220000e-01 4.487000000e-03
901000000.0 -9.970840000e-01 -3.747000000e-03
910000000.0 -1.001555000e+00 -5.774000000e-03
919000000.0 -9.990790000e-01 -4.576000000e-03
928000000.0 -9.995670000e-01 -7.040000000e-03
937000000.0 -1.000713000e+00 -7.439000000e-03
946000000.0 -1.001158000e+00 -7.572000000e-03
955000000.0 -1.001521000e+00 -6.729000000e-03
964000000.0 -1.002705000e+00 -3.091000000e-03
973000000.0 -9.990120000e-01 -5.347000000e-03
982000000.0 -1.001017000e+00 -9.642000000e-03
991000000.0 -1.001582000e+00 -5.267000000e-03
1000000000.0 -1.001603000e+00 -6.972000000e-03
1004500000.0 -1.002730000e+00 -7.712000000e-03
1009000000.0 -1.001112000e+00 -7.536000000e-03
1013500000.0 -1.001969000e+00 -1.333100000e-02
1018000000.0 -9.993580000e-01 -7.281000000e-03
1022500000.0 -1.002054000e+00 -1.193000000e-02
1027000000.0 -9.995670000e-01 -6.291000000e-03
1031500000.0 -1.003021000e+00 -5.680000000e-03
1036000000.0 -1.002462000e+00 -4.854000000e-03
1040500000.0 -1.001612000e+00 -4.152000000e-03
1045000000.0 -1.001237000e+00 -5.293000000e-03
1049500000.0 -9.995810000e-01 1.956000000e-03
1054000000.0 -1.002645000e+00 -3.311000000e-03
1058500000.0 -9.987800000e-01 -2.942000000e-03
1063000000.0 -9.990820000e-01 -5.002000000e-03
1067500000.0 -1.000708000e+00 -5.401000000e-03
1072000000.0 -1.002385000e+00 -4.224000000e-03
1076500000.0 -1.003184000e+00 -9.917000000e-03
1081000000.0 -1.006091000e+00 -7.032000000e-03
1085500000.0 -1.008313000e+00 -1.149500000e-02
1090000000.0 -1.004175000e+00 -1.326000000e-02
1094500000.0 -1.002466000e+00 -1.293900000e-02
1099000000.0 -1.009286000e+00 -2.146400000e-02
1103500000.0 -1.005921000e+00 -9.188000000e-03
1108000000.0 -1.007590000e+00 -1.081800000e-02
1112500000.0 -1.004921000e+00 -7.230000000e-03
1117000000.0 -1.005657000e+00 -5.099000000e-03
1121500000.0 -1.007153000e+00 -1.142700000e-02
1126000000.0 -1.011434000e+00 -3.840000000e-03
1130500000.0 -1.011106000e+00 -1.308300000e-02
1135000000.0 -1.007666000e+00 -1.199000000e-02
1139500000.0 -1.010591000e+00 -1.106300000e-02
1144000000.0 -9.936140000e-01 2.543200000e-02
1148500000.0 -1.007748000e+00 -1.029400000e-02
1153000000.0 -9.772370000e-01 4.214300000e-02
1157500000.0 -1.011843000e+00 -1.277400000e-02
1162000000.0 -1.004824000e+00 -1.370200000e-02
1166500000.0 -1.002810000e+00 -5.991000000e-03
1171000000.0 -1.002848000e+00 -1.545000000e-03
1175500000.0 -9.997110000e-01 -8.916000000e-03
1180000000.0 -1.001863000e+00 -6.207000000e-03
1184500000.0 -9.995660000e-01 -8.414000000e-03
1189000000.0 -1.002777000e+00 -2.900000000e-04
1193500000.0 -1.001813000e+00 -4.781000000e-03
1198000000.0 -9.959580000e-01 -7.660000000e-03
1202500000.0 -9.970380000e-01 1.890000000e-04
1207000000.0 -9.957550000e-01 -5.870000000e-04
1211500000.0 -9.961410000e-01 -5.325000000e-03
1216000000.0 -9.977250000e-01 -3.956000000e-03
1220500000.0 -9.993630000e-01 -9.740000000e-03
1225000000.0 -9.955310000e-01 -9.513000000e-03
1229500000.0 -1.005315000e+00 -2.142000000e-03
1234000000.0 -1.005878000e+00 -7.914000000e-03
1238500000.0 -1.004615000e+00 -7.625000000e-03
1243000000.0 -1.000337000e+00 -2.576000000e-03
1247500000.0 -1.004943000e+00 -7.780000000e-03
1252000000.0 -1.010150000e+00 -8.301000000e-03
1256500000.0 -1.001594000e+00 -5.272000000e-03
1261000000.0 -1.006657000e+00 -1.104900000e-02
1265500000.0 -1.012657000e+00 -5.757000000e-03
1270000000.0 -1.004401000e+00 -7.631000000e-03
1274500000.0 -1.008649000e+00 -1.064900000e-02
1279000000.0 -1.008949000e+00 -6.801000000e-03
1283500000.0 -1.005768000e+00 -7.692000000e-03
1288000000.0 -1.001734000e+00 -7.150000000e-03
1292500000.0 -1.005372000e+00 -6.335000000e-03
1297000000.0 -1.003125000e+00 -3.134000000e-03
1301500000.0 -1.007338000e+00 -4.817000000e-03
1306000000.0 -1.007933000e+00 -4.440000000e-03
1310500000.0 -1.000137000e+00 -7.248000000e-03
1315000000.0 -1.007115000e+00 -2.403000000e-03
1319500000.0 -1.000818000e+00 -5.742000000e-03
1324000000.0 -1.001864000e+00 -2.381300000e-02
1328500000.0 -1.001106000e+00 -4.389000000e-03
1333000000.0 -9.932030000e-01 4.004000000e-03
1337500000.0 -9.921720000e-01 -7.860000000e-04
1342000000.0 -9.972190000e-01 -4.384000000e-03
1346500000.0 -9.916820000e-01 1.022000000e-03
1351000000.0 -9.952990000e-01 3.700000000e-05
1355500000.0 -9.941300000e-01 -5.950000000e-03
1360000000.0 -9.970980000e-01 -4.777000000e-03
1364500000.0 -9.959760000e-01 -5.999000000e-03
1369000000.0 -9.993870000e-01 -7.819000000e-03
1373500000.0 -9.963410000e-01 -6.359000000e-03
1378000000.0 -1.003727000e+00 1.420000000e-03
1382500000.0 -1.001226000e+00 5.350000000e-03
1387000000.0 -1.007371000e+00 -7.043000000e-03
1391500000.0 -1.004465000e+00 2.921000000e-03
1396000000.0 -1.008009000e+00 2.184000000e-03
1400500000.0 -1.005778000e+00 6.680000000e-04
1405000000.0 -1.002893000e+00 8.780000000e-04
1409500000.0 -1.010512000e+00 5.000000000e-05
1414000000.0 -1.003585000e+00 1.595000000e-03
1418500000.0 -1.010068000e+00 -1.211100000e-02
1423000000.0 -1.013823000e+00 -5.860000000e-04
1427500000.0 -1.014733000e+00 -1.854400000e-02
1432000000.0 -1.010055000e+00 -7.914000000e-03
1436500000.0 -1.011484000e+00 4.588000000e-03
1441000000.0 -1.013089000e+00 4.554000000e-03
1445500000.0 -1.009066000e+00 -3.262000000e-03
1450000000.0 -1.011338000e+00 -5.882000000e-03
