! piloto_deriva / corto_deriva / r48
# HZ S RI R 50
50000.0 -9.962280000e-01 -3.592000000e-02
59500.0 -1.000217000e+00 -1.819600000e-02
69000.0 -9.965620000e-01 -7.630000000e-03
78500.0 -9.985240000e-01 -1.104000000e-03
88000.0 -1.000415000e+00 1.449000000e-03
97500.0 -9.986320000e-01 3.000000000e-05
107000.0 -9.999030000e-01 -2.319000000e-03
116500.0 -1.000148000e+00 -5.534000000e-03
126000.0 -1.000730000e+00 -1.029600000e-02
135500.0 -9.999380000e-01 -1.639100000e-02
145000.0 -1.000124000e+00 -2.291400000e-02
154500.0 -9.992600000e-01 -3.006100000e-02
164000.0 -9.997090000e-01 -3.651500000e-02
173500.0 -1.000511000e+00 -4.468000000e-02
183000.0 -1.000010000e+00 -5.177100000e-02
192500.0 -1.000456000e+00 -5.982900000e-02
202000.0 -1.000314000e+00 -6.903400000e-02
211500.0 -1.000196000e+00 -7.680000000e-02
221000.0 -1.000764000e+00 -8.619800000e-02
230500.0 -1.000301000e+00 -9.560300000e-02
240000.0 -1.000667000e+00 -1.043070000e-01
249500.0 -1.000757000e+00 -1.128750000e-01
259000.0 -1.001571000e+00 -1.222160000e-01
268500.0 -1.000828000e+00 -1.318120000e-01
278000.0 -1.001019000e+00 -1.405250000e-01
287500.0 -1.001771000e+00 -1.503210000e-01
297000.0 -1.001764000e+00 -1.590880000e-01
306500.0 -1.002739000e+00 -1.688560000e-01
316000.0 -1.001796000e+00 -1.783390000e-01
325500.0 -1.002821000e+00 -1.875520000e-01
335000.0 -1.002980000e+00 -1.970830000e-01
344500.0 -1.004064000e+00 -2.061460000e-01
354000.0 -1.003029000e+00 -2.164980000e-01
363500.0 -1.003754000e+00 -2.246120000e-01
373000.0 -1.003621000e+00 -2.338370000e-01
382500.0 -1.004151000e+00 -2.433760000e-01
392000.0 -1.005095000e+00 -2.525460000e-01
401500.0 -1.004743000e+00 -2.619910000e-01
411000.0 -1.004973000e+00 -2.716060000e-01
420500.0 -1.005685000e+00 -2.810170000e-01
430000.0 -1.005948000e+00 -2.896910000e-01
439500.0 -1.004300000e+00 -2.994830000e-01
449000.0 -1.005821000e+00 -3.087000000e-01
458500.0 -1.006604000e+00 -3.187030000e-01
468000.0 -1.006595000e+00 -3.277550000e-01
477500.0 -1.006423000e+00 -3.371800000e-01
487000.0 -1.007141000e+00 -3.466190000e-01
496500.0 -1.006821000e+00 -3.554250000e-01
506000.0 -1.006776000e+00 -3.651150000e-01
515500.0 -1.007384000e+00 -3.737860000e-01
525000.0 -1.007344000e+00 -3.836590000e-01
534500.0 -1.008240000e+00 -3.918680000e-01
544000.0 -1.007864000e+00 -4.005960000e-01
553500.0 -1.009258000e+00 -4.108430000e-01
563000.0 -1.008745000e+00 -4.196850000e-01
572500.0 -1.009264000e+00 -4.294160000e-01
582000.0 -1.010818000e+00 -4.375280000e-01
591500.0 -1.010205000e+00 -4.475670000e-01
601000.0 -1.011390000e+00 -4.565590000e-01
610500.0 -1.010689000e+00 -4.651420000e-01
620000.0 -1.011130000e+00 -4.753530000e-01
629500.0 -1.011987000e+00 -4.836560000e-01
639000.0 -1.012959000e+00 -4.925940000e-01
648500.0 -1.013382000e+00 -5.021030000e-01
658000.0 -1.015656000e+00 -5.109190000e-01
667500.0 -1.014687000e+00 -5.206000000e-01
677000.0 -1.015135000e+00 -5.287920000e-01
686500.0 -1.015980000e+00 -5.389650000e-01
696000.0 -1.015747000e+00 -5.474170000e-01
705500.0 -1.018618000e+00 -5.573710000e-01
715000.0 -1.018703000e+00 -5.654990000e-01
724500.0 -1.019612000e+00 -5.747060000e-01
734000.0 -1.019476000e+00 -5.834230000e-01
743500.0 -1.021585000e+00 -5.925610000e-01
753000.0 -1.022913000e+00 -6.016530000e-01
762500.0 -1.023390000e+00 -6.100550000e-01
772000.0 -1.024902000e+00 -6.183820000e-01
781500.0 -1.026103000e+00 -6.284660000e-01
791000.0 -1.026341000e+00 -6.376640000e-01
800500.0 -1.028100000e+00 -6.467810000e-01
810000.0 -1.030300000e+00 -6.537660000e-01
819500.0 -1.029329000e+00 -6.629660000e-01
829000.0 -1.031705000e+00 -6.723390000e-01
838500.0 -1.034932000e+00 -6.811760000e-01
848000.0 -1.035713000e+00 -6.889610000e-01
857500.0 -1.037721000e+00 -6.982440000e-01
867000.0 -1.039013000e+00 -7.060160000e-01
876500.0 -1.039643000e+00 -7.163150000e-01
886000.0 -1.041939000e+00 -7.237840000e-01
895500.0 -1.042996000e+00 -7.324350000e-01
905000.0 -1.044551000e+00 -7.415150000e-01
914500.0 -1.047838000e+00 -7.509820000e-01
924000.0 -1.049927000e+00 -7.597510000e-01
933500.0 -1.050183000e+00 -7.676960000e-01
943000.0 -1.054785000e+00 -7.751400000e-01
952500.0 -1.057170000e+00 -7.835360000e-01
962000.0 -1.059396000e+00 -7.947440000e-01
971500.0 -1.061468000e+00 -8.015990000e-01
981000.0 -1.064814000e+00 -8.103920000e-01
990500.0 -1.065884000e+00 -8.190660000e-01
1000000.0 -1.068496000e+00 -8.254020000e-01
1090000.0 -1.098258000e+00 -9.028290000e-01
1180000.0 -1.135605000e+00 -9.775830000e-01
1270000.0 -1.181821000e+00 -1.046466000e+00
1360000.0 -1.244088000e+00 -1.104229000e+00
1450000.0 -1.310868000e+00 -1.158367000e+00
1540000.0 -1.388044000e+00 -1.191659000e+00
1630000.0 -1.472765000e+00 -1.210468000e+00
1720000.0 -1.563776000e+00 -1.211578000e+00
1810000.0 -1.654190000e+00 -1.186870000e+00
1900000.0 -1.737272000e+00 -1.139123000e+00
1990000.0 -1.808491000e+00 -1.079804000e+00
2080000.0 -1.867041000e+00 -1.001614000e+00
2170000.0 -1.899257000e+00 -9.102780000e-01
2260000.0 -1.918797000e+00 -8.175640000e-01
2350000.0 -1.914258000e+00 -7.292140000e-01
2440000.0 -1.896956000e+00 -6.427640000e-01
2530000.0 -1.875236000e+00 -5.666550000e-01
2620000.0 -1.837163000e+00 -4.961320000e-01
2710000.0 -1.796777000e+00 -4.344530000e-01
2800000.0 -1.757174000e+00 -3.846830000e-01
2890000.0 -1.712728000e+00 -3.416340000e-01
2980000.0 -1.672490000e+00 -3.034370000e-01
3070000.0 -1.630400000e+00 -2.701950000e-01
3160000.0 -1.592239000e+00 -2.397880000e-01
3250000.0 -1.554552000e+00 -2.131450000e-01
3340000.0 -1.521502000e+00 -1.908070000e-01
3430000.0 -1.488857000e+00 -1.717560000e-01
3520000.0 -1.457607000e+00 -1.537740000e-01
3610000.0 -1.427619000e+00 -1.368970000e-01
3700000.0 -1.401932000e+00 -1.217900000e-01
3790000.0 -1.377194000e+00 -1.067650000e-01
3880000.0 -1.354744000e+00 -9.307100000e-02
3970000.0 -1.333884000e+00 -8.016700000e-02
4060000.0 -1.312870000e+00 -6.723400000e-02
4150000.0 -1.296223000e+00 -5.444300000e-02
4240000.0 -1.278890000e+00 -4.184800000e-02
4330000.0 -1.261665000e+00 -3.086800000e-02
4420000.0 -1.248846000e+00 -1.810600000e-02
4510000.0 -1.236318000e+00 -7.077000000e-03
4600000.0 -1.224476000e+00 4.840000000e-03
4690000.0 -1.213253000e+00 1.444600000e-02
4780000.0 -1.202868000e+00 2.682900000e-02
4870000.0 -1.194608000e+00 3.685100000e-02
4960000.0 -1.187081000e+00 4.765500000e-02
5050000.0 -1.172828000e+00 5.879200000e-02
5140000.0 -1.167198000e+00 6.944700000e-02
5230000.0 -1.162070000e+00 7.887300000e-02
5320000.0 -1.155793000e+00 9.078700000e-02
5410000.0 -1.151460000e+00 1.017410000e-01
5500000.0 -1.146603000e+00 1.109040000e-01
5590000.0 -1.142962000e+00 1.213240000e-01
5680000.0 -1.139463000e+00 1.303650000e-01
5770000.0 -1.135371000e+00 1.409920000e-01
5860000.0 -1.130844000e+00 1.508020000e-01
5950000.0 -1.127937000e+00 1.598630000e-01
6040000.0 -1.125427000e+00 1.674170000e-01
6130000.0 -1.122628000e+00 1.764780000e-01
6220000.0 -1.119817000e+00 1.847810000e-01
6310000.0 -1.116595000e+00 1.917240000e-01
6400000.0 -1.114258000e+00 1.992830000e-01
6490000.0 -1.113409000e+00 2.063690000e-01
6580000.0 -1.110710000e+00 2.131190000e-01
6670000.0 -1.108918000e+00 2.193580000e-01
6760000.0 -1.106210000e+00 2.228850000e-01
6850000.0 -1.105789000e+00 2.277050000e-01
6940000.0 -1.104762000e+00 2.317990000e-01
7030000.0 -1.104418000e+00 2.363670000e-01
7120000.0 -1.103121000e+00 2.388550000e-01
7210000.0 -1.102480000e+00 2.395120000e-01
7300000.0 -1.101549000e+00 2.419310000e-01
7390000.0 -1.101721000e+00 2.422100000e-01
7480000.0 -1.100958000e+00 2.421770000e-01
7570000.0 1.966830000e-01 1.074120000e+00
7660000.0 1.949320000e-01 1.074377000e+00
7750000.0 1.945460000e-01 1.074293000e+00
7840000.0 1.924900000e-01 1.074912000e+00
7930000.0 1.919720000e-01 1.074782000e+00
8020000.0 1.919240000e-01 1.075603000e+00
8110000.0 1.906980000e-01 1.076005000e+00
8200000.0 1.903130000e-01 1.076531000e+00
8290000.0 1.891560000e-01 1.076716000e+00
8380000.0 1.884320000e-01 1.077137000e+00
8470000.0 1.883370000e-01 1.078084000e+00
8560000.0 1.880040000e-01 1.077587000e+00
8650000.0 1.874770000e-01 1.077949000e+00
8740000.0 1.862880000e-01 1.078854000e+00
8830000.0 1.855170000e-01 1.079599000e+00
8920000.0 1.851360000e-01 1.079946000e+00
9010000.0 1.841520000e-01 1.080634000e+00
9100000.0 1.824590000e-01 1.080414000e+00
9190000.0 1.817160000e-01 1.081203000e+00
9280000.0 1.822200000e-01 1.082304000e+00
9370000.0 1.808000000e-01 1.082166000e+00
9460000.0 1.804390000e-01 1.083683000e+00
9550000.0 1.799350000e-01 1.084246000e+00
9640000.0 1.783130000e-01 1.084495000e+00
9730000.0 1.776890000e-01 1.084980000e+00
9820000.0 1.771500000e-01 1.085980000e+00
9910000.0 1.770750000e-01 1.086121000e+00
10000000.0 1.771320000e-01 1.087001000e+00
10900000.0 1.695460000e-01 1.093762000e+00
11800000.0 1.633410000e-01 1.102748000e+00
12700000.0 1.567980000e-01 1.110722000e+00
13600000.0 1.505010000e-01 1.118091000e+00
14500000.0 1.450520000e-01 1.126244000e+00
15400000.0 1.371410000e-01 1.136942000e+00
16300000.0 1.309840000e-01 1.145366000e+00
17200000.0 1.239590000e-01 1.154509000e+00
18100000.0 1.154340000e-01 1.163400000e+00
19000000.0 1.094630000e-01 1.172216000e+00
19900000.0 1.010260000e-01 1.181717000e+00
20800000.0 9.330900000e-02 1.192358000e+00
21700000.0 8.464800000e-02 1.202747000e+00
22600000.0 7.466500000e-02 1.212189000e+00
23500000.0 6.675500000e-02 1.221414000e+00
24400000.0 5.618700000e-02 1.231705000e+00
25300000.0 4.578900000e-02 1.242068000e+00
26200000.0 3.624400000e-02 1.252535000e+00
27100000.0 2.554600000e-02 1.261657000e+00
28000000.0 1.449600000e-02 1.270769000e+00
28900000.0 2.127000000e-03 1.281958000e+00
29800000.0 -9.339000000e-03 1.291680000e+00
30700000.0 -2.132300000e-02 1.302089000e+00
31600000.0 -3.600000000e-02 1.312632000e+00
32500000.0 -4.893600000e-02 1.322508000e+00
33400000.0 -6.240200000e-02 1.332107000e+00
34300000.0 -7.636600000e-02 1.339979000e+00
35200000.0 -9.066200000e-02 1.351780000e+00
36100000.0 -1.068920000e-01 1.360981000e+00
37000000.0 -1.213110000e-01 1.370462000e+00
37900000.0 -1.373660000e-01 1.379778000e+00
38800000.0 -1.541750000e-01 1.388315000e+00
39700000.0 -1.702520000e-01 1.395898000e+00
40600000.0 -1.884640000e-01 1.404993000e+00
41500000.0 -2.074590000e-01 1.412865000e+00
42400000.0 -2.251650000e-01 1.420688000e+00
43300000.0 -2.439050000e-01 1.430143000e+00
44200000.0 -2.632950000e-01 1.435909000e+00
45100000.0 -2.826960000e-01 1.442826000e+00
46000000.0 -3.019250000e-01 1.447940000e+00
46900000.0 -3.230900000e-01 1.454424000e+00
47800000.0 -3.448880000e-01 1.458713000e+00
48700000.0 -3.645290000e-01 1.464073000e+00
49600000.0 -3.871230000e-01 1.468192000e+00
50500000.0 -4.087950000e-01 1.472802000e+00
51400000.0 -4.310910000e-01 1.474685000e+00
52300000.0 -4.538460000e-01 1.477727000e+00
53200000.0 -4.772390000e-01 1.479370000e+00
54100000.0 -4.998430000e-01 1.479781000e+00
55000000.0 -5.250630000e-01 1.482040000e+00
55900000.0 -5.465370000e-01 1.481314000e+00
56800000.0 -5.699290000e-01 1.480403000e+00
57700000.0 -5.942360000e-01 1.479832000e+00
58600000.0 -6.199620000e-01 1.477763000e+00
59500000.0 -6.415330000e-01 1.475025000e+00
60400000.0 -6.685540000e-01 1.472621000e+00
61300000.0 -6.915080000e-01 1.467268000e+00
62200000.0 -7.162280000e-01 1.462139000e+00
63100000.0 -7.395510000e-01 1.456648000e+00
64000000.0 -7.653470000e-01 1.451504000e+00
64900000.0 -7.885950000e-01 1.443256000e+00
65800000.0 -8.116310000e-01 1.436191000e+00
66700000.0 -8.356540000e-01 1.426498000e+00
67600000.0 -8.610940000e-01 1.416886000e+00
68500000.0 -8.835860000e-01 1.407952000e+00
69400000.0 -9.081040000e-01 1.398063000e+00
70300000.0 -9.301290000e-01 1.385977000e+00
71200000.0 -9.519400000e-01 1.373253000e+00
72100000.0 -9.752430000e-01 1.361733000e+00
73000000.0 -9.969320000e-01 1.348198000e+00
73900000.0 -1.019849000e+00 1.334535000e+00
74800000.0 -1.040145000e+00 1.320126000e+00
75700000.0 -1.060913000e+00 1.304498000e+00
76600000.0 -1.079861000e+00 1.288873000e+00
77500000.0 -1.100868000e+00 1.272352000e+00
78400000.0 -1.121234000e+00 1.255534000e+00
79300000.0 -1.139367000e+00 1.238093000e+00
80200000.0 -1.156643000e+00 1.218521000e+00
81100000.0 -1.174170000e+00 1.200077000e+00
82000000.0 -1.192597000e+00 1.180492000e+00
82900000.0 -1.207478000e+00 1.162117000e+00
83800000.0 -1.225933000e+00 1.141814000e+00
84700000.0 -1.240276000e+00 1.122539000e+00
85600000.0 -1.254906000e+00 1.100400000e+00
86500000.0 -1.269374000e+00 1.078917000e+00
87400000.0 -1.281670000e+00 1.058301000e+00
88300000.0 -1.294519000e+00 1.036481000e+00
89200000.0 -1.307105000e+00 1.014507000e+00
90100000.0 -1.317718000e+00 9.922850000e-01
91000000.0 -1.328377000e+00 9.680470000e-01
91900000.0 -1.315316000e+00 9.650180000e-01
92800000.0 -1.346353000e+00 9.233030000e-01
93700000.0 -1.354193000e+00 9.004400000e-01
94600000.0 -1.361797000e+00 8.763390000e-01
95500000.0 -1.370112000e+00 8.527510000e-01
96400000.0 -1.373619000e+00 8.287910000e-01
97300000.0 -1.380437000e+00 8.075960000e-01
98200000.0 -1.384516000e+00 7.841310000e-01
99100000.0 -1.389418000e+00 7.613160000e-01
100000000.0 -1.391289000e+00 7.381080000e-01
109000000.0 -1.385946000e+00 5.209130000e-01
118000000.0 -1.331985000e+00 3.378760000e-01
127000000.0 -1.249875000e+00 1.994470000e-01
136000000.0 -1.133880000e+00 1.011500000e-01
145000000.0 -1.046364000e+00 2.994500000e-02
154000000.0 -1.000002000e+00 5.010000000e-04
163000000.0 -1.002379000e+00 -3.861000000e-03
172000000.0 -1.004881000e+00 -6.707000000e-03
181000000.0 -1.006609000e+00 -8.929000000e-03
190000000.0 -1.007608000e+00 -9.557000000e-03
199000000.0 -1.008612000e+00 -1.031800000e-02
208000000.0 -1.009907000e+00 -1.191000000e-02
217000000.0 -1.009326000e+00 -1.168100000e-02
226000000.0 -1.009165000e+00 -1.091500000e-02
235000000.0 -1.010328000e+00 -1.127300000e-02
244000000.0 -1.009912000e+00 -1.057000000e-02
253000000.0 -1.009097000e+00 -1.033800000e-02
262000000.0 -1.007823000e+00 -8.002000000e-03
271000000.0 -1.006181000e+00 -7.044000000e-03
280000000.0 -1.005063000e+00 -4.019000000e-03
289000000.0 -1.003268000e+00 -3.218000000e-03
298000000.0 -1.001070000e+00 -8.160000000e-04
307000000.0 -1.003267000e+00 -1.570000000e-03
316000000.0 -1.005282000e+00 -1.119000000e-03
325000000.0 -1.006767000e+00 -3.720000000e-04
334000000.0 -1.010178000e+00 -2.128000000e-03
343000000.0 -1.012740000e+00 -2.970000000e-03
352000000.0 -1.014214000e+00 -2.879000000e-03
361000000.0 -1.014995000e+00 -4.371000000e-03
370000000.0 -1.014256000e+00 -3.033000000e-03
379000000.0 -1.014361000e+00 -4.306000000e-03
388000000.0 -1.012179000e+00 1.281200000e-02
397000000.0 -1.003887000e+00 3.282400000e-02
406000000.0 -1.013438000e+00 -4.604000000e-03
415000000.0 -1.001530000e+00 3.016700000e-02
424000000.0 -1.007470000e+00 -1.458000000e-03
433000000.0 -1.006370000e+00 -2.521000000e-03
442000000.0 -1.002647000e+00 -5.200000000e-05
451000000.0 -9.994690000e-01 -2.872000000e-03
460000000.0 -1.003915000e+00 9.200000000e-05
469000000.0 -1.007547000e+00 1.385000000e-03
478000000.0 -1.010304000e+00 2.304000000e-03
487000000.0 -1.014026000e+00 2.344000000e-03
496000000.0 -1.014497000e+00 2.656000000e-03
505000000.0 -1.015513000e+00 2.746000000e-03
514000000.0 -1.015968000e+00 4.413000000e-03
523000000.0 -1.016977000e+00 3.902000000e-03
532000000.0 -1.017282000e+00 3.786000000e-03
541000000.0 -1.015334000e+00 4.172000000e-03
550000000.0 -1.015108000e+00 3.347000000e-03
559000000.0 -1.011715000e+00 2.673000000e-03
568000000.0 -1.011600000e+00 2.065000000e-03
577000000.0 -1.008515000e+00 1.560000000e-03
586000000.0 -1.006016000e+00 3.450000000e-04
595000000.0 -1.003025000e+00 1.135000000e-03
604000000.0 -1.000715000e+00 8.130000000e-04
613000000.0 -1.001625000e+00 2.844000000e-03
622000000.0 -1.008734000e+00 6.967000000e-03
631000000.0 -1.010104000e+00 8.276000000e-03
640000000.0 -1.008675000e+00 1.189000000e-02
649000000.0 -1.010619000e+00 8.811000000e-03
658000000.0 -1.009755000e+00 1.253200000e-02
667000000.0 -1.011600000e+00 1.166500000e-02
676000000.0 -1.012585000e+00 1.198300000e-02
685000000.0 -1.012326000e+00 1.031800000e-02
694000000.0 -1.008257000e+00 1.164600000e-02
703000000.0 -1.013892000e+00 1.167300000e-02
712000000.0 -9.981160000e-01 4.149400000e-02
721000000.0 -1.008525000e+00 4.166000000e-03
730000000.0 -1.004719000e+00 2.935000000e-03
739000000.0 -1.001784000e+00 2.933000000e-03
748000000.0 -9.982870000e-01 -1.550000000e-04
757000000.0 -1.000938000e+00 4.127000000e-03
766000000.0 -9.971840000e-01 6.096000000e-03
775000000.0 -9.973270000e-01 9.400000000e-03
784000000.0 -9.990020000e-01 1.697000000e-03
793000000.0 -9.982440000e-01 8.870000000e-03
802000000.0 -1.000251000e+00 5.106000000e-03
811000000.0 -9.988150000e-01 8.941000000e-03
820000000.0 -9.990920000e-01 5.030000000e-03
829000000.0 -9.954300000e-01 5.640000000e-03
838000000.0 -9.957350000e-01 6.464000000e-03
847000000.0 -9.987310000e-01 7.808000000e-03
856000000.0 -9.983210000e-01 2.623000000e-03
865000000.0 -1.000313000e+00 1.796000000e-03
874000000.0 -9.960200000e-01 -1.334000000e-03
883000000.0 -9.993020000e-01 3.445000000e-03
892000000.0 -1.001645000e+00 -1.716000000e-03
901000000.0 -9.992800000e-01 1.410000000e-03
910000000.0 -9.984090000e-01 -3.467000000e-03
919000000.0 -9.989290000e-01 -4.471000000e-03
928000000.0 -9.994370000e-01 -8.187000000e-03
937000000.0 -9.990380000e-01 -5.811000000e-03
946000000.0 -1.001542000e+00 -6.771000000e-03
955000000.0 -9.989830000e-01 -7.915000000e-03
964000000.0 -1.003587000e+00 -8.036000000e-03
973000000.0 -1.001354000e+00 -9.430000000e-03
982000000.0 -9.991370000e-01 -9.467000000e-03
991000000.0 -9.998840000e-01 -1.536000000e-03
1000000000.0 -1.000930000e+00 -6.705000000e-03
1004500000.0 -1.001835000e+00 -5.081000000e-03
1009000000.0 -9.987200000e-01 -6.581000000e-03
1013500000.0 -1.000062000e+00 -4.792000000e-03
1018000000.0 -1.002306000e+00 -8.788000000e-03
1022500000.0 -1.000217000e+00 -7.200000000e-05
1027000000.0 -1.002928000e+00 -6.834000000e-03
1031500000.0 -1.000003000e+00 -9.319000000e-03
1036000000.0 -1.002648000e+00 -5.688000000e-03
1040500000.0 -1.001962000e+00 -5.061000000e-03
1045000000.0 -1.001719000e+00 -1.661000000e-03
1049500000.0 -9.986320000e-01 -1.842000000e-03
1054000000.0 -9.985660000e-01 -3.480000000e-03
1058500000.0 -1.002423000e+00 -1.660000000e-03
1063000000.0 -1.001738000e+00 -4.832000000e-03
1067500000.0 -1.001909000e+00 -9.018000000e-03
1072000000.0 -1.006299000e+00 -7.507000000e-03
1076500000.0 -1.000169000e+00 -6.489000000e-03
1081000000.0 -1.003247000e+00 -4.296000000e-03
1085500000.0 -1.002358000e+00 -7.603000000e-03
1090000000.0 -1.009503000e+00 -9.886000000e-03
1094500000.0 -1.004445000e+00 -1.602000000e-02
1099000000.0 -1.009208000e+00 -4.421000000e-03
1103500000.0 -1.006169000e+00 -8.741000000e-03
1108000000.0 -1.007464000e+00 -8.265000000e-03
1112500000.0 -1.007675000e+00 -9.197000000e-03
1117000000.0 -1.008633000e+00 -5.542000000e-03
1121500000.0 -1.023987000e+00 -4.599400000e-02
1126000000.0 -1.011221000e+00 -1.325200000e-02
1130500000.0 -1.016488000e+00 -4.815900000e-02
1135000000.0 -1.018372000e+00 -4.249500000e-02
1139500000.0 -1.007383000e+00 -4.569000000e-03
1144000000.0 -1.008952000e+00 -1.548300000e-02
1148500000.0 -1.001936000e+00 -1.607800000e-02
1153000000.0 -1.008342000e+00 -3.241000000e-03
1157500000.0 -1.007767000e+00 -1.301300000e-02
1162000000.0 -1.006210000e+00 -7.218000000e-03
1166500000.0 -1.004960000e+00 -6.909000000e-03
1171000000.0 -1.003474000e+00 -2.067000000e-03
1175500000.0 -1.003960000e+00 -9.211000000e-03
1180000000.0 -9.986310000e-01 2.940000000e-04
1184500000.0 -9.994640000e-01 -4.278000000e-03
1189000000.0 -1.000910000e+00 -5.463000000e-03
1193500000.0 -1.004545000e+00 -4.556000000e-03
1198000000.0 -1.000155000e+00 3.735000000e-03
1202500000.0 -9.957730000e-01 -1.629000000e-03
1207000000.0 -9.951570000e-01 -3.135000000e-03
1211500000.0 -9.960100000e-01 -7.273000000e-03
1216000000.0 -1.000485000e+00 -1.026600000e-02
1220500000.0 -1.002513000e+00 -1.402600000e-02
1225000000.0 -1.006219000e+00 -9.207000000e-03
1229500000.0 -1.006413000e+00 -4.463000000e-03
1234000000.0 -9.984410000e-01 -4.710000000e-03
1238500000.0 -1.008032000e+00 -7.930000000e-03
1243000000.0 -1.006736000e+00 -5.567000000e-03
1247500000.0 -1.004271000e+00 -6.175000000e-03
1252000000.0 -1.004094000e+00 -9.443000000e-03
1256500000.0 -1.000858000e+00 -4.487000000e-03
1261000000.0 -1.000364000e+00 -6.673000000e-03
1265500000.0 -1.006112000e+00 -7.839000000e-03
1270000000.0 -1.005800000e+00 -5.964000000e-03
1274500000.0 -1.005319000e+00 -9.665000000e-03
1279000000.0 -1.001120000e+00 -8.210000000e-04
1283500000.0 -1.004735000e+00 -8.938000000e-03
1288000000.0 -1.004599000e+00 -9.839000000e-03
1292500000.0 -1.008173000e+00 -1.197800000e-02
1297000000.0 -1.001654000e+00 -8.110000000e-04
1301500000.0 -1.005895000e+00 -8.885000000e-03
1306000000.0 -1.001603000e+00 -1.543000000e-03
1310500000.0 -1.001651000e+00 -1.003200000e-02
1315000000.0 -9.971850000e-01 1.973000000e-03
1319500000.0 -1.000331000e+00 -3.300000000e-03
1324000000.0 -9.977400000e-01 -7.841000000e-03
1328500000.0 -1.003831000e+00 -9.253000000e-03
1333000000.0 -9.976420000e-01 -5.620000000e-04
1337500000.0 -9.941730000e-01 -4.497000000e-03
1342000000.0 -9.919320000e-01 -1.268700000e-02
1346500000.0 -9.881230000e-01 3.432000000e-03
1351000000.0 -9.950830000e-01 -5.121000000e-03
1355500000.0 -9.904920000e-01 3.050000000e-04
1360000000.0 -9.967850000e-01 6.283000000e-03
1364500000.0 -9.975780000e-01 -2.361000000e-03
1369000000.0 -1.002260000e+00 -1.759000000e-03
1373500000.0 -9.939250000e-01 -2.631000000e-03
1378000000.0 -1.000197000e+00 9.100000000e-05
1382500000.0 -1.003887000e+00 3.737000000e-03
1387000000.0 -1.002866000e+00 -6.106000000e-03
1391500000.0 -1.004968000e+00 6.090000000e-04
1396000000.0 -1.004899000e+00 -3.284000000e-03
1400500000.0 -1.004217000e+00 -2.534000000e-03
1405000000.0 -1.006352000e+00 -8.781000000e-03
1409500000.0 -1.012555000e+00 -7.931000000e-03
1414000000.0 -1.004724000e+00 -1.563000000e-03
1418500000.0 -1.012043000e+00 -1.715000000e-03
1423000000.0 -1.008780000e+00 4.261000000e-03
1427500000.0 -1.011054000e+00 -2.874700000e-02
1432000000.0 -1.012570000e+00 -9.780000000e-04
1436500000.0 -1.011061000e+00 -7.380000000e-04
1441000000.0 -1.007022000e+00 -6.129000000e-03
1445500000.0 -1.010207000e+00 -5.866000000e-03
1450000000.0 -1.011913000e+00 -4.700000000e-03
