! piloto_deriva / corto_deriva / r02
# HZ S RI R 50
50000.0 -9.990410000e-01 -3.792900000e-02
59500.0 -9.989690000e-01 -1.734300000e-02
69000.0 -9.981310000e-01 -3.453000000e-03
78500.0 -9.993320000e-01 -1.080000000e-03
88000.0 -9.993160000e-01 1.417000000e-03
97500.0 -1.000682000e+00 3.650000000e-04
107000.0 -9.995480000e-01 -2.018000000e-03
116500.0 -9.993470000e-01 -5.513000000e-03
126000.0 -1.000729000e+00 -1.071800000e-02
135500.0 -9.993020000e-01 -1.665500000e-02
145000.0 -1.000051000e+00 -2.222800000e-02
154500.0 -1.000107000e+00 -2.877000000e-02
164000.0 -1.000610000e+00 -3.632400000e-02
173500.0 -1.000365000e+00 -4.329500000e-02
183000.0 -9.996860000e-01 -5.181600000e-02
192500.0 -9.999590000e-01 -5.936300000e-02
202000.0 -9.998750000e-01 -6.783900000e-02
211500.0 -1.000380000e+00 -7.679100000e-02
221000.0 -1.000207000e+00 -8.550300000e-02
230500.0 -1.000423000e+00 -9.501200000e-02
240000.0 -1.000195000e+00 -1.035400000e-01
249500.0 -1.000819000e+00 -1.127300000e-01
259000.0 -1.000947000e+00 -1.220360000e-01
268500.0 -1.001708000e+00 -1.308520000e-01
278000.0 -1.001639000e+00 -1.402200000e-01
287500.0 -1.001181000e+00 -1.489650000e-01
297000.0 -1.001442000e+00 -1.589630000e-01
306500.0 -1.002398000e+00 -1.681250000e-01
316000.0 -1.001900000e+00 -1.771380000e-01
325500.0 -1.002622000e+00 -1.873210000e-01
335000.0 -1.002998000e+00 -1.959470000e-01
344500.0 -1.002383000e+00 -2.051590000e-01
354000.0 -1.003445000e+00 -2.141110000e-01
363500.0 -1.003842000e+00 -2.230450000e-01
373000.0 -1.004374000e+00 -2.325500000e-01
382500.0 -1.004087000e+00 -2.418590000e-01
392000.0 -1.003982000e+00 -2.518190000e-01
401500.0 -1.005295000e+00 -2.616380000e-01
411000.0 -1.004676000e+00 -2.701680000e-01
420500.0 -1.004495000e+00 -2.795820000e-01
430000.0 -1.005627000e+00 -2.891500000e-01
439500.0 -1.005576000e+00 -2.981560000e-01
449000.0 -1.005612000e+00 -3.072500000e-01
458500.0 -1.005989000e+00 -3.171390000e-01
468000.0 -1.005770000e+00 -3.259040000e-01
477500.0 -1.006265000e+00 -3.356880000e-01
487000.0 -1.007369000e+00 -3.450320000e-01
496500.0 -1.007057000e+00 -3.541750000e-01
506000.0 -1.006636000e+00 -3.641180000e-01
515500.0 -1.002094000e+00 -3.915150000e-01
525000.0 -1.018932000e+00 -3.974530000e-01
534500.0 -1.008852000e+00 -3.913560000e-01
544000.0 -1.013308000e+00 -3.811460000e-01
553500.0 -1.001584000e+00 -4.281950000e-01
563000.0 -1.014652000e+00 -3.995500000e-01
572500.0 -1.002821000e+00 -4.456610000e-01
582000.0 -1.015182000e+00 -4.179870000e-01
591500.0 -1.010055000e+00 -4.449210000e-01
601000.0 -9.976480000e-01 -4.397610000e-01
610500.0 -1.010709000e+00 -4.640630000e-01
620000.0 -1.011820000e+00 -4.730650000e-01
629500.0 -1.011145000e+00 -4.815120000e-01
639000.0 -1.012429000e+00 -4.920200000e-01
648500.0 -1.013233000e+00 -5.003570000e-01
658000.0 -1.013880000e+00 -5.097060000e-01
667500.0 -1.015198000e+00 -5.177800000e-01
677000.0 -1.014918000e+00 -5.269440000e-01
686500.0 -1.015159000e+00 -5.354990000e-01
696000.0 -1.016700000e+00 -5.455870000e-01
705500.0 -1.017332000e+00 -5.537240000e-01
715000.0 -1.018193000e+00 -5.636500000e-01
724500.0 -1.018382000e+00 -5.717810000e-01
734000.0 -1.020143000e+00 -5.810560000e-01
743500.0 -1.020350000e+00 -5.895700000e-01
753000.0 -1.020711000e+00 -5.993010000e-01
762500.0 -1.022566000e+00 -6.082990000e-01
772000.0 -1.024248000e+00 -6.167370000e-01
781500.0 -1.024541000e+00 -6.249740000e-01
791000.0 -1.026155000e+00 -6.339790000e-01
800500.0 -1.026272000e+00 -6.434170000e-01
810000.0 -1.028399000e+00 -6.534870000e-01
819500.0 -1.029589000e+00 -6.595130000e-01
829000.0 -1.030687000e+00 -6.692010000e-01
838500.0 -1.032949000e+00 -6.787360000e-01
848000.0 -1.033971000e+00 -6.868010000e-01
857500.0 -1.035287000e+00 -6.968780000e-01
867000.0 -1.037102000e+00 -7.048100000e-01
876500.0 -1.038264000e+00 -7.143260000e-01
886000.0 -1.040151000e+00 -7.218280000e-01
895500.0 -1.041776000e+00 -7.312230000e-01
905000.0 -1.043397000e+00 -7.383050000e-01
914500.0 -1.045360000e+00 -7.478790000e-01
924000.0 -1.047052000e+00 -7.567930000e-01
933500.0 -1.050315000e+00 -7.641120000e-01
943000.0 -1.053098000e+00 -7.741700000e-01
952500.0 -1.053997000e+00 -7.823010000e-01
962000.0 -1.057202000e+00 -7.913350000e-01
971500.0 -1.058968000e+00 -7.996940000e-01
981000.0 -1.061622000e+00 -8.058000000e-01
990500.0 -1.063998000e+00 -8.154160000e-01
1000000.0 -1.066439000e+00 -8.242320000e-01
1090000.0 -1.095276000e+00 -9.004250000e-01
1180000.0 -1.133507000e+00 -9.738310000e-01
1270000.0 -1.180061000e+00 -1.041154000e+00
1360000.0 -1.236603000e+00 -1.102177000e+00
1450000.0 -1.304293000e+00 -1.152654000e+00
1540000.0 -1.381388000e+00 -1.192224000e+00
1630000.0 -1.466078000e+00 -1.210290000e+00
1720000.0 -1.555930000e+00 -1.211274000e+00
1810000.0 -1.646059000e+00 -1.189015000e+00
1900000.0 -1.728992000e+00 -1.147867000e+00
1990000.0 -1.800898000e+00 -1.081756000e+00
2080000.0 -1.856640000e+00 -1.006254000e+00
2170000.0 -1.898113000e+00 -9.173050000e-01
2260000.0 -1.914171000e+00 -8.268670000e-01
2350000.0 -1.916148000e+00 -7.358340000e-01
2440000.0 -1.900355000e+00 -6.464870000e-01
2530000.0 -1.875425000e+00 -5.723020000e-01
2620000.0 -1.840426000e+00 -5.011760000e-01
2710000.0 -1.803254000e+00 -4.422450000e-01
2800000.0 -1.760303000e+00 -3.881640000e-01
2890000.0 -1.717807000e+00 -3.447690000e-01
2980000.0 -1.675766000e+00 -3.043230000e-01
3070000.0 -1.635692000e+00 -2.716740000e-01
3160000.0 -1.596378000e+00 -2.413060000e-01
3250000.0 -1.556921000e+00 -2.152740000e-01
3340000.0 -1.524876000e+00 -1.929630000e-01
3430000.0 -1.489141000e+00 -1.730970000e-01
3520000.0 -1.459113000e+00 -1.557530000e-01
3610000.0 -1.429549000e+00 -1.378730000e-01
3700000.0 -1.404891000e+00 -1.210950000e-01
3790000.0 -1.378789000e+00 -1.074120000e-01
3880000.0 -1.355517000e+00 -9.349600000e-02
3970000.0 -1.333580000e+00 -7.953500000e-02
4060000.0 -1.314472000e+00 -6.763600000e-02
4150000.0 -1.296636000e+00 -5.418700000e-02
4240000.0 -1.280050000e+00 -4.216700000e-02
4330000.0 -1.264945000e+00 -3.068500000e-02
4420000.0 -1.249285000e+00 -1.865400000e-02
4510000.0 -1.237290000e+00 -7.151000000e-03
4600000.0 -1.225491000e+00 3.999000000e-03
4690000.0 -1.214871000e+00 1.580700000e-02
4780000.0 -1.204983000e+00 2.655200000e-02
4870000.0 -1.195768000e+00 3.795400000e-02
4960000.0 -1.187179000e+00 4.913100000e-02
5050000.0 -1.174022000e+00 5.769000000e-02
5140000.0 -1.167456000e+00 6.989800000e-02
5230000.0 -1.162172000e+00 8.017800000e-02
5320000.0 -1.157288000e+00 9.008700000e-02
5410000.0 -1.151728000e+00 1.019280000e-01
5500000.0 -1.148432000e+00 1.113690000e-01
5590000.0 -1.144233000e+00 1.216370000e-01
5680000.0 -1.139202000e+00 1.318100000e-01
5770000.0 -1.136152000e+00 1.414380000e-01
5860000.0 -1.132665000e+00 1.507640000e-01
5950000.0 -1.128301000e+00 1.600090000e-01
6040000.0 -1.125863000e+00 1.683220000e-01
6130000.0 -1.123205000e+00 1.776010000e-01
6220000.0 -1.119808000e+00 1.859650000e-01
6310000.0 -1.116715000e+00 1.936970000e-01
6400000.0 -1.114404000e+00 1.999650000e-01
6490000.0 -1.112592000e+00 2.064950000e-01
6580000.0 -1.110586000e+00 2.122540000e-01
6670000.0 -1.108451000e+00 2.185880000e-01
6760000.0 -1.106223000e+00 2.240750000e-01
6850000.0 -1.106255000e+00 2.284340000e-01
6940000.0 -1.104344000e+00 2.327700000e-01
7030000.0 -1.104036000e+00 2.364410000e-01
7120000.0 -1.103060000e+00 2.388860000e-01
7210000.0 -1.101863000e+00 2.416790000e-01
7300000.0 -1.102375000e+00 2.428460000e-01
7390000.0 -1.101807000e+00 2.424990000e-01
7480000.0 -1.103245000e+00 2.415480000e-01
7570000.0 1.950970000e-01 1.074295000e+00
7660000.0 1.944550000e-01 1.075123000e+00
7750000.0 1.937030000e-01 1.074231000e+00
7840000.0 1.753430000e-01 1.079924000e+00
7930000.0 2.114810000e-01 1.069146000e+00
8020000.0 1.727150000e-01 1.080757000e+00
8110000.0 2.099400000e-01 1.070984000e+00
8200000.0 1.718900000e-01 1.081253000e+00
8290000.0 2.074680000e-01 1.071421000e+00
8380000.0 1.704750000e-01 1.082985000e+00
8470000.0 1.888950000e-01 1.077186000e+00
8560000.0 1.878320000e-01 1.078462000e+00
8650000.0 1.878680000e-01 1.078685000e+00
8740000.0 1.863270000e-01 1.078516000e+00
8830000.0 1.854350000e-01 1.079302000e+00
8920000.0 1.844670000e-01 1.080234000e+00
9010000.0 1.838130000e-01 1.080121000e+00
9100000.0 1.833900000e-01 1.080922000e+00
9190000.0 1.824940000e-01 1.082275000e+00
9280000.0 1.820320000e-01 1.082531000e+00
9370000.0 1.815210000e-01 1.082998000e+00
9460000.0 1.804640000e-01 1.082949000e+00
9550000.0 1.801990000e-01 1.084578000e+00
9640000.0 1.790410000e-01 1.084445000e+00
9730000.0 1.786880000e-01 1.085653000e+00
9820000.0 1.782050000e-01 1.085918000e+00
9910000.0 1.769450000e-01 1.087504000e+00
10000000.0 1.762420000e-01 1.087815000e+00
10900000.0 1.700560000e-01 1.094876000e+00
11800000.0 1.640750000e-01 1.102363000e+00
12700000.0 1.568940000e-01 1.110304000e+00
13600000.0 1.512260000e-01 1.119794000e+00
14500000.0 1.446090000e-01 1.127038000e+00
15400000.0 1.364810000e-01 1.136129000e+00
16300000.0 1.303160000e-01 1.144671000e+00
17200000.0 1.236650000e-01 1.154279000e+00
18100000.0 1.179700000e-01 1.163244000e+00
19000000.0 1.096000000e-01 1.171937000e+00
19900000.0 1.012610000e-01 1.182299000e+00
20800000.0 9.237200000e-02 1.192204000e+00
21700000.0 8.441600000e-02 1.201211000e+00
22600000.0 7.651300000e-02 1.211757000e+00
23500000.0 6.661500000e-02 1.222281000e+00
24400000.0 5.675900000e-02 1.231276000e+00
25300000.0 4.615600000e-02 1.241664000e+00
26200000.0 3.513300000e-02 1.251432000e+00
27100000.0 2.493000000e-02 1.261927000e+00
28000000.0 1.485800000e-02 1.272314000e+00
28900000.0 2.433000000e-03 1.282434000e+00
29800000.0 -1.085900000e-02 1.294291000e+00
30700000.0 -2.186900000e-02 1.302224000e+00
31600000.0 -3.425200000e-02 1.312517000e+00
32500000.0 -4.758900000e-02 1.321784000e+00
33400000.0 -6.176100000e-02 1.332313000e+00
34300000.0 -7.565200000e-02 1.342696000e+00
35200000.0 -9.154700000e-02 1.352379000e+00
36100000.0 -1.066430000e-01 1.361736000e+00
37000000.0 -1.220100000e-01 1.370656000e+00
37900000.0 -1.377860000e-01 1.378620000e+00
38800000.0 -1.547540000e-01 1.386130000e+00
39700000.0 -1.707890000e-01 1.395960000e+00
40600000.0 -1.876160000e-01 1.404703000e+00
41500000.0 -2.062920000e-01 1.412557000e+00
42400000.0 -2.247850000e-01 1.421321000e+00
43300000.0 -2.440310000e-01 1.428403000e+00
44200000.0 -2.626140000e-01 1.434534000e+00
45100000.0 -2.826430000e-01 1.441902000e+00
46000000.0 -3.032070000e-01 1.447930000e+00
46900000.0 -3.236420000e-01 1.454166000e+00
47800000.0 -3.437490000e-01 1.458960000e+00
48700000.0 -3.661990000e-01 1.463471000e+00
49600000.0 -3.873030000e-01 1.467955000e+00
50500000.0 -4.096550000e-01 1.472336000e+00
51400000.0 -4.315310000e-01 1.474315000e+00
52300000.0 -4.549070000e-01 1.478306000e+00
53200000.0 -4.764040000e-01 1.481115000e+00
54100000.0 -5.010170000e-01 1.479339000e+00
55000000.0 -5.248610000e-01 1.481727000e+00
55900000.0 -5.467930000e-01 1.481538000e+00
56800000.0 -5.704200000e-01 1.480836000e+00
57700000.0 -5.962910000e-01 1.479419000e+00
58600000.0 -6.179930000e-01 1.478595000e+00
59500000.0 -6.425540000e-01 1.475209000e+00
60400000.0 -6.685060000e-01 1.471855000e+00
61300000.0 -6.916030000e-01 1.467658000e+00
62200000.0 -7.157050000e-01 1.463216000e+00
63100000.0 -7.405040000e-01 1.457841000e+00
64000000.0 -7.638380000e-01 1.451172000e+00
64900000.0 -7.881400000e-01 1.441925000e+00
65800000.0 -8.121120000e-01 1.435995000e+00
66700000.0 -8.363530000e-01 1.427764000e+00
67600000.0 -8.610000000e-01 1.418603000e+00
68500000.0 -8.836430000e-01 1.407899000e+00
69400000.0 -9.079070000e-01 1.397670000e+00
70300000.0 -9.304150000e-01 1.386704000e+00
71200000.0 -9.523030000e-01 1.375842000e+00
72100000.0 -9.740880000e-01 1.361095000e+00
73000000.0 -9.978740000e-01 1.348515000e+00
73900000.0 -1.018507000e+00 1.334699000e+00
74800000.0 -1.040585000e+00 1.320097000e+00
75700000.0 -1.061417000e+00 1.303308000e+00
76600000.0 -1.081704000e+00 1.289009000e+00
77500000.0 -1.100522000e+00 1.271733000e+00
78400000.0 -1.120404000e+00 1.256122000e+00
79300000.0 -1.139728000e+00 1.238410000e+00
80200000.0 -1.157240000e+00 1.219581000e+00
81100000.0 -1.176325000e+00 1.201419000e+00
82000000.0 -1.194266000e+00 1.182212000e+00
82900000.0 -1.210015000e+00 1.162959000e+00
83800000.0 -1.225040000e+00 1.143468000e+00
84700000.0 -1.240258000e+00 1.122577000e+00
85600000.0 -1.253892000e+00 1.101104000e+00
86500000.0 -1.268364000e+00 1.078156000e+00
87400000.0 -1.281959000e+00 1.059754000e+00
88300000.0 -1.296867000e+00 1.036417000e+00
89200000.0 -1.306870000e+00 1.014028000e+00
90100000.0 -1.319565000e+00 9.908940000e-01
91000000.0 -1.329237000e+00 9.685700000e-01
91900000.0 -1.339118000e+00 9.458840000e-01
92800000.0 -1.347607000e+00 9.235270000e-01
93700000.0 -1.354577000e+00 8.994300000e-01
94600000.0 -1.363415000e+00 8.765080000e-01
95500000.0 -1.369319000e+00 8.533180000e-01
96400000.0 -1.373922000e+00 8.305450000e-01
97300000.0 -1.379228000e+00 8.082120000e-01
98200000.0 -1.385621000e+00 7.827180000e-01
99100000.0 -1.369776000e+00 7.819650000e-01
100000000.0 -1.409511000e+00 7.166240000e-01
109000000.0 -1.383860000e+00 5.200380000e-01
118000000.0 -1.331626000e+00 3.403800000e-01
127000000.0 -1.249471000e+00 1.987300000e-01
136000000.0 -1.133983000e+00 9.978300000e-02
145000000.0 -1.046434000e+00 2.991600000e-02
154000000.0 -1.000305000e+00 -2.100000000e-04
163000000.0 -1.002448000e+00 -3.960000000e-03
172000000.0 -1.004159000e+00 -6.291000000e-03
181000000.0 -1.006169000e+00 -8.331000000e-03
190000000.0 -1.006664000e+00 -9.575000000e-03
199000000.0 -1.008620000e+00 -1.105600000e-02
208000000.0 -1.009826000e+00 -1.200100000e-02
217000000.0 -1.010035000e+00 -1.274500000e-02
226000000.0 -1.010663000e+00 -1.131500000e-02
235000000.0 -1.010724000e+00 -1.131200000e-02
244000000.0 -1.009560000e+00 -1.068100000e-02
253000000.0 -1.009594000e+00 -1.015500000e-02
262000000.0 -1.007551000e+00 -9.276000000e-03
271000000.0 -1.007164000e+00 -6.346000000e-03
280000000.0 -1.005049000e+00 -4.453000000e-03
289000000.0 -1.002653000e+00 -3.084000000e-03
298000000.0 -1.001251000e+00 -5.250000000e-04
307000000.0 -1.002155000e+00 7.780000000e-04
316000000.0 -1.004893000e+00 -1.307000000e-03
325000000.0 -1.007719000e+00 -2.693000000e-03
334000000.0 -1.010593000e+00 -1.350000000e-03
343000000.0 -1.010036000e+00 -1.510000000e-03
352000000.0 -1.014878000e+00 -3.078000000e-03
361000000.0 -1.033334000e+00 -5.415200000e-02
370000000.0 -1.005432000e+00 3.095700000e-02
379000000.0 -1.013489000e+00 -5.214000000e-03
388000000.0 -1.013734000e+00 -5.238000000e-03
397000000.0 -1.011766000e+00 1.450700000e-02
406000000.0 -1.012237000e+00 -3.564000000e-03
415000000.0 -1.011017000e+00 -4.376000000e-03
424000000.0 -1.009756000e+00 -2.941000000e-03
433000000.0 -1.006049000e+00 -3.845000000e-03
442000000.0 -1.005019000e+00 -1.997000000e-03
451000000.0 -9.992550000e-01 6.710000000e-04
460000000.0 -1.003902000e+00 8.410000000e-04
469000000.0 -1.009513000e+00 -1.579000000e-02
478000000.0 -1.010840000e+00 5.100000000e-05
487000000.0 -1.010568000e+00 1.857600000e-02
496000000.0 -1.014882000e+00 6.953000000e-03
505000000.0 -1.017895000e+00 -1.538500000e-02
514000000.0 -1.017065000e+00 3.244000000e-03
523000000.0 -1.016426000e+00 1.993800000e-02
532000000.0 -1.016967000e+00 1.855000000e-03
541000000.0 -1.018289000e+00 -1.106600000e-02
550000000.0 -1.013197000e+00 8.370000000e-04
559000000.0 -1.011542000e+00 2.036200000e-02
568000000.0 -1.011914000e+00 4.079000000e-03
577000000.0 -1.008412000e+00 -1.167000000e-03
586000000.0 -1.007177000e+00 2.915000000e-03
595000000.0 -1.002403000e+00 3.990000000e-03
604000000.0 -1.002643000e+00 -1.396000000e-03
613000000.0 -1.003025000e+00 7.371000000e-03
622000000.0 -1.004735000e+00 8.970000000e-03
631000000.0 -1.007643000e+00 7.228000000e-03
640000000.0 -1.009570000e+00 1.008700000e-02
649000000.0 -1.007702000e+00 8.739000000e-03
658000000.0 -1.010968000e+00 1.203400000e-02
667000000.0 -1.012486000e+00 1.100600000e-02
676000000.0 -1.013323000e+00 1.504500000e-02
685000000.0 -1.010323000e+00 9.970000000e-03
694000000.0 -1.010183000e+00 1.381500000e-02
703000000.0 -1.008937000e+00 1.141200000e-02
712000000.0 -1.010719000e+00 6.460000000e-03
721000000.0 -1.009099000e+00 8.977000000e-03
730000000.0 -1.004104000e+00 7.535000000e-03
739000000.0 -1.002094000e+00 9.340000000e-04
748000000.0 -1.000759000e+00 4.449000000e-03
757000000.0 -9.961490000e-01 2.008000000e-03
766000000.0 -9.990700000e-01 5.011000000e-03
775000000.0 -9.989610000e-01 7.679000000e-03
784000000.0 -9.995170000e-01 8.395000000e-03
793000000.0 -1.001245000e+00 1.354800000e-02
802000000.0 -9.976560000e-01 9.357000000e-03
811000000.0 -9.990180000e-01 6.556000000e-03
820000000.0 -9.991930000e-01 5.890000000e-03
829000000.0 -9.970380000e-01 9.257000000e-03
838000000.0 -9.950480000e-01 8.128000000e-03
847000000.0 -9.987020000e-01 4.905000000e-03
856000000.0 -1.001533000e+00 1.456000000e-03
865000000.0 -9.968270000e-01 -1.308000000e-03
874000000.0 -9.953780000e-01 -1.458000000e-03
883000000.0 -9.987710000e-01 -6.310000000e-04
892000000.0 -9.975580000e-01 6.020000000e-04
901000000.0 -1.000725000e+00 -4.020000000e-03
910000000.0 -1.001702000e+00 -3.959000000e-03
919000000.0 -9.999230000e-01 -5.807000000e-03
928000000.0 -9.985080000e-01 -5.655000000e-03
937000000.0 -9.976850000e-01 -1.029000000e-03
946000000.0 -1.001162000e+00 -7.963000000e-03
955000000.0 -9.993730000e-01 -6.165000000e-03
964000000.0 -1.002874000e+00 -4.362000000e-03
973000000.0 -1.002196000e+00 -6.150000000e-03
982000000.0 -1.001540000e+00 -1.316400000e-02
991000000.0 -1.003224000e+00 -8.261000000e-03
1000000000.0 -1.003386000e+00 -8.689000000e-03
1004500000.0 -1.000825000e+00 -1.100200000e-02
1009000000.0 -1.001067000e+00 -1.003400000e-02
1013500000.0 -1.003242000e+00 -7.878000000e-03
1018000000.0 -1.002660000e+00 -4.347000000e-03
1022500000.0 -1.002259000e+00 -5.437000000e-03
1027000000.0 -9.983310000e-01 -6.012000000e-03
1031500000.0 -9.992900000e-01 -4.356000000e-03
1036000000.0 -1.003837000e+00 -6.791000000e-03
1040500000.0 -1.003152000e+00 -7.702000000e-03
1045000000.0 -1.001667000e+00 -2.211000000e-03
1049500000.0 -9.991630000e-01 -5.324000000e-03
1054000000.0 -9.989260000e-01 -4.793000000e-03
1058500000.0 -9.995530000e-01 -2.535000000e-03
1063000000.0 -1.006557000e+00 -5.520000000e-03
1067500000.0 -1.002419000e+00 -1.858000000e-03
1072000000.0 -1.000914000e+00 -8.454000000e-03
1076500000.0 -1.001841000e+00 -7.142000000e-03
1081000000.0 -9.997460000e-01 -7.186000000e-03
1085500000.0 -1.004244000e+00 -1.115900000e-02
1090000000.0 -1.004297000e+00 -1.258700000e-02
1094500000.0 -1.006068000e+00 -1.507700000e-02
1099000000.0 -1.008867000e+00 -1.387700000e-02
1103500000.0 -1.009857000e+00 -1.233800000e-02
1108000000.0 -1.006153000e+00 -1.043100000e-02
1112500000.0 -1.006305000e+00 -8.369000000e-03
1117000000.0 -1.002187000e+00 -1.102300000e-02
1121500000.0 -1.011592000e+00 -1.240500000e-02
1126000000.0 -1.007333000e+00 -1.078000000e-02
1130500000.0 -9.928210000e-01 3.565700000e-02
1135000000.0 -1.008590000e+00 -8.765000000e-03
1139500000.0 -1.007179000e+00 -7.129000000e-03
1144000000.0 -1.009831000e+00 -8.504000000e-03
1148500000.0 -1.018831000e+00 -5.811400000e-02
1153000000.0 -1.000754000e+00 -6.285000000e-03
1157500000.0 -9.945920000e-01 2.959900000e-02
1162000000.0 -1.008033000e+00 -2.391600000e-02
1166500000.0 -1.002880000e+00 -3.986000000e-03
1171000000.0 -1.001026000e+00 -7.684000000e-03
1175500000.0 -1.002753000e+00 -1.193600000e-02
1180000000.0 -9.961530000e-01 -4.940000000e-03
1184500000.0 -9.998110000e-01 -7.994000000e-03
1189000000.0 -1.000123000e+00 -5.212000000e-03
1193500000.0 -9.984080000e-01 -9.841000000e-03
1198000000.0 -9.956490000e-01 -3.294000000e-03
1202500000.0 -9.987970000e-01 -6.130000000e-04
1207000000.0 -9.958470000e-01 -5.622000000e-03
1211500000.0 -1.000669000e+00 -3.933000000e-03
1216000000.0 -1.002429000e+00 -2.525000000e-03
1220500000.0 -1.004684000e+00 -6.960000000e-03
1225000000.0 -1.000498000e+00 1.603000000e-03
1229500000.0 -1.002833000e+00 -1.980000000e-04
1234000000.0 -1.003098000e+00 -8.760000000e-04
1238500000.0 -1.002464000e+00 -1.426500000e-02
1243000000.0 -1.000544000e+00 -4.718000000e-03
1247500000.0 -1.006122000e+00 -6.637000000e-03
1252000000.0 -1.004465000e+00 -1.017000000e-02
1256500000.0 -1.000510000e+00 -5.190000000e-03
1261000000.0 -1.004512000e+00 -1.434000000e-02
1265500000.0 -1.004629000e+00 -8.548000000e-03
1270000000.0 -1.004272000e+00 -9.179000000e-03
1274500000.0 -1.011652000e+00 -9.109000000e-03
1279000000.0 -1.004816000e+00 -2.335000000e-03
1283500000.0 -1.001239000e+00 1.729000000e-03
1288000000.0 -1.005548000e+00 -1.659000000e-03
1292500000.0 -1.000996000e+00 -2.692000000e-03
1297000000.0 -1.008892000e+00 -1.646000000e-03
1301500000.0 -1.002739000e+00 -3.316000000e-03
1306000000.0 -1.001247000e+00 -4.188000000e-03
1310500000.0 -9.958850000e-01 -2.145000000e-03
1315000000.0 -1.004198000e+00 -1.375600000e-02
1319500000.0 -1.003248000e+00 -7.456000000e-03
1324000000.0 -9.980830000e-01 -5.672000000e-03
1328500000.0 -9.965070000e-01 -1.052700000e-02
1333000000.0 -1.004527000e+00 -4.737000000e-03
1337500000.0 -9.931610000e-01 -4.355000000e-03
1342000000.0 -9.917920000e-01 -3.655000000e-03
1346500000.0 -9.925600000e-01 -1.324000000e-03
1351000000.0 -9.881120000e-01 1.201000000e-03
1355500000.0 -9.900620000e-01 2.620000000e-03
1360000000.0 -9.938650000e-01 -7.112000000e-03
1364500000.0 -9.995950000e-01 9.630000000e-04
1369000000.0 -1.005985000e+00 -5.547000000e-03
1373500000.0 -9.954710000e-01 -9.305000000e-03
1378000000.0 -1.001790000e+00 -3.920000000e-04
1382500000.0 -1.004028000e+00 -1.445000000e-03
1387000000.0 -1.002968000e+00 2.849000000e-03
1391500000.0 -1.001927000e+00 -4.974000000e-03
1396000000.0 -1.010911000e+00 2.252000000e-03
1400500000.0 -1.006288000e+00 1.101000000e-03
1405000000.0 -1.011107000e+00 3.553000000e-03
1409500000.0 -1.004340000e+00 -6.966000000e-03
1414000000.0 -1.006008000e+00 -2.860000000e-03
1418500000.0 -1.014575000e+00 -4.859000000e-03
1423000000.0 -1.007432000e+00 -1.868000000e-03
1427500000.0 -1.013495000e+00 -7.305000000e-03
1432000000.0 -1.009700000e+00 -6.969000000e-03
1436500000.0 -1.010614000e+00 -4.281000000e-03
1441000000.0 -1.009264000e+00 -1.072400000e-02
1445500000.0 -1.010274000e+00 6.422000000e-03
1450000000.0 -1.009289000e+00 -8.516000000e-03
