! piloto_deriva / corto_deriva / r34
# HZ S RI R 50
50000.0 -9.978570000e-01 -3.624000000e-02
59500.0 -9.995970000e-01 -1.726100000e-02
69000.0 -9.976290000e-01 -3.508000000e-03
78500.0 -9.988870000e-01 -1.892000000e-03
88000.0 -9.992000000e-01 -4.020000000e-04
97500.0 -9.993730000e-01 -3.580000000e-04
107000.0 -9.996510000e-01 -2.058000000e-03
116500.0 -9.999620000e-01 -6.183000000e-03
126000.0 -1.000287000e+00 -1.110900000e-02
135500.0 -1.000877000e+00 -1.662500000e-02
145000.0 -1.000383000e+00 -2.232300000e-02
154500.0 -9.996410000e-01 -2.924700000e-02
164000.0 -1.000148000e+00 -3.605100000e-02
173500.0 -9.999320000e-01 -4.451100000e-02
183000.0 -1.000565000e+00 -5.173100000e-02
192500.0 -1.000139000e+00 -6.019900000e-02
202000.0 -1.000606000e+00 -6.833300000e-02
211500.0 -1.000467000e+00 -7.771300000e-02
221000.0 -1.000611000e+00 -8.600500000e-02
230500.0 -1.000399000e+00 -9.554500000e-02
240000.0 -1.001397000e+00 -1.039870000e-01
249500.0 -9.788730000e-01 -8.084200000e-02
259000.0 -1.001070000e+00 -1.220580000e-01
268500.0 -1.001734000e+00 -1.317770000e-01
278000.0 -1.001669000e+00 -1.416030000e-01
287500.0 -1.000830000e+00 -1.499590000e-01
297000.0 -1.002102000e+00 -1.593480000e-01
306500.0 -1.003015000e+00 -1.689720000e-01
316000.0 -1.002265000e+00 -1.776680000e-01
325500.0 -1.002711000e+00 -1.870380000e-01
335000.0 -1.002223000e+00 -1.963410000e-01
344500.0 -1.002649000e+00 -2.064270000e-01
354000.0 -1.003079000e+00 -2.149930000e-01
363500.0 -1.004645000e+00 -2.235720000e-01
373000.0 -1.003968000e+00 -2.333600000e-01
382500.0 -1.003769000e+00 -2.437270000e-01
392000.0 -1.004722000e+00 -2.527540000e-01
401500.0 -1.004598000e+00 -2.613880000e-01
411000.0 -1.005308000e+00 -2.710250000e-01
420500.0 -1.004367000e+00 -2.800570000e-01
430000.0 -1.033547000e+00 -2.846300000e-01
439500.0 -1.000480000e+00 -3.174830000e-01
449000.0 -1.009712000e+00 -2.901920000e-01
458500.0 -1.005546000e+00 -3.184470000e-01
468000.0 -1.010942000e+00 -3.093940000e-01
477500.0 -1.005623000e+00 -3.356190000e-01
487000.0 -1.012077000e+00 -3.265900000e-01
496500.0 -1.001710000e+00 -3.737630000e-01
506000.0 -1.012092000e+00 -3.449990000e-01
515500.0 -1.001581000e+00 -3.925350000e-01
525000.0 -1.012896000e+00 -3.630110000e-01
534500.0 -1.007870000e+00 -3.923690000e-01
544000.0 -1.008697000e+00 -4.015070000e-01
553500.0 -1.007663000e+00 -4.114210000e-01
563000.0 -1.009224000e+00 -4.198040000e-01
572500.0 -1.009426000e+00 -4.285240000e-01
582000.0 -1.009440000e+00 -4.383980000e-01
591500.0 -1.010245000e+00 -4.468160000e-01
601000.0 -1.009346000e+00 -4.564970000e-01
610500.0 -1.011249000e+00 -4.651260000e-01
620000.0 -1.010296000e+00 -4.738580000e-01
629500.0 -1.013297000e+00 -4.833300000e-01
639000.0 -1.012494000e+00 -4.928620000e-01
648500.0 -1.014013000e+00 -5.023250000e-01
658000.0 -1.013506000e+00 -5.105170000e-01
667500.0 -1.015568000e+00 -5.202610000e-01
677000.0 -1.016521000e+00 -5.288430000e-01
686500.0 -1.016078000e+00 -5.382150000e-01
696000.0 -1.017236000e+00 -5.474060000e-01
705500.0 -1.016890000e+00 -5.559360000e-01
715000.0 -1.018015000e+00 -5.643210000e-01
724500.0 -1.019916000e+00 -5.731690000e-01
734000.0 -1.020868000e+00 -5.826850000e-01
743500.0 -1.021566000e+00 -5.915610000e-01
753000.0 -1.022219000e+00 -6.007080000e-01
762500.0 -1.023466000e+00 -6.096920000e-01
772000.0 -1.024482000e+00 -6.182350000e-01
781500.0 -1.026383000e+00 -6.270380000e-01
791000.0 -1.026063000e+00 -6.363610000e-01
800500.0 -1.027803000e+00 -6.442900000e-01
810000.0 -1.029468000e+00 -6.532810000e-01
819500.0 -1.030090000e+00 -6.633890000e-01
829000.0 -1.031577000e+00 -6.720810000e-01
838500.0 -1.033359000e+00 -6.807230000e-01
848000.0 -1.035482000e+00 -6.892870000e-01
857500.0 -1.036114000e+00 -6.960600000e-01
867000.0 -1.038203000e+00 -7.061590000e-01
876500.0 -1.039797000e+00 -7.156690000e-01
886000.0 -1.041336000e+00 -7.229190000e-01
895500.0 -1.043580000e+00 -7.324830000e-01
905000.0 -1.043956000e+00 -7.412920000e-01
914500.0 -1.047727000e+00 -7.492070000e-01
924000.0 -1.048692000e+00 -7.578850000e-01
933500.0 -1.051533000e+00 -7.671000000e-01
943000.0 -1.053167000e+00 -7.748610000e-01
952500.0 -1.057091000e+00 -7.840990000e-01
962000.0 -1.057872000e+00 -7.903730000e-01
971500.0 -1.061091000e+00 -8.008340000e-01
981000.0 -1.063756000e+00 -8.087440000e-01
990500.0 -1.065775000e+00 -8.180690000e-01
1000000.0 -1.067866000e+00 -8.255810000e-01
1090000.0 -1.097556000e+00 -9.034350000e-01
1180000.0 -1.135498000e+00 -9.766530000e-01
1270000.0 -1.182080000e+00 -1.042738000e+00
1360000.0 -1.240599000e+00 -1.106863000e+00
1450000.0 -1.310008000e+00 -1.158253000e+00
1540000.0 -1.385672000e+00 -1.190499000e+00
1630000.0 -1.470310000e+00 -1.211332000e+00
1720000.0 -1.561545000e+00 -1.210514000e+00
1810000.0 -1.651944000e+00 -1.186888000e+00
1900000.0 -1.735194000e+00 -1.147156000e+00
1990000.0 -1.807572000e+00 -1.079250000e+00
2080000.0 -1.864301000e+00 -1.002801000e+00
2170000.0 -1.900005000e+00 -9.108950000e-01
2260000.0 -1.914720000e+00 -8.196740000e-01
2350000.0 -1.917089000e+00 -7.300390000e-01
2440000.0 -1.904849000e+00 -6.440100000e-01
2530000.0 -1.874718000e+00 -5.679010000e-01
2620000.0 -1.838833000e+00 -4.946830000e-01
2710000.0 -1.799403000e+00 -4.334430000e-01
2800000.0 -1.757590000e+00 -3.855340000e-01
2890000.0 -1.714294000e+00 -3.420850000e-01
2980000.0 -1.672253000e+00 -3.035090000e-01
3070000.0 -1.633219000e+00 -2.708950000e-01
3160000.0 -1.592255000e+00 -2.417140000e-01
3250000.0 -1.555882000e+00 -2.131330000e-01
3340000.0 -1.521681000e+00 -1.926540000e-01
3430000.0 -1.488330000e+00 -1.729540000e-01
3520000.0 -1.458622000e+00 -1.541960000e-01
3610000.0 -1.429563000e+00 -1.362900000e-01
3700000.0 -1.401090000e+00 -1.220990000e-01
3790000.0 -1.376626000e+00 -1.089300000e-01
3880000.0 -1.353761000e+00 -9.368600000e-02
3970000.0 -1.333155000e+00 -8.001500000e-02
4060000.0 -1.314111000e+00 -6.583100000e-02
4150000.0 -1.294564000e+00 -5.446400000e-02
4240000.0 -1.279724000e+00 -4.299100000e-02
4330000.0 -1.262325000e+00 -3.114700000e-02
4420000.0 -1.249058000e+00 -1.844300000e-02
4510000.0 -1.235128000e+00 -7.672000000e-03
4600000.0 -1.222977000e+00 4.557000000e-03
4690000.0 -1.212615000e+00 1.483500000e-02
4780000.0 -1.202712000e+00 2.735300000e-02
4870000.0 -1.194958000e+00 3.708500000e-02
4960000.0 -1.187734000e+00 4.815100000e-02
5050000.0 -1.172804000e+00 5.903900000e-02
5140000.0 -1.168012000e+00 6.903100000e-02
5230000.0 -1.162297000e+00 8.029200000e-02
5320000.0 -1.157688000e+00 8.975700000e-02
5410000.0 -1.152418000e+00 1.017120000e-01
5500000.0 -1.147877000e+00 1.113760000e-01
5590000.0 -1.142880000e+00 1.217690000e-01
5680000.0 -1.139523000e+00 1.311880000e-01
5770000.0 -1.135891000e+00 1.409870000e-01
5860000.0 -1.133069000e+00 1.500620000e-01
5950000.0 -1.129419000e+00 1.586710000e-01
6040000.0 -1.126218000e+00 1.675150000e-01
6130000.0 -1.123560000e+00 1.758480000e-01
6220000.0 -1.119074000e+00 1.849980000e-01
6310000.0 -1.116386000e+00 1.934410000e-01
6400000.0 -1.114566000e+00 1.985870000e-01
6490000.0 -1.112661000e+00 2.065700000e-01
6580000.0 -1.111470000e+00 2.119190000e-01
6670000.0 -1.109090000e+00 2.196160000e-01
6760000.0 -1.101671000e+00 2.435090000e-01
6850000.0 -1.112807000e+00 2.094450000e-01
6940000.0 -1.098043000e+00 2.507580000e-01
7030000.0 -1.111103000e+00 2.160110000e-01
7120000.0 -1.096532000e+00 2.570170000e-01
7210000.0 -1.107665000e+00 2.202860000e-01
7300000.0 -1.095597000e+00 2.613550000e-01
7390000.0 -1.108235000e+00 2.232350000e-01
7480000.0 -1.101075000e+00 2.429370000e-01
7570000.0 1.962150000e-01 1.074051000e+00
7660000.0 1.947900000e-01 1.074274000e+00
7750000.0 1.939180000e-01 1.073852000e+00
7840000.0 1.927300000e-01 1.074246000e+00
7930000.0 1.930080000e-01 1.074682000e+00
8020000.0 1.902770000e-01 1.075284000e+00
8110000.0 1.902670000e-01 1.075544000e+00
8200000.0 1.905560000e-01 1.075908000e+00
8290000.0 1.891010000e-01 1.076699000e+00
8380000.0 1.899550000e-01 1.076323000e+00
8470000.0 1.884350000e-01 1.076506000e+00
8560000.0 1.876490000e-01 1.078034000e+00
8650000.0 1.870580000e-01 1.078218000e+00
8740000.0 1.866280000e-01 1.078608000e+00
8830000.0 1.849870000e-01 1.079701000e+00
8920000.0 1.839970000e-01 1.080405000e+00
9010000.0 1.838220000e-01 1.080855000e+00
9100000.0 1.829960000e-01 1.080441000e+00
9190000.0 1.819440000e-01 1.081720000e+00
9280000.0 1.809140000e-01 1.082709000e+00
9370000.0 1.806960000e-01 1.082494000e+00
9460000.0 1.798450000e-01 1.084332000e+00
9550000.0 1.798740000e-01 1.083664000e+00
9640000.0 1.791720000e-01 1.084102000e+00
9730000.0 1.786880000e-01 1.084509000e+00
9820000.0 1.772840000e-01 1.085910000e+00
9910000.0 1.765060000e-01 1.086245000e+00
10000000.0 1.766550000e-01 1.087510000e+00
10900000.0 1.701570000e-01 1.094950000e+00
11800000.0 1.629020000e-01 1.101545000e+00
12700000.0 1.566910000e-01 1.110284000e+00
13600000.0 1.509370000e-01 1.118096000e+00
14500000.0 1.438840000e-01 1.126573000e+00
15400000.0 1.376900000e-01 1.134273000e+00
16300000.0 1.309380000e-01 1.144480000e+00
17200000.0 1.249160000e-01 1.154273000e+00
18100000.0 1.171310000e-01 1.163648000e+00
19000000.0 1.097130000e-01 1.172890000e+00
19900000.0 1.017070000e-01 1.181811000e+00
20800000.0 9.206000000e-02 1.191732000e+00
21700000.0 8.445500000e-02 1.201498000e+00
22600000.0 7.574900000e-02 1.211776000e+00
23500000.0 6.594300000e-02 1.222153000e+00
24400000.0 5.670300000e-02 1.231982000e+00
25300000.0 4.658400000e-02 1.241412000e+00
26200000.0 3.631700000e-02 1.251970000e+00
27100000.0 2.562400000e-02 1.261966000e+00
28000000.0 1.298300000e-02 1.273140000e+00
28900000.0 1.668000000e-03 1.281778000e+00
29800000.0 -9.749000000e-03 1.292385000e+00
30700000.0 -2.191800000e-02 1.302128000e+00
31600000.0 -3.644600000e-02 1.312208000e+00
32500000.0 -4.808000000e-02 1.321208000e+00
33400000.0 -6.206100000e-02 1.333455000e+00
34300000.0 -7.641600000e-02 1.341511000e+00
35200000.0 -9.259700000e-02 1.352664000e+00
36100000.0 -1.058930000e-01 1.359991000e+00
37000000.0 -1.219520000e-01 1.369798000e+00
37900000.0 -1.379460000e-01 1.379047000e+00
38800000.0 -1.535100000e-01 1.387818000e+00
39700000.0 -1.723530000e-01 1.397672000e+00
40600000.0 -1.890290000e-01 1.405573000e+00
41500000.0 -2.060200000e-01 1.413094000e+00
42400000.0 -2.247760000e-01 1.421024000e+00
43300000.0 -2.438790000e-01 1.427813000e+00
44200000.0 -2.634130000e-01 1.436051000e+00
45100000.0 -2.825640000e-01 1.441817000e+00
46000000.0 -3.029040000e-01 1.448226000e+00
46900000.0 -3.230900000e-01 1.453784000e+00
47800000.0 -3.453110000e-01 1.458703000e+00
48700000.0 -3.651550000e-01 1.464023000e+00
49600000.0 -3.875730000e-01 1.468834000e+00
50500000.0 -4.090880000e-01 1.470322000e+00
51400000.0 -4.308980000e-01 1.475437000e+00
52300000.0 -4.535300000e-01 1.477094000e+00
53200000.0 -4.761070000e-01 1.480116000e+00
54100000.0 -5.017080000e-01 1.481499000e+00
55000000.0 -5.223630000e-01 1.481962000e+00
55900000.0 -5.461470000e-01 1.482229000e+00
56800000.0 -5.712780000e-01 1.480668000e+00
57700000.0 -5.955980000e-01 1.478371000e+00
58600000.0 -6.200190000e-01 1.477804000e+00
59500000.0 -6.438310000e-01 1.476100000e+00
60400000.0 -6.669570000e-01 1.470330000e+00
61300000.0 -6.931110000e-01 1.467603000e+00
62200000.0 -7.150540000e-01 1.462369000e+00
63100000.0 -7.403730000e-01 1.456703000e+00
64000000.0 -7.658310000e-01 1.450987000e+00
64900000.0 -7.888840000e-01 1.444243000e+00
65800000.0 -8.130120000e-01 1.436434000e+00
66700000.0 -8.355830000e-01 1.427219000e+00
67600000.0 -8.599970000e-01 1.418137000e+00
68500000.0 -8.827350000e-01 1.407994000e+00
69400000.0 -9.076420000e-01 1.398246000e+00
70300000.0 -9.295310000e-01 1.385688000e+00
71200000.0 -9.521420000e-01 1.374755000e+00
72100000.0 -9.754330000e-01 1.360932000e+00
73000000.0 -9.953600000e-01 1.348450000e+00
73900000.0 -1.017643000e+00 1.334143000e+00
74800000.0 -1.039507000e+00 1.319888000e+00
75700000.0 -1.061591000e+00 1.305037000e+00
76600000.0 -1.080851000e+00 1.288579000e+00
77500000.0 -1.099766000e+00 1.273378000e+00
78400000.0 -1.120575000e+00 1.255696000e+00
79300000.0 -1.138875000e+00 1.237916000e+00
80200000.0 -1.157474000e+00 1.220050000e+00
81100000.0 -1.175764000e+00 1.200682000e+00
82000000.0 -1.193256000e+00 1.183107000e+00
82900000.0 -1.210114000e+00 1.163379000e+00
83800000.0 -1.225533000e+00 1.142172000e+00
84700000.0 -1.241343000e+00 1.120637000e+00
85600000.0 -1.254051000e+00 1.101269000e+00
86500000.0 -1.269943000e+00 1.078158000e+00
87400000.0 -1.260537000e+00 1.075883000e+00
88300000.0 -1.315564000e+00 1.017712000e+00
89200000.0 -1.284822000e+00 1.031488000e+00
90100000.0 -1.340578000e+00 9.712660000e-01
91000000.0 -1.306514000e+00 9.881900000e-01
91900000.0 -1.359004000e+00 9.256960000e-01
92800000.0 -1.327020000e+00 9.435590000e-01
93700000.0 -1.374727000e+00 8.808200000e-01
94600000.0 -1.343049000e+00 8.971520000e-01
95500000.0 -1.368495000e+00 8.525270000e-01
96400000.0 -1.375756000e+00 8.305330000e-01
97300000.0 -1.380979000e+00 8.064530000e-01
98200000.0 -1.383714000e+00 7.837020000e-01
99100000.0 -1.388448000e+00 7.608680000e-01
100000000.0 -1.392704000e+00 7.381850000e-01
109000000.0 -1.386028000e+00 5.203970000e-01
118000000.0 -1.331414000e+00 3.378370000e-01
127000000.0 -1.250395000e+00 1.989130000e-01
136000000.0 -1.134154000e+00 9.966300000e-02
145000000.0 -1.046453000e+00 2.996400000e-02
154000000.0 -1.000913000e+00 -1.423000000e-03
163000000.0 -1.002291000e+00 -4.185000000e-03
172000000.0 -1.004755000e+00 -6.310000000e-03
181000000.0 -1.006319000e+00 -7.684000000e-03
190000000.0 -1.007896000e+00 -9.477000000e-03
199000000.0 -1.008385000e+00 -1.050200000e-02
208000000.0 -1.010247000e+00 -1.163000000e-02
217000000.0 -1.010099000e+00 -1.199000000e-02
226000000.0 -1.010016000e+00 -1.099000000e-02
235000000.0 -1.010413000e+00 -1.177500000e-02
244000000.0 -1.010103000e+00 -9.424000000e-03
253000000.0 -1.009259000e+00 -9.995000000e-03
262000000.0 -1.008013000e+00 -7.189000000e-03
271000000.0 -1.006477000e+00 -7.062000000e-03
280000000.0 -1.004244000e+00 -4.997000000e-03
289000000.0 -1.002957000e+00 -2.574000000e-03
298000000.0 -1.000429000e+00 -2.280000000e-04
307000000.0 -1.001898000e+00 -4.800000000e-05
316000000.0 -1.004058000e+00 -1.484000000e-03
325000000.0 -1.005875000e+00 -2.634000000e-03
334000000.0 -1.009905000e+00 -2.584000000e-03
343000000.0 -1.011472000e+00 -3.912000000e-03
352000000.0 -1.012603000e+00 -3.782000000e-03
361000000.0 -1.016574000e+00 -2.361600000e-02
370000000.0 -1.014620000e+00 -4.589000000e-03
379000000.0 -1.013588000e+00 -3.103000000e-03
388000000.0 -1.014035000e+00 -3.058000000e-03
397000000.0 -1.005523000e+00 3.080300000e-02
406000000.0 -1.012089000e+00 -2.198000000e-03
415000000.0 -1.010480000e+00 -2.304000000e-03
424000000.0 -1.007275000e+00 -2.914000000e-03
433000000.0 -1.006520000e+00 -2.558000000e-03
442000000.0 -1.003396000e+00 -1.210000000e-04
451000000.0 -1.001216000e+00 1.793000000e-03
460000000.0 -1.004396000e+00 3.000000000e-06
469000000.0 -1.007045000e+00 -7.530000000e-04
478000000.0 -1.009939000e+00 1.581000000e-03
487000000.0 -1.012233000e+00 2.426000000e-03
496000000.0 -1.014370000e+00 1.045000000e-03
505000000.0 -1.016280000e+00 -1.940000000e-04
514000000.0 -1.017027000e+00 3.709000000e-03
523000000.0 -1.017128000e+00 1.880000000e-03
532000000.0 -1.016569000e+00 2.839000000e-03
541000000.0 -1.015557000e+00 3.029000000e-03
550000000.0 -1.014963000e+00 2.833000000e-03
559000000.0 -1.011430000e+00 3.211000000e-03
568000000.0 -1.011842000e+00 1.777000000e-03
577000000.0 -1.010265000e+00 -8.990000000e-04
586000000.0 -1.006384000e+00 1.607000000e-03
595000000.0 -1.002738000e+00 3.450000000e-03
604000000.0 -1.000842000e+00 7.180000000e-04
613000000.0 -1.003804000e+00 5.706000000e-03
622000000.0 -1.004537000e+00 5.363000000e-03
631000000.0 -1.010965000e+00 8.202000000e-03
640000000.0 -1.007912000e+00 1.108600000e-02
649000000.0 -1.010440000e+00 9.975000000e-03
658000000.0 -1.013484000e+00 1.329400000e-02
667000000.0 -1.009908000e+00 1.481500000e-02
676000000.0 -1.009356000e+00 1.101300000e-02
685000000.0 -1.010246000e+00 1.031200000e-02
694000000.0 -1.011214000e+00 1.218100000e-02
703000000.0 -1.008446000e+00 1.196400000e-02
712000000.0 -9.923070000e-01 6.634100000e-02
721000000.0 -1.004961000e+00 6.677000000e-03
730000000.0 -1.002091000e+00 5.682000000e-03
739000000.0 -1.001127000e+00 4.728000000e-03
748000000.0 -9.994700000e-01 2.645000000e-03
757000000.0 -1.000855000e+00 2.753000000e-03
766000000.0 -9.986670000e-01 9.640000000e-04
775000000.0 -9.986900000e-01 7.305000000e-03
784000000.0 -9.990670000e-01 6.802000000e-03
793000000.0 -9.997910000e-01 5.827000000e-03
802000000.0 -9.983420000e-01 7.570000000e-03
811000000.0 -1.001401000e+00 7.188000000e-03
820000000.0 -9.975240000e-01 9.139000000e-03
829000000.0 -9.998170000e-01 8.567000000e-03
838000000.0 -9.968610000e-01 9.634000000e-03
847000000.0 -9.971050000e-01 6.563000000e-03
856000000.0 -9.948990000e-01 3.413000000e-03
865000000.0 -9.978840000e-01 6.539000000e-03
874000000.0 -9.993400000e-01 5.365000000e-03
883000000.0 -9.966970000e-01 4.638000000e-03
892000000.0 -9.995330000e-01 -1.402000000e-03
901000000.0 -9.960900000e-01 -2.168000000e-03
910000000.0 -1.001175000e+00 -2.732000000e-03
919000000.0 -9.987320000e-01 -6.484000000e-03
928000000.0 -9.982710000e-01 -5.656000000e-03
937000000.0 -1.000756000e+00 -3.781000000e-03
946000000.0 -9.995670000e-01 -5.119000000e-03
955000000.0 -9.996410000e-01 -9.530000000e-03
964000000.0 -1.000221000e+00 -7.230000000e-03
973000000.0 -1.001681000e+00 -6.273000000e-03
982000000.0 -1.004305000e+00 -9.014000000e-03
991000000.0 -9.997950000e-01 -5.803000000e-03
1000000000.0 -1.002225000e+00 -5.929000000e-03
1004500000.0 -1.003362000e+00 -1.009800000e-02
1009000000.0 -1.002374000e+00 -1.341300000e-02
1013500000.0 -1.002533000e+00 -4.608000000e-03
1018000000.0 -1.002151000e+00 -1.444000000e-03
1022500000.0 -1.000119000e+00 -9.912000000e-03
1027000000.0 -9.985350000e-01 -4.355000000e-03
1031500000.0 -1.000381000e+00 -8.165000000e-03
1036000000.0 -1.001012000e+00 -2.662000000e-03
1040500000.0 -1.000063000e+00 -5.132000000e-03
1045000000.0 -1.001802000e+00 -6.425000000e-03
1049500000.0 -9.970330000e-01 -1.166000000e-03
1054000000.0 -1.003109000e+00 -1.180000000e-03
1058500000.0 -1.001731000e+00 -5.361000000e-03
1063000000.0 -1.001954000e+00 -6.146000000e-03
1067500000.0 -1.003261000e+00 -4.031000000e-03
1072000000.0 -1.008084000e+00 -7.480000000e-03
1076500000.0 -1.005937000e+00 -4.166000000e-03
1081000000.0 -1.009546000e+00 -9.730000000e-03
1085500000.0 -1.007201000e+00 -7.593000000e-03
1090000000.0 -1.010979000e+00 -9.778000000e-03
1094500000.0 -1.009000000e+00 -1.552600000e-02
1099000000.0 -1.010429000e+00 -1.281500000e-02
1103500000.0 -1.002488000e+00 -4.436000000e-03
1108000000.0 -1.005283000e+00 -1.017800000e-02
1112500000.0 -1.006673000e+00 -7.675000000e-03
1117000000.0 -1.005562000e+00 -1.215400000e-02
1121500000.0 -1.007792000e+00 -9.572000000e-03
1126000000.0 -1.009397000e+00 -8.801000000e-03
1130500000.0 -1.007903000e+00 -1.438800000e-02
1135000000.0 -1.015192000e+00 -4.627900000e-02
1139500000.0 -1.008343000e+00 -1.247700000e-02
1144000000.0 -1.012454000e+00 -8.864000000e-03
1148500000.0 -1.006787000e+00 -1.396000000e-02
1153000000.0 -1.008791000e+00 -9.965000000e-03
1157500000.0 -9.870030000e-01 2.928500000e-02
1162000000.0 -1.006340000e+00 -9.032000000e-03
1166500000.0 -1.005671000e+00 -4.617000000e-03
1171000000.0 -1.002807000e+00 4.420000000e-04
1175500000.0 -1.000749000e+00 -2.668000000e-03
1180000000.0 -1.002020000e+00 -1.205300000e-02
1184500000.0 -1.001405000e+00 -1.322300000e-02
1189000000.0 -9.998010000e-01 -4.989000000e-03
1193500000.0 -9.974740000e-01 2.250000000e-03
1198000000.0 -9.956170000e-01 -4.831000000e-03
1202500000.0 -1.000901000e+00 -4.870000000e-04
1207000000.0 -9.965290000e-01 -2.088000000e-03
1211500000.0 -9.995220000e-01 -4.187000000e-03
1216000000.0 -1.003394000e+00 -1.530000000e-04
1220500000.0 -1.001452000e+00 -1.014000000e-03
1225000000.0 -1.003249000e+00 -5.909000000e-03
1229500000.0 -9.988640000e-01 -1.505000000e-03
1234000000.0 -1.003079000e+00 -1.393200000e-02
1238500000.0 -1.004107000e+00 -1.070600000e-02
1243000000.0 -1.001346000e+00 -5.675000000e-03
1247500000.0 -1.000016000e+00 -9.723000000e-03
1252000000.0 -1.005931000e+00 -1.078900000e-02
1256500000.0 -1.005070000e+00 -9.513000000e-03
1261000000.0 -1.000131000e+00 -8.713000000e-03
1265500000.0 -1.006942000e+00 -1.420400000e-02
1270000000.0 -1.010130000e+00 -6.058000000e-03
1274500000.0 -1.012777000e+00 -1.090900000e-02
1279000000.0 -1.007451000e+00 -1.023400000e-02
1283500000.0 -1.008139000e+00 -6.354000000e-03
1288000000.0 -1.003061000e+00 -1.054800000e-02
1292500000.0 -1.008176000e+00 -8.332000000e-03
1297000000.0 -1.002144000e+00 -3.277000000e-03
1301500000.0 -1.003798000e+00 -1.633500000e-02
1306000000.0 -1.003087000e+00 -5.018000000e-03
1310500000.0 -9.963200000e-01 -5.648000000e-03
1315000000.0 -1.001137000e+00 -1.235000000e-02
1319500000.0 -1.002385000e+00 -5.808000000e-03
1324000000.0 -1.000666000e+00 -1.214100000e-02
1328500000.0 -9.943610000e-01 -3.488000000e-03
1333000000.0 -1.000440000e+00 -1.006700000e-02
1337500000.0 -9.937410000e-01 7.910000000e-04
1342000000.0 -9.901410000e-01 2.609000000e-03
1346500000.0 -9.964950000e-01 -1.306000000e-03
1351000000.0 -9.918080000e-01 -9.176000000e-03
1355500000.0 -9.939920000e-01 1.810000000e-04
1360000000.0 -9.905910000e-01 5.542000000e-03
1364500000.0 -9.946010000e-01 -1.208000000e-03
1369000000.0 -1.004752000e+00 -8.908000000e-03
1373500000.0 -9.976880000e-01 -2.874000000e-03
1378000000.0 -1.002174000e+00 3.613000000e-03
1382500000.0 -9.967090000e-01 8.000000000e-06
1387000000.0 -9.999400000e-01 3.395000000e-03
1391500000.0 -1.005473000e+00 3.747000000e-03
1396000000.0 -1.011461000e+00 -4.928000000e-03
1400500000.0 -1.007136000e+00 -4.957000000e-03
1405000000.0 -1.008613000e+00 -2.959000000e-03
1409500000.0 -1.011907000e+00 -4.039000000e-03
1414000000.0 -1.009469000e+00 -8.163000000e-03
1418500000.0 -1.011059000e+00 -1.294700000e-02
1423000000.0 -1.007790000e+00 -1.777800000e-02
1427500000.0 -1.012094000e+00 -7.033000000e-03
1432000000.0 -1.009088000e+00 -9.374000000e-03
1436500000.0 -1.009525000e+00 3.695000000e-03
1441000000.0 -1.009303000e+00 -4.510000000e-03
1445500000.0 -1.008997000e+00 -8.273000000e-03
1450000000.0 -1.009023000e+00 -3.427000000e-03
