! piloto_deriva / corto_deriva / r52
# HZ S RI R 50
50000.0 -9.940140000e-01 -3.655400000e-02
59500.0 -9.955910000e-01 -1.829600000e-02
69000.0 -9.985870000e-01 -5.600000000e-03
78500.0 -9.984600000e-01 -1.248000000e-03
88000.0 -9.993610000e-01 -6.000000000e-05
97500.0 -9.996950000e-01 -2.720000000e-04
107000.0 -1.000178000e+00 -3.162000000e-03
116500.0 -9.999740000e-01 -6.432000000e-03
126000.0 -1.000123000e+00 -1.041500000e-02
135500.0 -9.997950000e-01 -1.719300000e-02
145000.0 -9.994850000e-01 -2.264200000e-02
154500.0 -9.995590000e-01 -2.992900000e-02
164000.0 -9.998800000e-01 -3.698800000e-02
173500.0 -1.000476000e+00 -4.487400000e-02
183000.0 -9.996230000e-01 -5.222100000e-02
192500.0 -1.000359000e+00 -5.989100000e-02
202000.0 -9.996960000e-01 -6.880400000e-02
211500.0 -1.000572000e+00 -7.682400000e-02
221000.0 -1.000230000e+00 -8.586900000e-02
230500.0 -1.000724000e+00 -9.523100000e-02
240000.0 -1.000071000e+00 -1.042600000e-01
249500.0 -1.000782000e+00 -1.133870000e-01
259000.0 -1.000777000e+00 -1.221280000e-01
268500.0 -1.001469000e+00 -1.319190000e-01
278000.0 -1.002638000e+00 -1.411310000e-01
287500.0 -1.001198000e+00 -1.503190000e-01
297000.0 -1.001356000e+00 -1.594860000e-01
306500.0 -1.001709000e+00 -1.690560000e-01
316000.0 -1.002245000e+00 -1.778330000e-01
325500.0 -1.002301000e+00 -1.877470000e-01
335000.0 -1.002810000e+00 -1.965920000e-01
344500.0 -1.002926000e+00 -2.061630000e-01
354000.0 -1.003758000e+00 -2.151480000e-01
363500.0 -1.003607000e+00 -2.242810000e-01
373000.0 -1.003814000e+00 -2.339820000e-01
382500.0 -1.004762000e+00 -2.439600000e-01
392000.0 -1.004163000e+00 -2.526640000e-01
401500.0 -1.004766000e+00 -2.627980000e-01
411000.0 -1.004959000e+00 -2.713670000e-01
420500.0 -1.004922000e+00 -2.801950000e-01
430000.0 -1.004562000e+00 -2.913070000e-01
439500.0 -1.005754000e+00 -2.994500000e-01
449000.0 -1.005631000e+00 -3.092190000e-01
458500.0 -1.005857000e+00 -3.185700000e-01
468000.0 -1.006116000e+00 -3.276890000e-01
477500.0 -1.006960000e+00 -3.379690000e-01
487000.0 -1.006030000e+00 -3.460960000e-01
496500.0 -1.007297000e+00 -3.555520000e-01
506000.0 -1.006101000e+00 -3.646150000e-01
515500.0 -1.006915000e+00 -3.743480000e-01
525000.0 -1.008094000e+00 -3.830120000e-01
534500.0 -1.008137000e+00 -3.924440000e-01
544000.0 -1.008788000e+00 -4.023780000e-01
553500.0 -1.010436000e+00 -4.102270000e-01
563000.0 -1.009388000e+00 -4.212500000e-01
572500.0 -1.009299000e+00 -4.298160000e-01
582000.0 -1.010203000e+00 -4.394640000e-01
591500.0 -1.011076000e+00 -4.482190000e-01
601000.0 -1.010712000e+00 -4.579840000e-01
610500.0 -1.011467000e+00 -4.654690000e-01
620000.0 -1.011596000e+00 -4.761690000e-01
629500.0 -1.013147000e+00 -4.848900000e-01
639000.0 -1.014022000e+00 -4.923060000e-01
648500.0 -1.014414000e+00 -5.014210000e-01
658000.0 -1.014704000e+00 -5.118350000e-01
667500.0 -1.014849000e+00 -5.217790000e-01
677000.0 -1.016458000e+00 -5.297350000e-01
686500.0 -1.016991000e+00 -5.375340000e-01
696000.0 -1.016470000e+00 -5.475030000e-01
705500.0 -1.018458000e+00 -5.567130000e-01
715000.0 -1.017474000e+00 -5.657230000e-01
724500.0 -1.020459000e+00 -5.751980000e-01
734000.0 -1.021049000e+00 -5.833230000e-01
743500.0 -1.021919000e+00 -5.928980000e-01
753000.0 -1.022330000e+00 -6.013890000e-01
762500.0 -1.023344000e+00 -6.101860000e-01
772000.0 -1.025604000e+00 -6.193100000e-01
781500.0 -1.024967000e+00 -6.276520000e-01
791000.0 -1.027578000e+00 -6.377980000e-01
800500.0 -1.028373000e+00 -6.462680000e-01
810000.0 -1.029346000e+00 -6.548630000e-01
819500.0 -1.030473000e+00 -6.633910000e-01
829000.0 -1.033108000e+00 -6.720520000e-01
838500.0 -1.034411000e+00 -6.820000000e-01
848000.0 -1.035899000e+00 -6.895530000e-01
857500.0 -1.038045000e+00 -7.005190000e-01
867000.0 -1.039174000e+00 -7.064930000e-01
876500.0 -1.040022000e+00 -7.163130000e-01
886000.0 -1.041955000e+00 -7.243260000e-01
895500.0 -1.043165000e+00 -7.338560000e-01
905000.0 -1.046592000e+00 -7.414830000e-01
914500.0 -1.047791000e+00 -7.510620000e-01
924000.0 -1.049850000e+00 -7.589550000e-01
933500.0 -1.052310000e+00 -7.670650000e-01
943000.0 -1.053631000e+00 -7.768130000e-01
952500.0 -1.057015000e+00 -7.842830000e-01
962000.0 -1.058647000e+00 -7.930690000e-01
971500.0 -1.061672000e+00 -8.009290000e-01
981000.0 -1.062243000e+00 -8.110350000e-01
990500.0 -1.066998000e+00 -8.190080000e-01
1000000.0 -1.069343000e+00 -8.264710000e-01
1090000.0 -1.096839000e+00 -9.030680000e-01
1180000.0 -1.136481000e+00 -9.786790000e-01
1270000.0 -1.184619000e+00 -1.047395000e+00
1360000.0 -1.241642000e+00 -1.107389000e+00
1450000.0 -1.310215000e+00 -1.158262000e+00
1540000.0 -1.386687000e+00 -1.192296000e+00
1630000.0 -1.475775000e+00 -1.211632000e+00
1720000.0 -1.566121000e+00 -1.210361000e+00
1810000.0 -1.654252000e+00 -1.188803000e+00
1900000.0 -1.735651000e+00 -1.144605000e+00
1990000.0 -1.808829000e+00 -1.078738000e+00
2080000.0 -1.867266000e+00 -9.987260000e-01
2170000.0 -1.901165000e+00 -9.105380000e-01
2260000.0 -1.916532000e+00 -8.188310000e-01
2350000.0 -1.915327000e+00 -7.276170000e-01
2440000.0 -1.900376000e+00 -6.405120000e-01
2530000.0 -1.876288000e+00 -5.654740000e-01
2620000.0 -1.838613000e+00 -4.963190000e-01
2710000.0 -1.800823000e+00 -4.348560000e-01
2800000.0 -1.756548000e+00 -3.831920000e-01
2890000.0 -1.714940000e+00 -3.384920000e-01
2980000.0 -1.670573000e+00 -3.003410000e-01
3070000.0 -1.629234000e+00 -2.674180000e-01
3160000.0 -1.591576000e+00 -2.407980000e-01
3250000.0 -1.555077000e+00 -2.138290000e-01
3340000.0 -1.518678000e+00 -1.925270000e-01
3430000.0 -1.485477000e+00 -1.734350000e-01
3520000.0 -1.456950000e+00 -1.525000000e-01
3610000.0 -1.428007000e+00 -1.386960000e-01
3700000.0 -1.400851000e+00 -1.223340000e-01
3790000.0 -1.375952000e+00 -1.064950000e-01
3880000.0 -1.353595000e+00 -9.436500000e-02
3970000.0 -1.330926000e+00 -7.880000000e-02
4060000.0 -1.313344000e+00 -6.663300000e-02
4150000.0 -1.295620000e+00 -5.523900000e-02
4240000.0 -1.279730000e+00 -4.232600000e-02
4330000.0 -1.263241000e+00 -3.064700000e-02
4420000.0 -1.247350000e+00 -1.928100000e-02
4510000.0 -1.235870000e+00 -6.894000000e-03
4600000.0 -1.223127000e+00 4.085000000e-03
4690000.0 -1.212008000e+00 1.408100000e-02
4780000.0 -1.203558000e+00 2.586900000e-02
4870000.0 -1.194178000e+00 3.788200000e-02
4960000.0 -1.186543000e+00 4.765800000e-02
5050000.0 -1.173722000e+00 5.841100000e-02
5140000.0 -1.166472000e+00 7.046400000e-02
5230000.0 -1.162337000e+00 7.854000000e-02
5320000.0 -1.155381000e+00 9.010700000e-02
5410000.0 -1.151316000e+00 1.002340000e-01
5500000.0 -1.147448000e+00 1.116180000e-01
5590000.0 -1.143474000e+00 1.215170000e-01
5680000.0 -1.139356000e+00 1.308100000e-01
5770000.0 -1.135224000e+00 1.410530000e-01
5860000.0 -1.132207000e+00 1.497690000e-01
5950000.0 -1.128591000e+00 1.585240000e-01
6040000.0 -1.126070000e+00 1.675400000e-01
6130000.0 -1.122512000e+00 1.770390000e-01
6220000.0 -1.119712000e+00 1.854860000e-01
6310000.0 -1.117333000e+00 1.928200000e-01
6400000.0 -1.115281000e+00 1.997520000e-01
6490000.0 -1.112297000e+00 2.061760000e-01
6580000.0 -1.110685000e+00 2.129290000e-01
6670000.0 -1.108682000e+00 2.181210000e-01
6760000.0 -1.107131000e+00 2.230850000e-01
6850000.0 -1.107105000e+00 2.268490000e-01
6940000.0 -1.104859000e+00 2.321280000e-01
7030000.0 -1.104260000e+00 2.356470000e-01
7120000.0 -1.102202000e+00 2.396230000e-01
7210000.0 -1.101782000e+00 2.411310000e-01
7300000.0 -1.102540000e+00 2.418880000e-01
7390000.0 -1.103518000e+00 2.427230000e-01
7480000.0 -1.101019000e+00 2.415790000e-01
7570000.0 1.955050000e-01 1.072484000e+00
7660000.0 1.946480000e-01 1.074674000e+00
7750000.0 1.948160000e-01 1.074164000e+00
7840000.0 1.932900000e-01 1.073662000e+00
7930000.0 1.924880000e-01 1.074703000e+00
8020000.0 1.913000000e-01 1.075942000e+00
8110000.0 1.912820000e-01 1.076533000e+00
8200000.0 1.900160000e-01 1.076769000e+00
8290000.0 1.897510000e-01 1.075587000e+00
8380000.0 1.882020000e-01 1.077308000e+00
8470000.0 1.882900000e-01 1.076918000e+00
8560000.0 1.870910000e-01 1.078823000e+00
8650000.0 1.859220000e-01 1.078099000e+00
8740000.0 1.856560000e-01 1.079724000e+00
8830000.0 1.845100000e-01 1.079455000e+00
8920000.0 1.840980000e-01 1.080090000e+00
9010000.0 1.838170000e-01 1.079845000e+00
9100000.0 1.832670000e-01 1.080255000e+00
9190000.0 1.815480000e-01 1.082260000e+00
9280000.0 1.806380000e-01 1.083039000e+00
9370000.0 1.807570000e-01 1.083063000e+00
9460000.0 1.809890000e-01 1.083516000e+00
9550000.0 2.190300000e-01 1.070371000e+00
9640000.0 1.597670000e-01 1.089467000e+00
9730000.0 1.967000000e-01 1.079512000e+00
9820000.0 1.588560000e-01 1.091688000e+00
9910000.0 1.953300000e-01 1.081578000e+00
10000000.0 1.569980000e-01 1.093094000e+00
10900000.0 1.698290000e-01 1.094793000e+00
11800000.0 1.636780000e-01 1.102096000e+00
12700000.0 1.565430000e-01 1.110219000e+00
13600000.0 1.505890000e-01 1.119446000e+00
14500000.0 1.453460000e-01 1.127466000e+00
15400000.0 1.376420000e-01 1.135803000e+00
16300000.0 1.315530000e-01 1.144212000e+00
17200000.0 1.237620000e-01 1.153835000e+00
18100000.0 1.173230000e-01 1.163613000e+00
19000000.0 1.091040000e-01 1.172888000e+00
19900000.0 1.015990000e-01 1.181372000e+00
20800000.0 9.342000000e-02 1.193392000e+00
21700000.0 8.414500000e-02 1.202385000e+00
22600000.0 7.558600000e-02 1.211314000e+00
23500000.0 6.664400000e-02 1.220844000e+00
24400000.0 5.649400000e-02 1.231726000e+00
25300000.0 4.699100000e-02 1.241995000e+00
26200000.0 3.625500000e-02 1.250860000e+00
27100000.0 2.572000000e-02 1.260739000e+00
28000000.0 1.382400000e-02 1.272275000e+00
28900000.0 1.739000000e-03 1.282807000e+00
29800000.0 -9.627000000e-03 1.291972000e+00
30700000.0 -2.174000000e-02 1.301779000e+00
31600000.0 -3.519700000e-02 1.313860000e+00
32500000.0 -4.842400000e-02 1.322621000e+00
33400000.0 -6.214500000e-02 1.331405000e+00
34300000.0 -7.598000000e-02 1.341249000e+00
35200000.0 -9.053600000e-02 1.351107000e+00
36100000.0 -1.069030000e-01 1.361474000e+00
37000000.0 -1.219600000e-01 1.369895000e+00
37900000.0 -1.379180000e-01 1.378970000e+00
38800000.0 -1.536180000e-01 1.388011000e+00
39700000.0 -1.696120000e-01 1.396355000e+00
40600000.0 -1.887270000e-01 1.404187000e+00
41500000.0 -2.062540000e-01 1.414098000e+00
42400000.0 -2.248610000e-01 1.420682000e+00
43300000.0 -2.437250000e-01 1.428605000e+00
44200000.0 -2.621520000e-01 1.435322000e+00
45100000.0 -2.826190000e-01 1.442529000e+00
46000000.0 -3.025220000e-01 1.448715000e+00
46900000.0 -3.227310000e-01 1.454664000e+00
47800000.0 -3.444690000e-01 1.459321000e+00
48700000.0 -3.650940000e-01 1.463114000e+00
49600000.0 -3.874940000e-01 1.469513000e+00
50500000.0 -4.093240000e-01 1.471515000e+00
51400000.0 -4.305640000e-01 1.474912000e+00
52300000.0 -4.524330000e-01 1.477746000e+00
53200000.0 -4.779130000e-01 1.479429000e+00
54100000.0 -4.993020000e-01 1.480332000e+00
55000000.0 -5.239420000e-01 1.481377000e+00
55900000.0 -5.468670000e-01 1.480703000e+00
56800000.0 -5.711580000e-01 1.480570000e+00
57700000.0 -5.954780000e-01 1.478842000e+00
58600000.0 -6.180620000e-01 1.478184000e+00
59500000.0 -6.446890000e-01 1.474076000e+00
60400000.0 -6.671930000e-01 1.470770000e+00
61300000.0 -6.916390000e-01 1.466908000e+00
62200000.0 -7.164780000e-01 1.463155000e+00
63100000.0 -7.412240000e-01 1.456045000e+00
64000000.0 -7.631820000e-01 1.449942000e+00
64900000.0 -7.890250000e-01 1.443118000e+00
65800000.0 -8.128160000e-01 1.436488000e+00
66700000.0 -8.364890000e-01 1.428687000e+00
67600000.0 -8.615950000e-01 1.418114000e+00
68500000.0 -8.853370000e-01 1.407923000e+00
69400000.0 -9.083220000e-01 1.396067000e+00
70300000.0 -9.315040000e-01 1.387246000e+00
71200000.0 -9.523420000e-01 1.375476000e+00
72100000.0 -9.751200000e-01 1.360379000e+00
73000000.0 -9.969960000e-01 1.348096000e+00
73900000.0 -1.017619000e+00 1.333940000e+00
74800000.0 -1.039894000e+00 1.318278000e+00
75700000.0 -1.061197000e+00 1.303568000e+00
76600000.0 -1.080504000e+00 1.289002000e+00
77500000.0 -1.100757000e+00 1.272413000e+00
78400000.0 -1.120434000e+00 1.254756000e+00
79300000.0 -1.139033000e+00 1.237507000e+00
80200000.0 -1.157011000e+00 1.218839000e+00
81100000.0 -1.175031000e+00 1.202587000e+00
82000000.0 -1.193197000e+00 1.182663000e+00
82900000.0 -1.208284000e+00 1.162622000e+00
83800000.0 -1.225023000e+00 1.142231000e+00
84700000.0 -1.241823000e+00 1.121773000e+00
85600000.0 -1.255564000e+00 1.099520000e+00
86500000.0 -1.269121000e+00 1.079478000e+00
87400000.0 -1.282697000e+00 1.058477000e+00
88300000.0 -1.294700000e+00 1.036950000e+00
89200000.0 -1.306643000e+00 1.012790000e+00
90100000.0 -1.317969000e+00 9.912500000e-01
91000000.0 -1.327554000e+00 9.676780000e-01
91900000.0 -1.337196000e+00 9.463490000e-01
92800000.0 -1.347713000e+00 9.244620000e-01
93700000.0 -1.354286000e+00 9.000460000e-01
94600000.0 -1.361011000e+00 8.771240000e-01
95500000.0 -1.368431000e+00 8.538260000e-01
96400000.0 -1.374803000e+00 8.308270000e-01
97300000.0 -1.379947000e+00 8.069980000e-01
98200000.0 -1.385157000e+00 7.823890000e-01
99100000.0 -1.388061000e+00 7.615210000e-01
100000000.0 -1.388880000e+00 7.371890000e-01
109000000.0 -1.385095000e+00 5.209520000e-01
118000000.0 -1.331736000e+00 3.390620000e-01
127000000.0 -1.249094000e+00 2.001540000e-01
136000000.0 -1.134765000e+00 1.004920000e-01
145000000.0 -1.045863000e+00 3.030800000e-02
154000000.0 -1.000345000e+00 -1.770000000e-03
163000000.0 -1.001902000e+00 -3.618000000e-03
172000000.0 -1.004406000e+00 -5.597000000e-03
181000000.0 -1.005843000e+00 -8.001000000e-03
190000000.0 -1.007543000e+00 -9.585000000e-03
199000000.0 -1.007926000e+00 -1.078500000e-02
208000000.0 -1.008878000e+00 -1.085900000e-02
217000000.0 -1.010347000e+00 -1.148200000e-02
226000000.0 -1.010157000e+00 -1.145300000e-02
235000000.0 -1.009767000e+00 -1.096900000e-02
244000000.0 -1.009624000e+00 -1.145500000e-02
253000000.0 -1.008500000e+00 -1.053000000e-02
262000000.0 -1.007812000e+00 -8.156000000e-03
271000000.0 -1.005817000e+00 -7.428000000e-03
280000000.0 -1.004161000e+00 -5.541000000e-03
289000000.0 -1.002097000e+00 -3.167000000e-03
298000000.0 -1.000422000e+00 -7.210000000e-04
307000000.0 -1.003128000e+00 -1.234000000e-03
316000000.0 -1.005615000e+00 -2.557000000e-03
325000000.0 -1.008482000e+00 -3.133000000e-03
334000000.0 -1.009016000e+00 -2.440000000e-03
343000000.0 -1.012349000e+00 -1.569000000e-03
352000000.0 -9.939990000e-01 4.591400000e-02
361000000.0 -1.027909000e+00 -5.742200000e-02
370000000.0 -1.016127000e+00 -2.312200000e-02
379000000.0 -1.018502000e+00 -3.925700000e-02
388000000.0 -1.026104000e+00 -5.604900000e-02
397000000.0 -1.025439000e+00 -5.481700000e-02
406000000.0 -1.014835000e+00 -2.113200000e-02
415000000.0 -1.000355000e+00 3.071300000e-02
424000000.0 -1.008081000e+00 -2.683000000e-03
433000000.0 -1.006044000e+00 -1.933000000e-03
442000000.0 -1.003458000e+00 -3.600000000e-04
451000000.0 -9.995450000e-01 9.580000000e-04
460000000.0 -1.004353000e+00 -1.120000000e-03
469000000.0 -1.008051000e+00 1.488000000e-03
478000000.0 -1.010284000e+00 1.434000000e-03
487000000.0 -1.012710000e+00 3.985000000e-03
496000000.0 -1.014754000e+00 2.391000000e-03
505000000.0 -1.014728000e+00 2.050000000e-03
514000000.0 -1.016195000e+00 2.686000000e-03
523000000.0 -1.018357000e+00 3.458000000e-03
532000000.0 -1.016416000e+00 8.610000000e-04
541000000.0 -1.014771000e+00 2.741000000e-03
550000000.0 -1.011825000e+00 1.036000000e-03
559000000.0 -1.011028000e+00 2.350000000e-03
568000000.0 -1.010942000e+00 2.599000000e-03
577000000.0 -1.009012000e+00 1.642000000e-03
586000000.0 -1.003439000e+00 3.346000000e-03
595000000.0 -1.001903000e+00 4.820000000e-04
604000000.0 -1.000485000e+00 -1.210000000e-03
613000000.0 -1.003863000e+00 7.821000000e-03
622000000.0 -1.004962000e+00 5.518000000e-03
631000000.0 -1.009400000e+00 6.801000000e-03
640000000.0 -1.008442000e+00 7.176000000e-03
649000000.0 -1.010657000e+00 9.699000000e-03
658000000.0 -1.011790000e+00 9.300000000e-03
667000000.0 -1.009546000e+00 1.439500000e-02
676000000.0 -1.008172000e+00 1.460700000e-02
685000000.0 -1.009082000e+00 1.505800000e-02
694000000.0 -1.012086000e+00 1.330200000e-02
703000000.0 -1.010318000e+00 1.083300000e-02
712000000.0 -9.930830000e-01 6.090200000e-02
721000000.0 -1.002808000e+00 2.409500000e-02
730000000.0 -1.004327000e+00 7.346000000e-03
739000000.0 -1.002382000e+00 -1.675600000e-02
748000000.0 -9.997650000e-01 1.534000000e-03
757000000.0 -1.000180000e+00 3.263000000e-03
766000000.0 -1.000336000e+00 2.885000000e-03
775000000.0 -1.003094000e+00 -1.508100000e-02
784000000.0 -9.973230000e-01 5.746000000e-03
793000000.0 -9.954190000e-01 2.912500000e-02
802000000.0 -1.000055000e+00 5.255000000e-03
811000000.0 -9.980790000e-01 1.187500000e-02
820000000.0 -9.982440000e-01 9.142000000e-03
829000000.0 -9.963060000e-01 5.944000000e-03
838000000.0 -9.967620000e-01 9.156000000e-03
847000000.0 -9.997640000e-01 8.279000000e-03
856000000.0 -9.961320000e-01 4.817000000e-03
865000000.0 -9.983090000e-01 6.200000000e-05
874000000.0 -9.954430000e-01 4.470000000e-03
883000000.0 -9.978260000e-01 -1.294000000e-03
892000000.0 -1.002889000e+00 -4.204000000e-03
901000000.0 -1.000657000e+00 -2.216000000e-03
910000000.0 -9.966890000e-01 7.180000000e-04
919000000.0 -9.996080000e-01 8.000000000e-04
928000000.0 -1.000904000e+00 -5.837000000e-03
937000000.0 -9.983110000e-01 -3.315000000e-03
946000000.0 -1.000089000e+00 -7.176000000e-03
955000000.0 -9.981850000e-01 -6.883000000e-03
964000000.0 -9.994960000e-01 -1.472000000e-03
973000000.0 -1.002795000e+00 -6.715000000e-03
982000000.0 -1.002048000e+00 -6.486000000e-03
991000000.0 -1.000135000e+00 -9.652000000e-03
1000000000.0 -1.000223000e+00 -3.587000000e-03
1004500000.0 -1.001176000e+00 -4.688000000e-03
1009000000.0 -1.003710000e+00 -1.090000000e-02
1013500000.0 -1.000602000e+00 -1.238000000e-02
1018000000.0 -1.002264000e+00 -9.331000000e-03
1022500000.0 -1.001828000e+00 -5.906000000e-03
1027000000.0 -1.002259000e+00 -6.375000000e-03
1031500000.0 -1.000177000e+00 -1.053800000e-02
1036000000.0 -9.998510000e-01 -7.071000000e-03
1040500000.0 -1.004265000e+00 -6.504000000e-03
1045000000.0 -1.002704000e+00 6.010000000e-04
1049500000.0 -1.001139000e+00 -4.267000000e-03
1054000000.0 -1.002950000e+00 -8.527000000e-03
1058500000.0 -9.996420000e-01 -7.911000000e-03
1063000000.0 -1.000260000e+00 -9.591000000e-03
1067500000.0 -1.004654000e+00 -7.599000000e-03
1072000000.0 -1.004542000e+00 -6.991000000e-03
1076500000.0 -1.005141000e+00 -7.781000000e-03
1081000000.0 -1.005723000e+00 -7.393000000e-03
1085500000.0 -1.005509000e+00 -1.296800000e-02
1090000000.0 -1.002720000e+00 -9.326000000e-03
1094500000.0 -1.011489000e+00 -1.117700000e-02
1099000000.0 -1.006552000e+00 -3.640000000e-03
1103500000.0 -1.007162000e+00 -1.328300000e-02
1108000000.0 -1.009846000e+00 -7.887000000e-03
1112500000.0 -1.007287000e+00 -7.912000000e-03
1117000000.0 -1.007848000e+00 -4.453000000e-03
1121500000.0 -1.009561000e+00 -1.240800000e-02
1126000000.0 -1.006308000e+00 -7.698000000e-03
1130500000.0 -1.012191000e+00 -1.295300000e-02
1135000000.0 -1.008010000e+00 -8.569000000e-03
1139500000.0 -9.963520000e-01 2.773200000e-02
1144000000.0 -1.009192000e+00 -8.443000000e-03
1148500000.0 -9.536710000e-01 9.799300000e-02
1153000000.0 -1.007077000e+00 1.215100000e-02
1157500000.0 -9.981300000e-01 -4.037000000e-03
1162000000.0 -1.012867000e+00 -3.636500000e-02
1166500000.0 -1.001262000e+00 1.520000000e-04
1171000000.0 -1.004639000e+00 -1.269900000e-02
1175500000.0 -1.000997000e+00 -8.724000000e-03
1180000000.0 -1.000891000e+00 -8.397000000e-03
1184500000.0 -9.992810000e-01 -5.173000000e-03
1189000000.0 -9.987940000e-01 -1.372400000e-02
1193500000.0 -9.942370000e-01 6.761000000e-03
1198000000.0 -9.990070000e-01 -5.846000000e-03
1202500000.0 -1.002042000e+00 -7.647000000e-03
1207000000.0 -9.983750000e-01 -9.920000000e-04
1211500000.0 -9.966000000e-01 -5.795000000e-03
1216000000.0 -9.985680000e-01 -6.654000000e-03
1220500000.0 -9.972920000e-01 -5.326000000e-03
1225000000.0 -1.005956000e+00 -3.679000000e-03
1229500000.0 -1.003347000e+00 -7.440000000e-03
1234000000.0 -1.002393000e+00 -1.091200000e-02
1238500000.0 -1.004314000e+00 -1.527000000e-03
1243000000.0 -1.008589000e+00 -1.097900000e-02
1247500000.0 -1.008705000e+00 -7.202000000e-03
1252000000.0 -1.001487000e+00 -1.185800000e-02
1256500000.0 -1.006792000e+00 -1.049800000e-02
1261000000.0 -9.993120000e-01 -1.351700000e-02
1265500000.0 -1.000840000e+00 1.270000000e-04
1270000000.0 -1.003888000e+00 -9.625000000e-03
1274500000.0 -1.006433000e+00 -4.402000000e-03
1279000000.0 -1.000680000e+00 -2.378000000e-03
1283500000.0 -1.002571000e+00 -7.496000000e-03
1288000000.0 -1.004567000e+00 -8.165000000e-03
1292500000.0 -1.002697000e+00 -1.717000000e-03
1297000000.0 -1.005946000e+00 -3.382000000e-03
1301500000.0 -1.002419000e+00 -2.433000000e-03
1306000000.0 -1.007034000e+00 -7.811000000e-03
1310500000.0 -9.970990000e-01 1.835600000e-02
1315000000.0 -1.000754000e+00 -7.004000000e-03
1319500000.0 -9.976090000e-01 -1.025100000e-02
1324000000.0 -9.980700000e-01 -6.830000000e-03
1328500000.0 -9.963370000e-01 3.302000000e-03
1333000000.0 -9.990050000e-01 -1.170500000e-02
1337500000.0 -9.969030000e-01 -1.118000000e-03
1342000000.0 -9.991540000e-01 -1.149400000e-02
1346500000.0 -9.970700000e-01 -2.509000000e-03
1351000000.0 -9.888210000e-01 6.720000000e-04
1355500000.0 -9.928700000e-01 -3.758000000e-03
1360000000.0 -9.944650000e-01 -3.164000000e-03
1364500000.0 -9.989560000e-01 4.200000000e-04
1369000000.0 -9.991500000e-01 5.800000000e-04
1373500000.0 -9.928970000e-01 -3.758000000e-03
1378000000.0 -1.001641000e+00 -1.250900000e-02
1382500000.0 -1.001064000e+00 1.221000000e-03
1387000000.0 -1.000209000e+00 -9.484000000e-03
1391500000.0 -1.010054000e+00 -2.520000000e-04
1396000000.0 -1.005353000e+00 -1.272800000e-02
1400500000.0 -1.010495000e+00 -2.984000000e-03
1405000000.0 -1.004473000e+00 -1.881000000e-03
1409500000.0 -1.011819000e+00 -3.660000000e-03
1414000000.0 -1.011637000e+00 -2.848000000e-03
1418500000.0 -1.013221000e+00 -5.741000000e-03
1423000000.0 -1.011123000e+00 4.331000000e-03
1427500000.0 -1.014788000e+00 2.384000000e-03
1432000000.0 -1.010454000e+00 -2.016000000e-03
1436500000.0 -1.008714000e+00 5.880000000e-03
1441000000.0 -1.010774000e+00 -3.237000000e-03
1445500000.0 -1.013234000e+00 -1.325000000e-03
1450000000.0 -1.013547000e+00 -1.086000000e-03
