! piloto_deriva / sol_abierto / r03
# HZ S RI R 50
50000.0 1.008011000e+00 -7.058700000e-02
59500.0 1.003306000e+00 -5.612200000e-02
69000.0 1.005687000e+00 -4.420200000e-02
78500.0 1.002740000e+00 -3.042400000e-02
88000.0 1.001160000e+00 -1.648900000e-02
97500.0 9.998320000e-01 -4.312000000e-03
107000.0 1.000634000e+00 8.591000000e-03
116500.0 1.000758000e+00 2.036500000e-02
126000.0 1.002585000e+00 3.346700000e-02
135500.0 1.000656000e+00 4.475500000e-02
145000.0 1.001212000e+00 5.742400000e-02
154500.0 1.001608000e+00 6.853100000e-02
164000.0 1.002123000e+00 8.083600000e-02
173500.0 1.001794000e+00 9.333900000e-02
183000.0 1.002315000e+00 1.053390000e-01
192500.0 1.002704000e+00 1.158450000e-01
202000.0 1.003394000e+00 1.287520000e-01
211500.0 1.003862000e+00 1.401590000e-01
221000.0 1.004468000e+00 1.515090000e-01
230500.0 1.004453000e+00 1.622950000e-01
240000.0 1.004834000e+00 1.740530000e-01
249500.0 1.004911000e+00 1.852740000e-01
259000.0 1.004957000e+00 1.971520000e-01
268500.0 1.005347000e+00 2.076890000e-01
278000.0 1.005760000e+00 2.189340000e-01
287500.0 1.005913000e+00 2.301320000e-01
297000.0 1.006178000e+00 2.407820000e-01
306500.0 1.006773000e+00 2.518470000e-01
316000.0 1.006712000e+00 2.624970000e-01
325500.0 1.007506000e+00 2.733780000e-01
335000.0 1.006903000e+00 2.841090000e-01
344500.0 1.007757000e+00 2.952660000e-01
354000.0 1.006986000e+00 3.053250000e-01
363500.0 1.007777000e+00 3.168140000e-01
373000.0 1.007740000e+00 3.266050000e-01
382500.0 1.008041000e+00 3.378620000e-01
392000.0 1.008478000e+00 3.482160000e-01
401500.0 1.008112000e+00 3.585730000e-01
411000.0 1.009147000e+00 3.687670000e-01
420500.0 1.009165000e+00 3.791480000e-01
430000.0 1.009426000e+00 3.894660000e-01
439500.0 1.009264000e+00 3.997200000e-01
449000.0 1.009876000e+00 4.095290000e-01
458500.0 1.010144000e+00 4.189820000e-01
468000.0 1.011205000e+00 4.306480000e-01
477500.0 1.010762000e+00 4.403230000e-01
487000.0 1.010592000e+00 4.504050000e-01
496500.0 1.011662000e+00 4.604560000e-01
506000.0 1.011911000e+00 4.704280000e-01
515500.0 1.013587000e+00 4.798860000e-01
525000.0 1.012559000e+00 4.898790000e-01
534500.0 1.012379000e+00 5.006770000e-01
544000.0 1.012837000e+00 5.104600000e-01
553500.0 1.014363000e+00 5.199900000e-01
563000.0 1.013958000e+00 5.297130000e-01
572500.0 1.014476000e+00 5.396290000e-01
582000.0 1.015013000e+00 5.493760000e-01
591500.0 1.014942000e+00 5.595810000e-01
601000.0 1.016290000e+00 5.684580000e-01
610500.0 1.016641000e+00 5.796320000e-01
620000.0 1.016963000e+00 5.884390000e-01
629500.0 1.018185000e+00 5.971270000e-01
639000.0 1.018339000e+00 6.075140000e-01
648500.0 1.018759000e+00 6.171790000e-01
658000.0 1.020396000e+00 6.270700000e-01
667500.0 1.021040000e+00 6.371700000e-01
677000.0 1.021246000e+00 6.453660000e-01
686500.0 1.023502000e+00 6.542480000e-01
696000.0 1.022268000e+00 6.650230000e-01
705500.0 1.023864000e+00 6.747980000e-01
715000.0 1.024872000e+00 6.821750000e-01
724500.0 1.027093000e+00 6.921830000e-01
734000.0 1.027036000e+00 7.021340000e-01
743500.0 1.028412000e+00 7.116030000e-01
753000.0 1.028499000e+00 7.202220000e-01
762500.0 1.029451000e+00 7.303100000e-01
772000.0 1.031064000e+00 7.399180000e-01
781500.0 1.031414000e+00 7.500290000e-01
791000.0 1.035235000e+00 7.576470000e-01
800500.0 1.034193000e+00 7.668360000e-01
810000.0 1.036096000e+00 7.765270000e-01
819500.0 1.038866000e+00 7.847880000e-01
829000.0 1.040306000e+00 7.934270000e-01
838500.0 1.040568000e+00 8.044110000e-01
848000.0 1.043054000e+00 8.129450000e-01
857500.0 1.043966000e+00 8.220200000e-01
867000.0 1.046623000e+00 8.317470000e-01
876500.0 1.047294000e+00 8.401350000e-01
886000.0 1.049365000e+00 8.496630000e-01
895500.0 1.051839000e+00 8.577360000e-01
905000.0 1.054381000e+00 8.663150000e-01
914500.0 1.056412000e+00 8.764710000e-01
924000.0 1.058389000e+00 8.854310000e-01
933500.0 1.061659000e+00 8.931000000e-01
943000.0 1.062365000e+00 9.021230000e-01
952500.0 1.065145000e+00 9.110690000e-01
962000.0 1.068304000e+00 9.192650000e-01
971500.0 1.070887000e+00 9.288100000e-01
981000.0 1.073109000e+00 9.374540000e-01
990500.0 1.074766000e+00 9.453700000e-01
1000000.0 1.078503000e+00 9.560610000e-01
1090000.0 1.105051000e+00 1.033793000e+00
1180000.0 1.145124000e+00 1.109893000e+00
1270000.0 1.193541000e+00 1.181214000e+00
1360000.0 1.252803000e+00 1.241685000e+00
1450000.0 1.322188000e+00 1.296410000e+00
1540000.0 1.400687000e+00 1.331360000e+00
1630000.0 1.487221000e+00 1.354425000e+00
1720000.0 1.576306000e+00 1.353824000e+00
1810000.0 1.649748000e+00 1.366562000e+00
1900000.0 1.754993000e+00 1.296041000e+00
1990000.0 1.809554000e+00 1.273152000e+00
2080000.0 1.906350000e+00 1.133393000e+00
2170000.0 1.913921000e+00 1.120201000e+00
2260000.0 1.974544000e+00 9.565620000e-01
2350000.0 1.953653000e+00 9.416870000e-01
2440000.0 1.973002000e+00 7.821020000e-01
2530000.0 1.928563000e+00 7.706090000e-01
2620000.0 1.913430000e+00 6.622780000e-01
2710000.0 1.881677000e+00 6.008000000e-01
2800000.0 1.842649000e+00 5.444250000e-01
2890000.0 1.805158000e+00 4.904490000e-01
2980000.0 1.767774000e+00 4.497370000e-01
3070000.0 1.728361000e+00 4.113950000e-01
3160000.0 1.690533000e+00 3.742360000e-01
3250000.0 1.654710000e+00 3.470500000e-01
3340000.0 1.620843000e+00 3.195140000e-01
3430000.0 1.590974000e+00 2.946080000e-01
3520000.0 1.557536000e+00 2.724580000e-01
3610000.0 1.528831000e+00 2.508080000e-01
3700000.0 1.503255000e+00 2.315460000e-01
3790000.0 1.478742000e+00 2.140030000e-01
3880000.0 1.455912000e+00 1.961710000e-01
3970000.0 1.434977000e+00 1.803330000e-01
4060000.0 1.414728000e+00 1.657860000e-01
4150000.0 1.396696000e+00 1.507240000e-01
4240000.0 1.380095000e+00 1.368710000e-01
4330000.0 1.364149000e+00 1.228080000e-01
4420000.0 1.351001000e+00 1.083880000e-01
4510000.0 1.338053000e+00 9.388500000e-02
4600000.0 1.326363000e+00 8.143600000e-02
4690000.0 1.316988000e+00 6.853700000e-02
4780000.0 1.308002000e+00 5.495500000e-02
4870000.0 1.298104000e+00 4.304500000e-02
4960000.0 1.291488000e+00 3.021200000e-02
5050000.0 1.275768000e+00 1.692300000e-02
5140000.0 1.272349000e+00 4.312000000e-03
5230000.0 1.268319000e+00 -5.809000000e-03
5320000.0 1.263368000e+00 -1.965700000e-02
5410000.0 1.260122000e+00 -3.090500000e-02
5500000.0 1.255689000e+00 -4.311400000e-02
5590000.0 1.251946000e+00 -5.459600000e-02
5680000.0 1.248810000e+00 -6.638800000e-02
5770000.0 1.244470000e+00 -7.729100000e-02
5860000.0 1.242293000e+00 -8.839700000e-02
5950000.0 1.239476000e+00 -9.738800000e-02
6040000.0 1.237204000e+00 -1.071780000e-01
6130000.0 1.234496000e+00 -1.178380000e-01
6220000.0 1.232473000e+00 -1.267090000e-01
6310000.0 1.230425000e+00 -1.354530000e-01
6400000.0 1.228603000e+00 -1.440900000e-01
6490000.0 1.227737000e+00 -1.515240000e-01
6580000.0 1.225823000e+00 -1.576090000e-01
6670000.0 1.224027000e+00 -1.661670000e-01
6760000.0 1.222909000e+00 -1.726310000e-01
6850000.0 1.222820000e+00 -1.772900000e-01
6940000.0 1.221213000e+00 -1.815610000e-01
7030000.0 1.219455000e+00 -1.860740000e-01
7120000.0 1.220352000e+00 -1.895740000e-01
7210000.0 1.219023000e+00 -1.911150000e-01
7300000.0 1.219489000e+00 -1.921770000e-01
7390000.0 1.219428000e+00 -1.942280000e-01
7480000.0 1.219448000e+00 -1.936270000e-01
7570000.0 -2.424930000e-01 -1.259540000e+00
7660000.0 -2.419310000e-01 -1.260020000e+00
7750000.0 -2.413420000e-01 -1.260044000e+00
7840000.0 -2.396660000e-01 -1.259201000e+00
7930000.0 -2.402910000e-01 -1.260942000e+00
8020000.0 -2.398460000e-01 -1.260840000e+00
8110000.0 -2.389920000e-01 -1.262543000e+00
8200000.0 -2.374130000e-01 -1.261897000e+00
8290000.0 -2.372210000e-01 -1.262436000e+00
8380000.0 -2.369470000e-01 -1.262760000e+00
8470000.0 -2.350830000e-01 -1.264253000e+00
8560000.0 -2.356420000e-01 -1.263197000e+00
8650000.0 -2.340190000e-01 -1.263705000e+00
8740000.0 -2.339430000e-01 -1.265439000e+00
8830000.0 -2.333070000e-01 -1.265850000e+00
8920000.0 -2.323700000e-01 -1.266998000e+00
9010000.0 -2.315280000e-01 -1.266322000e+00
9100000.0 -2.301690000e-01 -1.267847000e+00
9190000.0 -2.300130000e-01 -1.268678000e+00
9280000.0 -2.303330000e-01 -1.268810000e+00
9370000.0 -2.292850000e-01 -1.269359000e+00
9460000.0 -2.284310000e-01 -1.271124000e+00
9550000.0 -2.273300000e-01 -1.271301000e+00
9640000.0 -2.271910000e-01 -1.273323000e+00
9730000.0 -2.278660000e-01 -1.273584000e+00
9820000.0 -2.258970000e-01 -1.274517000e+00
9910000.0 -2.247560000e-01 -1.275213000e+00
10000000.0 -2.246750000e-01 -1.276695000e+00
10900000.0 -2.187500000e-01 -1.284528000e+00
11800000.0 -2.117070000e-01 -1.293929000e+00
12700000.0 -2.079040000e-01 -1.304658000e+00
13600000.0 -2.005700000e-01 -1.314811000e+00
14500000.0 -1.953290000e-01 -1.325487000e+00
15400000.0 -1.890960000e-01 -1.337059000e+00
16300000.0 -1.831030000e-01 -1.349178000e+00
17200000.0 -1.755720000e-01 -1.360363000e+00
18100000.0 -1.686970000e-01 -1.372952000e+00
19000000.0 -1.609960000e-01 -1.384517000e+00
19900000.0 -1.541190000e-01 -1.397283000e+00
20800000.0 -1.457360000e-01 -1.410378000e+00
21700000.0 -1.346560000e-01 -1.423311000e+00
22600000.0 -1.279150000e-01 -1.437445000e+00
23500000.0 -1.180950000e-01 -1.450485000e+00
24400000.0 -1.072080000e-01 -1.463545000e+00
25300000.0 -9.748800000e-02 -1.476567000e+00
26200000.0 -8.767300000e-02 -1.490427000e+00
27100000.0 -7.545900000e-02 -1.504437000e+00
28000000.0 -6.496100000e-02 -1.518848000e+00
28900000.0 -5.063600000e-02 -1.532771000e+00
29800000.0 -3.910200000e-02 -1.548291000e+00
30700000.0 -2.570900000e-02 -1.561647000e+00
31600000.0 -1.256600000e-02 -1.577326000e+00
32500000.0 3.608000000e-03 -1.591844000e+00
33400000.0 1.979200000e-02 -1.606067000e+00
34300000.0 3.490200000e-02 -1.621232000e+00
35200000.0 5.103900000e-02 -1.635773000e+00
36100000.0 6.845100000e-02 -1.649679000e+00
37000000.0 8.728600000e-02 -1.664102000e+00
37900000.0 1.069650000e-01 -1.678824000e+00
38800000.0 9.455200000e-02 -1.695178000e+00
39700000.0 1.164140000e-01 -1.708324000e+00
40600000.0 1.678190000e-01 -1.721994000e+00
41500000.0 1.565990000e-01 -1.736200000e+00
42400000.0 2.444010000e-01 -1.748036000e+00
43300000.0 2.023780000e-01 -1.765226000e+00
44200000.0 2.952850000e-01 -1.774029000e+00
45100000.0 2.516480000e-01 -1.791595000e+00
46000000.0 3.114850000e-01 -1.799679000e+00
46900000.0 3.039360000e-01 -1.816285000e+00
47800000.0 4.044400000e-01 -1.818232000e+00
48700000.0 3.610450000e-01 -1.839360000e+00
49600000.0 4.271390000e-01 -1.844651000e+00
50500000.0 4.576430000e-01 -1.853933000e+00
51400000.0 4.889160000e-01 -1.861006000e+00
52300000.0 5.214020000e-01 -1.866437000e+00
53200000.0 5.541180000e-01 -1.872591000e+00
54100000.0 5.882800000e-01 -1.878535000e+00
55000000.0 6.252620000e-01 -1.881568000e+00
55900000.0 6.613270000e-01 -1.884836000e+00
56800000.0 6.975760000e-01 -1.887122000e+00
57700000.0 7.336260000e-01 -1.884962000e+00
58600000.0 7.721520000e-01 -1.882583000e+00
59500000.0 8.107340000e-01 -1.880643000e+00
60400000.0 8.481710000e-01 -1.876942000e+00
61300000.0 8.884600000e-01 -1.869439000e+00
62200000.0 9.271270000e-01 -1.863643000e+00
63100000.0 9.659400000e-01 -1.852074000e+00
64000000.0 1.005358000e+00 -1.841145000e+00
64900000.0 1.044776000e+00 -1.828046000e+00
65800000.0 1.082742000e+00 -1.813007000e+00
66700000.0 1.119466000e+00 -1.796654000e+00
67600000.0 1.157447000e+00 -1.777302000e+00
68500000.0 1.196530000e+00 -1.756178000e+00
69400000.0 1.234908000e+00 -1.733977000e+00
70300000.0 1.267217000e+00 -1.710097000e+00
71200000.0 1.301284000e+00 -1.683885000e+00
72100000.0 1.334635000e+00 -1.656491000e+00
73000000.0 1.368052000e+00 -1.629632000e+00
73900000.0 1.397437000e+00 -1.598807000e+00
74800000.0 1.428717000e+00 -1.566463000e+00
75700000.0 1.455191000e+00 -1.533987000e+00
76600000.0 1.480298000e+00 -1.502116000e+00
77500000.0 1.504534000e+00 -1.467462000e+00
78400000.0 1.527802000e+00 -1.433837000e+00
79300000.0 1.547853000e+00 -1.396980000e+00
80200000.0 1.567987000e+00 -1.359936000e+00
81100000.0 1.584751000e+00 -1.322259000e+00
82000000.0 1.600357000e+00 -1.285868000e+00
82900000.0 1.614672000e+00 -1.246347000e+00
83800000.0 1.627438000e+00 -1.209525000e+00
84700000.0 1.634645000e+00 -1.173111000e+00
85600000.0 1.643813000e+00 -1.135910000e+00
86500000.0 1.651226000e+00 -1.101386000e+00
87400000.0 1.655997000e+00 -1.062994000e+00
88300000.0 1.660497000e+00 -1.027753000e+00
89200000.0 1.663535000e+00 -9.892600000e-01
90100000.0 1.664996000e+00 -9.572970000e-01
91000000.0 1.665413000e+00 -9.218870000e-01
91900000.0 1.662722000e+00 -8.874000000e-01
92800000.0 1.660666000e+00 -8.552180000e-01
93700000.0 1.657763000e+00 -8.240610000e-01
94600000.0 1.652153000e+00 -7.913170000e-01
95500000.0 1.647987000e+00 -7.613220000e-01
96400000.0 1.640196000e+00 -7.321030000e-01
97300000.0 1.634788000e+00 -7.030600000e-01
98200000.0 1.627576000e+00 -6.737440000e-01
99100000.0 1.618593000e+00 -6.463460000e-01
100000000.0 1.610957000e+00 -6.195700000e-01
109000000.0 1.502035000e+00 -4.003890000e-01
118000000.0 1.377843000e+00 -2.427040000e-01
127000000.0 1.257154000e+00 -1.383830000e-01
136000000.0 1.147343000e+00 -6.864200000e-02
145000000.0 1.050468000e+00 -1.934800000e-02
154000000.0 1.000944000e+00 1.072000000e-03
163000000.0 1.002103000e+00 -4.650000000e-04
172000000.0 1.003253000e+00 -2.610000000e-04
181000000.0 1.003812000e+00 -1.220000000e-03
190000000.0 1.004317000e+00 -1.042000000e-03
199000000.0 1.004449000e+00 -1.375000000e-03
208000000.0 1.005448000e+00 -1.875000000e-03
217000000.0 1.005453000e+00 -2.147000000e-03
226000000.0 1.005485000e+00 -5.120000000e-04
235000000.0 1.006641000e+00 -2.056000000e-03
244000000.0 1.006146000e+00 1.250000000e-04
253000000.0 1.005242000e+00 -1.098000000e-03
262000000.0 1.005719000e+00 -1.286000000e-03
271000000.0 1.005252000e+00 -1.270000000e-04
280000000.0 1.004100000e+00 -2.850000000e-04
289000000.0 1.002979000e+00 1.811000000e-03
298000000.0 1.001703000e+00 -8.380000000e-04
307000000.0 1.002100000e+00 3.310000000e-04
316000000.0 1.005531000e+00 1.424000000e-03
325000000.0 1.003527000e+00 1.880000000e-04
334000000.0 1.005591000e+00 1.330000000e-04
343000000.0 1.007646000e+00 1.321000000e-03
352000000.0 1.005694000e+00 6.990000000e-04
361000000.0 1.008889000e+00 3.686300000e-02
370000000.0 1.006422000e+00 -7.190000000e-04
379000000.0 1.006775000e+00 1.598000000e-03
388000000.0 1.006070000e+00 2.360000000e-04
397000000.0 1.006282000e+00 1.510000000e-03
406000000.0 1.011839000e+00 3.813600000e-02
415000000.0 1.003940000e+00 1.100000000e-04
424000000.0 9.848600000e-01 -4.819900000e-02
433000000.0 1.001111000e+00 5.660000000e-04
442000000.0 9.987380000e-01 1.272000000e-03
451000000.0 9.981200000e-01 8.470000000e-04
460000000.0 1.001535000e+00 2.209000000e-03
469000000.0 1.002588000e+00 2.899000000e-03
478000000.0 1.004925000e+00 4.577000000e-03
487000000.0 1.005953000e+00 2.659000000e-03
496000000.0 1.006895000e+00 3.144000000e-03
505000000.0 1.006994000e+00 8.304000000e-03
514000000.0 1.008450000e+00 7.184000000e-03
523000000.0 1.008787000e+00 6.925000000e-03
532000000.0 1.006714000e+00 6.366000000e-03
541000000.0 1.007920000e+00 7.913000000e-03
550000000.0 1.009851000e+00 8.068000000e-03
559000000.0 1.007686000e+00 9.974000000e-03
568000000.0 1.007678000e+00 6.568000000e-03
577000000.0 1.005909000e+00 1.016700000e-02
586000000.0 1.004082000e+00 9.452000000e-03
595000000.0 1.004568000e+00 7.955000000e-03
604000000.0 1.004593000e+00 5.367000000e-03
613000000.0 1.006505000e+00 4.596000000e-03
622000000.0 1.008487000e+00 8.666000000e-03
631000000.0 1.013520000e+00 8.086000000e-03
640000000.0 1.012866000e+00 8.253000000e-03
649000000.0 1.014670000e+00 7.682000000e-03
658000000.0 1.013830000e+00 6.227000000e-03
667000000.0 1.015980000e+00 6.931000000e-03
676000000.0 1.016591000e+00 8.746000000e-03
685000000.0 1.017536000e+00 6.959000000e-03
694000000.0 1.014107000e+00 6.007000000e-03
703000000.0 1.012644000e+00 3.483000000e-03
712000000.0 1.012068000e+00 8.220000000e-03
721000000.0 1.009112000e+00 4.866000000e-03
730000000.0 1.007481000e+00 4.548000000e-03
739000000.0 1.005500000e+00 -1.100000000e-05
748000000.0 1.003062000e+00 6.170000000e-04
757000000.0 1.003498000e+00 -1.177000000e-03
766000000.0 1.005932000e+00 -3.031000000e-03
775000000.0 1.008740000e+00 -6.231000000e-03
784000000.0 1.011926000e+00 -5.417000000e-03
793000000.0 1.013031000e+00 -2.029000000e-03
802000000.0 1.018117000e+00 -5.350000000e-03
811000000.0 1.014747000e+00 -6.955000000e-03
820000000.0 1.015470000e+00 -2.450000000e-03
829000000.0 1.015336000e+00 -3.996000000e-03
838000000.0 1.017917000e+00 -5.529000000e-03
847000000.0 1.013985000e+00 -5.822000000e-03
856000000.0 1.014771000e+00 -5.310000000e-03
865000000.0 1.014687000e+00 -9.147000000e-03
874000000.0 1.010776000e+00 -1.001000000e-03
883000000.0 1.007252000e+00 -4.461000000e-03
892000000.0 1.002293000e+00 -3.212000000e-03
901000000.0 1.000246000e+00 1.190000000e-03
910000000.0 1.003432000e+00 -1.603000000e-03
919000000.0 1.001726000e+00 -1.764000000e-03
928000000.0 1.003295000e+00 -6.374000000e-03
937000000.0 1.007172000e+00 -4.044000000e-03
946000000.0 1.004633000e+00 5.610000000e-04
955000000.0 1.003591000e+00 -8.467000000e-03
964000000.0 1.002667000e+00 -7.826000000e-03
973000000.0 1.003935000e+00 -8.046000000e-03
982000000.0 1.004222000e+00 -1.026900000e-02
991000000.0 1.004835000e+00 -9.965000000e-03
1000000000.0 1.003384000e+00 -9.969000000e-03
1004500000.0 1.003778000e+00 -9.411000000e-03
1009000000.0 1.002557000e+00 -4.744000000e-03
1013500000.0 1.002744000e+00 -1.831000000e-03
1018000000.0 1.001686000e+00 -7.901000000e-03
1022500000.0 1.000420000e+00 -6.367000000e-03
1027000000.0 1.002088000e+00 -4.244000000e-03
1031500000.0 1.002360000e+00 -4.895000000e-03
1036000000.0 1.001196000e+00 -6.283000000e-03
1040500000.0 9.997720000e-01 -3.231000000e-03
1045000000.0 1.001287000e+00 -4.655000000e-03
1049500000.0 1.001887000e+00 -2.056000000e-03
1054000000.0 9.999650000e-01 1.955000000e-03
1058500000.0 1.000787000e+00 -4.648000000e-03
1063000000.0 1.002177000e+00 -4.662000000e-03
1067500000.0 1.002030000e+00 -3.167000000e-03
1072000000.0 1.000041000e+00 5.002000000e-03
1076500000.0 1.003468000e+00 -4.970000000e-03
1081000000.0 1.002933000e+00 1.867000000e-03
1085500000.0 1.006709000e+00 -7.044000000e-03
1090000000.0 1.004457000e+00 -4.730000000e-04
1094500000.0 1.005317000e+00 2.560000000e-04
1099000000.0 1.005932000e+00 4.023000000e-03
1103500000.0 1.003401000e+00 3.041000000e-03
1108000000.0 1.001919000e+00 -4.390000000e-04
1112500000.0 1.003477000e+00 -4.110000000e-03
1117000000.0 1.002268000e+00 -1.270800000e-02
1121500000.0 1.004305000e+00 -3.651000000e-03
1126000000.0 1.004768000e+00 -7.696000000e-03
1130500000.0 1.032713000e+00 1.258470000e-01
1135000000.0 1.001657000e+00 -3.432400000e-02
1139500000.0 1.000808000e+00 -2.182700000e-02
1144000000.0 1.002389000e+00 -1.757100000e-02
1148500000.0 1.007780000e+00 2.219000000e-03
1153000000.0 1.006421000e+00 -7.906000000e-03
1157500000.0 1.003146000e+00 -7.685000000e-03
1162000000.0 1.004533000e+00 -4.982000000e-03
1166500000.0 1.002980000e+00 -1.135400000e-02
1171000000.0 1.005115000e+00 -7.901000000e-03
1175500000.0 1.007276000e+00 -2.353000000e-03
1180000000.0 1.006093000e+00 -1.049000000e-03
1184500000.0 1.007911000e+00 -8.130000000e-03
1189000000.0 1.007771000e+00 -5.333000000e-03
1193500000.0 1.005473000e+00 -6.537000000e-03
1198000000.0 1.005777000e+00 -1.109500000e-02
1202500000.0 1.004325000e+00 4.388000000e-03
1207000000.0 1.008889000e+00 -4.861000000e-03
1211500000.0 1.003447000e+00 3.944000000e-03
1216000000.0 1.004743000e+00 4.490000000e-04
1220500000.0 1.003584000e+00 -6.307000000e-03
1225000000.0 9.975370000e-01 -1.060700000e-02
1229500000.0 1.002509000e+00 2.749000000e-03
1234000000.0 1.001143000e+00 -6.100000000e-05
1238500000.0 1.011853000e+00 -1.529000000e-03
1243000000.0 1.002128000e+00 -9.020000000e-03
1247500000.0 1.005933000e+00 -1.172000000e-03
1252000000.0 1.004860000e+00 -7.247000000e-03
1256500000.0 9.996640000e-01 -6.515000000e-03
1261000000.0 1.004069000e+00 4.485000000e-03
1265500000.0 1.008405000e+00 1.543000000e-03
1270000000.0 1.003999000e+00 -7.020000000e-04
1274500000.0 1.008756000e+00 1.402000000e-03
1279000000.0 1.004185000e+00 9.139000000e-03
1283500000.0 1.009743000e+00 1.821000000e-03
1288000000.0 1.007480000e+00 4.611000000e-03
1292500000.0 1.001698000e+00 -1.419000000e-03
1297000000.0 1.000819000e+00 -5.490000000e-04
1301500000.0 1.001544000e+00 4.676000000e-03
1306000000.0 1.003302000e+00 -4.887000000e-03
1310500000.0 9.986980000e-01 -1.202000000e-02
1315000000.0 1.001248000e+00 3.420000000e-04
1319500000.0 1.000214000e+00 9.099000000e-03
1324000000.0 9.967300000e-01 -1.742000000e-03
1328500000.0 1.002707000e+00 3.662000000e-03
1333000000.0 1.003027000e+00 5.014000000e-03
1337500000.0 9.984680000e-01 1.370000000e-04
1342000000.0 1.000841000e+00 -1.649000000e-03
1346500000.0 9.996170000e-01 1.757000000e-03
1351000000.0 1.002376000e+00 9.600000000e-04
1355500000.0 9.997860000e-01 1.072200000e-02
1360000000.0 1.008964000e+00 7.392000000e-03
1364500000.0 1.003388000e+00 9.037000000e-03
1369000000.0 1.009512000e+00 1.110200000e-02
1373500000.0 1.002825000e+00 8.830000000e-03
1378000000.0 1.008664000e+00 1.040900000e-02
1382500000.0 1.005638000e+00 7.917000000e-03
1387000000.0 1.000997000e+00 2.413000000e-03
1391500000.0 1.002648000e+00 1.487900000e-02
1396000000.0 1.001042000e+00 1.378300000e-02
1400500000.0 1.009043000e+00 1.153000000e-03
1405000000.0 1.012591000e+00 9.887000000e-03
1409500000.0 1.006759000e+00 -5.236000000e-03
1414000000.0 1.006192000e+00 4.687000000e-03
1418500000.0 1.008471000e+00 1.566900000e-02
1423000000.0 1.010162000e+00 2.315700000e-02
1427500000.0 1.015624000e+00 1.714600000e-02
1432000000.0 1.002351000e+00 1.362500000e-02
1436500000.0 1.004377000e+00 1.249100000e-02
1441000000.0 9.999800000e-01 1.238200000e-02
1445500000.0 1.005561000e+00 1.648200000e-02
1450000000.0 1.000873000e+00 2.201800000e-02
