! piloto_deriva / corto_deriva / r43
# HZ S RI R 50
50000.0 -9.980300000e-01 -3.903800000e-02
59500.0 -9.964850000e-01 -1.769400000e-02
69000.0 -9.970090000e-01 -7.463000000e-03
78500.0 -9.992870000e-01 -1.180000000e-03
88000.0 -9.993930000e-01 8.050000000e-04
97500.0 -1.000195000e+00 -7.250000000e-04
107000.0 -9.999030000e-01 -3.177000000e-03
116500.0 -1.000791000e+00 -5.948000000e-03
126000.0 -1.001213000e+00 -1.136900000e-02
135500.0 -1.000058000e+00 -1.627100000e-02
145000.0 -9.999710000e-01 -2.264700000e-02
154500.0 -9.994870000e-01 -2.950400000e-02
164000.0 -9.995410000e-01 -3.673500000e-02
173500.0 -1.000171000e+00 -4.475700000e-02
183000.0 -1.000413000e+00 -5.210500000e-02
192500.0 -1.000304000e+00 -6.076800000e-02
202000.0 -9.998750000e-01 -6.857700000e-02
211500.0 -1.000254000e+00 -7.715500000e-02
221000.0 -1.001076000e+00 -8.572800000e-02
230500.0 -1.000045000e+00 -9.549800000e-02
240000.0 -1.000620000e+00 -1.046790000e-01
249500.0 -1.001008000e+00 -1.132760000e-01
259000.0 -1.001246000e+00 -1.221520000e-01
268500.0 -1.001407000e+00 -1.311160000e-01
278000.0 -1.001487000e+00 -1.403470000e-01
287500.0 -1.001118000e+00 -1.496130000e-01
297000.0 -1.002354000e+00 -1.597920000e-01
306500.0 -1.002368000e+00 -1.684390000e-01
316000.0 -1.001898000e+00 -1.781640000e-01
325500.0 -1.002791000e+00 -1.876480000e-01
335000.0 -1.002965000e+00 -1.968420000e-01
344500.0 -1.003733000e+00 -2.056680000e-01
354000.0 -1.003633000e+00 -2.153620000e-01
363500.0 -1.003882000e+00 -2.242430000e-01
373000.0 -1.004809000e+00 -2.337720000e-01
382500.0 -1.004327000e+00 -2.427640000e-01
392000.0 -1.004174000e+00 -2.528540000e-01
401500.0 -1.004980000e+00 -2.616370000e-01
411000.0 -1.004393000e+00 -2.717050000e-01
420500.0 -1.004596000e+00 -2.807820000e-01
430000.0 -1.004714000e+00 -2.892940000e-01
439500.0 -1.004966000e+00 -2.994670000e-01
449000.0 -1.005345000e+00 -3.085220000e-01
458500.0 -1.005755000e+00 -3.177940000e-01
468000.0 -1.004745000e+00 -3.272220000e-01
477500.0 -1.006085000e+00 -3.365470000e-01
487000.0 -1.007185000e+00 -3.457570000e-01
496500.0 -1.007139000e+00 -3.563120000e-01
506000.0 -1.006892000e+00 -3.645890000e-01
515500.0 -1.007493000e+00 -3.732250000e-01
525000.0 -1.007621000e+00 -3.834340000e-01
534500.0 -1.008243000e+00 -3.921220000e-01
544000.0 -1.008757000e+00 -4.015590000e-01
553500.0 -1.008409000e+00 -4.108360000e-01
563000.0 -1.008236000e+00 -4.200230000e-01
572500.0 -1.010127000e+00 -4.294820000e-01
582000.0 -1.010034000e+00 -4.387920000e-01
591500.0 -1.010364000e+00 -4.482220000e-01
601000.0 -1.011640000e+00 -4.572680000e-01
610500.0 -1.010936000e+00 -4.660820000e-01
620000.0 -1.012098000e+00 -4.745270000e-01
629500.0 -1.011935000e+00 -4.846840000e-01
639000.0 -1.012690000e+00 -4.927810000e-01
648500.0 -1.013428000e+00 -5.012810000e-01
658000.0 -1.015175000e+00 -5.103350000e-01
667500.0 -1.014398000e+00 -5.206310000e-01
677000.0 -1.016271000e+00 -5.293330000e-01
686500.0 -1.016149000e+00 -5.381630000e-01
696000.0 -1.017117000e+00 -5.469880000e-01
705500.0 -1.017825000e+00 -5.560080000e-01
715000.0 -1.018542000e+00 -5.650580000e-01
724500.0 -1.020166000e+00 -5.749690000e-01
734000.0 -1.020098000e+00 -5.832720000e-01
743500.0 -1.020434000e+00 -5.917080000e-01
753000.0 -1.022193000e+00 -6.011790000e-01
762500.0 -1.022831000e+00 -6.097670000e-01
772000.0 -1.024272000e+00 -6.182470000e-01
781500.0 -1.025470000e+00 -6.273820000e-01
791000.0 -1.026001000e+00 -6.359600000e-01
800500.0 -1.027336000e+00 -6.449620000e-01
810000.0 -1.029525000e+00 -6.547420000e-01
819500.0 -1.032225000e+00 -6.639060000e-01
829000.0 -1.032507000e+00 -6.725780000e-01
838500.0 -1.033008000e+00 -6.802870000e-01
848000.0 -1.035214000e+00 -6.889590000e-01
857500.0 -1.036708000e+00 -6.986540000e-01
867000.0 -1.037568000e+00 -7.073590000e-01
876500.0 -1.039801000e+00 -7.147060000e-01
886000.0 -1.041467000e+00 -7.235250000e-01
895500.0 -1.044581000e+00 -7.331170000e-01
905000.0 -1.045448000e+00 -7.411030000e-01
914500.0 -1.047717000e+00 -7.501770000e-01
924000.0 -1.050982000e+00 -7.579660000e-01
933500.0 -1.051612000e+00 -7.670810000e-01
943000.0 -1.053558000e+00 -7.755150000e-01
952500.0 -1.056504000e+00 -7.843310000e-01
962000.0 -1.042447000e+00 -7.808730000e-01
971500.0 -1.062275000e+00 -8.005210000e-01
981000.0 -1.062283000e+00 -8.094280000e-01
990500.0 -1.066590000e+00 -8.175460000e-01
1000000.0 -1.067402000e+00 -8.258090000e-01
1090000.0 -1.097984000e+00 -9.046550000e-01
1180000.0 -1.135216000e+00 -9.759730000e-01
1270000.0 -1.184547000e+00 -1.045495000e+00
1360000.0 -1.239648000e+00 -1.105968000e+00
1450000.0 -1.310966000e+00 -1.157732000e+00
1540000.0 -1.387767000e+00 -1.191990000e+00
1630000.0 -1.474553000e+00 -1.210937000e+00
1720000.0 -1.565687000e+00 -1.210558000e+00
1810000.0 -1.653218000e+00 -1.190123000e+00
1900000.0 -1.738184000e+00 -1.143435000e+00
1990000.0 -1.805722000e+00 -1.080136000e+00
2080000.0 -1.865913000e+00 -9.971580000e-01
2170000.0 -1.899801000e+00 -9.113440000e-01
2260000.0 -1.917632000e+00 -8.170500000e-01
2350000.0 -1.915949000e+00 -7.278940000e-01
2440000.0 -1.899625000e+00 -6.424080000e-01
2530000.0 -1.873844000e+00 -5.674760000e-01
2620000.0 -1.839188000e+00 -4.955150000e-01
2710000.0 -1.796779000e+00 -4.355740000e-01
2800000.0 -1.758019000e+00 -3.841780000e-01
2890000.0 -1.596590000e+00 -1.475280000e-01
2980000.0 -1.671977000e+00 -3.016950000e-01
3070000.0 -1.632046000e+00 -2.679340000e-01
3160000.0 -1.592427000e+00 -2.411110000e-01
3250000.0 -1.557708000e+00 -2.165840000e-01
3340000.0 -1.518784000e+00 -1.921380000e-01
3430000.0 -1.488239000e+00 -1.727930000e-01
3520000.0 -1.459202000e+00 -1.545800000e-01
3610000.0 -1.429390000e+00 -1.374540000e-01
3700000.0 -1.400983000e+00 -1.204320000e-01
3790000.0 -1.377941000e+00 -1.073310000e-01
3880000.0 -1.353382000e+00 -9.385200000e-02
3970000.0 -1.333518000e+00 -7.993700000e-02
4060000.0 -1.311864000e+00 -6.839100000e-02
4150000.0 -1.295260000e+00 -5.441600000e-02
4240000.0 -1.278435000e+00 -4.256800000e-02
4330000.0 -1.262673000e+00 -3.093800000e-02
4420000.0 -1.248303000e+00 -1.773500000e-02
4510000.0 -1.236528000e+00 -6.409000000e-03
4600000.0 -1.223040000e+00 3.549000000e-03
4690000.0 -1.213593000e+00 1.474400000e-02
4780000.0 -1.203411000e+00 2.614300000e-02
4870000.0 -1.195299000e+00 3.690600000e-02
4960000.0 -1.186387000e+00 4.888400000e-02
5050000.0 -1.172286000e+00 5.920900000e-02
5140000.0 -1.166753000e+00 6.877700000e-02
5230000.0 -1.161473000e+00 8.017900000e-02
5320000.0 -1.157020000e+00 8.996500000e-02
5410000.0 -1.152009000e+00 1.013200000e-01
5500000.0 -1.147541000e+00 1.115180000e-01
5590000.0 -1.143225000e+00 1.213290000e-01
5680000.0 -1.140153000e+00 1.319590000e-01
5770000.0 -1.135376000e+00 1.407210000e-01
5860000.0 -1.131886000e+00 1.508670000e-01
5950000.0 -1.128959000e+00 1.581780000e-01
6040000.0 -1.125805000e+00 1.681120000e-01
6130000.0 -1.121514000e+00 1.765520000e-01
6220000.0 -1.120172000e+00 1.855590000e-01
6310000.0 -1.116363000e+00 1.920990000e-01
6400000.0 -1.115111000e+00 2.002040000e-01
6490000.0 -1.113588000e+00 2.053080000e-01
6580000.0 -1.109679000e+00 2.118230000e-01
6670000.0 -1.109131000e+00 2.177990000e-01
6760000.0 -1.105878000e+00 2.231150000e-01
6850000.0 -1.106261000e+00 2.285920000e-01
6940000.0 -1.103757000e+00 2.324680000e-01
7030000.0 -1.104671000e+00 2.347270000e-01
7120000.0 -1.102633000e+00 2.384670000e-01
7210000.0 -1.103052000e+00 2.413910000e-01
7300000.0 -1.101825000e+00 2.413100000e-01
7390000.0 -1.101905000e+00 2.426000000e-01
7480000.0 -1.101010000e+00 2.424200000e-01
7570000.0 1.958460000e-01 1.073962000e+00
7660000.0 1.955320000e-01 1.074096000e+00
7750000.0 1.940290000e-01 1.074821000e+00
7840000.0 1.930950000e-01 1.075721000e+00
7930000.0 1.923720000e-01 1.074566000e+00
8020000.0 1.927510000e-01 1.074493000e+00
8110000.0 1.908240000e-01 1.077127000e+00
8200000.0 1.895500000e-01 1.075675000e+00
8290000.0 1.891430000e-01 1.077168000e+00
8380000.0 1.886050000e-01 1.077317000e+00
8470000.0 1.870250000e-01 1.077409000e+00
8560000.0 1.873720000e-01 1.078057000e+00
8650000.0 1.865110000e-01 1.078532000e+00
8740000.0 1.851160000e-01 1.079509000e+00
8830000.0 1.851050000e-01 1.078830000e+00
8920000.0 1.841530000e-01 1.080895000e+00
9010000.0 1.831920000e-01 1.079898000e+00
9100000.0 1.826760000e-01 1.080787000e+00
9190000.0 1.829160000e-01 1.081088000e+00
9280000.0 1.818920000e-01 1.081970000e+00
9370000.0 1.799500000e-01 1.082834000e+00
9460000.0 1.799510000e-01 1.082845000e+00
9550000.0 1.799420000e-01 1.083673000e+00
9640000.0 1.791170000e-01 1.085297000e+00
9730000.0 1.783070000e-01 1.084113000e+00
9820000.0 1.777240000e-01 1.086403000e+00
9910000.0 1.765200000e-01 1.085259000e+00
10000000.0 1.767180000e-01 1.087292000e+00
10900000.0 1.692360000e-01 1.094704000e+00
11800000.0 1.631860000e-01 1.101859000e+00
12700000.0 1.573410000e-01 1.110237000e+00
13600000.0 1.507310000e-01 1.118453000e+00
14500000.0 1.452290000e-01 1.127195000e+00
15400000.0 1.363170000e-01 1.135593000e+00
16300000.0 1.312080000e-01 1.145427000e+00
17200000.0 1.246630000e-01 1.155051000e+00
18100000.0 1.169540000e-01 1.163782000e+00
19000000.0 1.098400000e-01 1.172816000e+00
19900000.0 1.015000000e-01 1.182392000e+00
20800000.0 9.304100000e-02 1.192276000e+00
21700000.0 8.583600000e-02 1.203052000e+00
22600000.0 7.530500000e-02 1.210949000e+00
23500000.0 6.579700000e-02 1.221590000e+00
24400000.0 5.633100000e-02 1.231703000e+00
25300000.0 4.674500000e-02 1.241718000e+00
26200000.0 3.641300000e-02 1.251302000e+00
27100000.0 2.618900000e-02 1.262319000e+00
28000000.0 1.459400000e-02 1.271404000e+00
28900000.0 2.018000000e-03 1.282656000e+00
29800000.0 -9.653000000e-03 1.292083000e+00
30700000.0 -2.154000000e-02 1.301667000e+00
31600000.0 -3.558500000e-02 1.311514000e+00
32500000.0 -4.854400000e-02 1.321525000e+00
33400000.0 -6.239600000e-02 1.332936000e+00
34300000.0 -7.586900000e-02 1.342088000e+00
35200000.0 -9.177400000e-02 1.351719000e+00
36100000.0 -1.061300000e-01 1.360520000e+00
37000000.0 -1.211800000e-01 1.369701000e+00
37900000.0 -1.370590000e-01 1.379083000e+00
38800000.0 -1.542810000e-01 1.387672000e+00
39700000.0 -1.716490000e-01 1.397089000e+00
40600000.0 -1.890780000e-01 1.404283000e+00
41500000.0 -2.070250000e-01 1.412958000e+00
42400000.0 -2.248360000e-01 1.421680000e+00
43300000.0 -2.431300000e-01 1.428434000e+00
44200000.0 -2.625790000e-01 1.435043000e+00
45100000.0 -2.827940000e-01 1.441738000e+00
46000000.0 -3.018060000e-01 1.449279000e+00
46900000.0 -3.244570000e-01 1.453411000e+00
47800000.0 -3.443820000e-01 1.459177000e+00
48700000.0 -3.667720000e-01 1.465009000e+00
49600000.0 -3.871310000e-01 1.466960000e+00
50500000.0 -4.094700000e-01 1.472078000e+00
51400000.0 -4.303300000e-01 1.474272000e+00
52300000.0 -4.531310000e-01 1.477292000e+00
53200000.0 -4.782950000e-01 1.479488000e+00
54100000.0 -4.999260000e-01 1.480484000e+00
55000000.0 -5.235380000e-01 1.481681000e+00
55900000.0 -5.468790000e-01 1.482346000e+00
56800000.0 -5.716260000e-01 1.480914000e+00
57700000.0 -5.940450000e-01 1.479135000e+00
58600000.0 -6.199830000e-01 1.477723000e+00
59500000.0 -6.440800000e-01 1.475500000e+00
60400000.0 -6.677310000e-01 1.471720000e+00
61300000.0 -6.922880000e-01 1.466806000e+00
62200000.0 -7.156430000e-01 1.462423000e+00
63100000.0 -7.394440000e-01 1.456566000e+00
64000000.0 -7.640830000e-01 1.449746000e+00
64900000.0 -7.895010000e-01 1.443415000e+00
65800000.0 -8.119030000e-01 1.434739000e+00
66700000.0 -8.369500000e-01 1.427169000e+00
67600000.0 -8.593450000e-01 1.417600000e+00
68500000.0 -8.851670000e-01 1.408183000e+00
69400000.0 -9.070030000e-01 1.396951000e+00
70300000.0 -9.307930000e-01 1.385783000e+00
71200000.0 -9.535540000e-01 1.374033000e+00
72100000.0 -9.743410000e-01 1.361572000e+00
73000000.0 -9.973420000e-01 1.347119000e+00
73900000.0 -1.020018000e+00 1.333932000e+00
74800000.0 -1.039229000e+00 1.318760000e+00
75700000.0 -1.060710000e+00 1.303246000e+00
76600000.0 -1.081517000e+00 1.289407000e+00
77500000.0 -1.101502000e+00 1.272101000e+00
78400000.0 -1.120057000e+00 1.255516000e+00
79300000.0 -1.139147000e+00 1.236237000e+00
80200000.0 -1.156785000e+00 1.218395000e+00
81100000.0 -1.176282000e+00 1.200478000e+00
82000000.0 -1.192060000e+00 1.181038000e+00
82900000.0 -1.208773000e+00 1.161856000e+00
83800000.0 -1.224708000e+00 1.142430000e+00
84700000.0 -1.239617000e+00 1.120915000e+00
85600000.0 -1.255798000e+00 1.100394000e+00
86500000.0 -1.269545000e+00 1.078876000e+00
87400000.0 -1.280835000e+00 1.057688000e+00
88300000.0 -1.295108000e+00 1.036184000e+00
89200000.0 -1.307094000e+00 1.012305000e+00
90100000.0 -1.317808000e+00 9.916270000e-01
91000000.0 -1.328120000e+00 9.688510000e-01
91900000.0 -1.337150000e+00 9.453950000e-01
92800000.0 -1.347621000e+00 9.234270000e-01
93700000.0 -1.354367000e+00 8.989030000e-01
94600000.0 -1.361948000e+00 8.758460000e-01
95500000.0 -1.369450000e+00 8.527240000e-01
96400000.0 -1.375081000e+00 8.300480000e-01
97300000.0 -1.379443000e+00 8.071420000e-01
98200000.0 -1.384477000e+00 7.832690000e-01
99100000.0 -1.387821000e+00 7.616340000e-01
100000000.0 -1.390006000e+00 7.386000000e-01
109000000.0 -1.385761000e+00 5.204140000e-01
118000000.0 -1.330630000e+00 3.379180000e-01
127000000.0 -1.251366000e+00 1.989600000e-01
136000000.0 -1.135239000e+00 1.006550000e-01
145000000.0 -1.046525000e+00 3.068600000e-02
154000000.0 -1.000515000e+00 -1.871000000e-03
163000000.0 -1.002643000e+00 -3.148000000e-03
172000000.0 -1.004127000e+00 -6.209000000e-03
181000000.0 -1.006292000e+00 -7.537000000e-03
190000000.0 -1.007882000e+00 -8.851000000e-03
199000000.0 -1.008091000e+00 -1.032600000e-02
208000000.0 -1.009695000e+00 -1.103100000e-02
217000000.0 -1.009598000e+00 -1.227000000e-02
226000000.0 -1.010047000e+00 -1.045400000e-02
235000000.0 -1.010463000e+00 -1.172100000e-02
244000000.0 -1.009438000e+00 -1.021100000e-02
253000000.0 -1.008725000e+00 -1.001700000e-02
262000000.0 -1.008128000e+00 -5.587000000e-03
271000000.0 -1.006076000e+00 -6.720000000e-03
280000000.0 -1.004072000e+00 -5.543000000e-03
289000000.0 -1.003171000e+00 -3.592000000e-03
298000000.0 -1.000440000e+00 -7.270000000e-04
307000000.0 -1.002694000e+00 -1.054000000e-03
316000000.0 -1.004720000e+00 -1.766000000e-03
325000000.0 -1.008182000e+00 -2.263000000e-03
334000000.0 -1.009662000e+00 -0.000000000e+00
343000000.0 -1.011500000e+00 -2.240000000e-03
352000000.0 -1.012070000e+00 -1.664000000e-03
361000000.0 -1.013422000e+00 -2.567000000e-03
370000000.0 -1.015440000e+00 -4.706000000e-03
379000000.0 -1.014661000e+00 -2.205000000e-03
388000000.0 -1.004353000e+00 3.001300000e-02
397000000.0 -1.013016000e+00 -3.687000000e-03
406000000.0 -1.021029000e+00 -3.741600000e-02
415000000.0 -1.000946000e+00 3.030500000e-02
424000000.0 -1.009120000e+00 -2.793000000e-03
433000000.0 -1.004546000e+00 -1.140000000e-03
442000000.0 -1.002404000e+00 6.320000000e-04
451000000.0 -9.999590000e-01 3.820000000e-04
460000000.0 -1.004621000e+00 1.413000000e-03
469000000.0 -1.006783000e+00 2.285000000e-03
478000000.0 -1.009972000e+00 8.120000000e-04
487000000.0 -1.012415000e+00 1.843000000e-03
496000000.0 -1.015055000e+00 1.660000000e-03
505000000.0 -1.015696000e+00 2.333000000e-03
514000000.0 -1.017164000e+00 3.944000000e-03
523000000.0 -1.016806000e+00 4.133000000e-03
532000000.0 -1.016567000e+00 2.878000000e-03
541000000.0 -1.015641000e+00 1.933000000e-03
550000000.0 -1.014868000e+00 2.205000000e-03
559000000.0 -1.012838000e+00 4.739000000e-03
568000000.0 -1.011864000e+00 5.600000000e-05
577000000.0 -1.010191000e+00 6.300000000e-04
586000000.0 -1.005306000e+00 1.654000000e-03
595000000.0 -1.000465000e+00 1.605000000e-03
604000000.0 -1.002292000e+00 4.920000000e-04
613000000.0 -1.004997000e+00 7.094000000e-03
622000000.0 -1.006076000e+00 5.207000000e-03
631000000.0 -1.005532000e+00 8.132000000e-03
640000000.0 -1.007984000e+00 1.118900000e-02
649000000.0 -1.011926000e+00 6.862000000e-03
658000000.0 -1.008574000e+00 1.324700000e-02
667000000.0 -1.012982000e+00 1.260200000e-02
676000000.0 -1.011766000e+00 1.038600000e-02
685000000.0 -1.010844000e+00 1.207400000e-02
694000000.0 -1.007056000e+00 1.332400000e-02
703000000.0 -1.007271000e+00 1.255100000e-02
712000000.0 -1.011454000e+00 1.562700000e-02
721000000.0 -1.004541000e+00 1.095000000e-02
730000000.0 -1.003095000e+00 4.744000000e-03
739000000.0 -1.001343000e+00 6.352000000e-03
748000000.0 -1.000002000e+00 1.449000000e-03
757000000.0 -1.000449000e+00 2.015000000e-03
766000000.0 -9.981090000e-01 6.752000000e-03
775000000.0 -1.000816000e+00 4.287000000e-03
784000000.0 -9.972350000e-01 4.561000000e-03
793000000.0 -9.980890000e-01 4.522000000e-03
802000000.0 -9.988260000e-01 9.657000000e-03
811000000.0 -9.970140000e-01 8.335000000e-03
820000000.0 -1.001913000e+00 6.835000000e-03
829000000.0 -9.975630000e-01 1.174900000e-02
838000000.0 -9.998100000e-01 7.970000000e-03
847000000.0 -9.976700000e-01 8.121000000e-03
856000000.0 -9.956680000e-01 3.869000000e-03
865000000.0 -9.989960000e-01 -2.740000000e-03
874000000.0 -9.984100000e-01 5.424000000e-03
883000000.0 -1.001376000e+00 -1.901000000e-03
892000000.0 -9.959100000e-01 -2.110000000e-04
901000000.0 -9.984980000e-01 -9.340000000e-04
910000000.0 -1.001080000e+00 -2.278000000e-03
919000000.0 -1.000398000e+00 -4.891000000e-03
928000000.0 -1.001258000e+00 -8.053000000e-03
937000000.0 -1.000714000e+00 -6.162000000e-03
946000000.0 -9.981400000e-01 -5.852000000e-03
955000000.0 -9.972410000e-01 -5.481000000e-03
964000000.0 -1.001426000e+00 -6.150000000e-03
973000000.0 -1.002539000e+00 -1.317100000e-02
982000000.0 -9.996360000e-01 -6.779000000e-03
991000000.0 -1.003594000e+00 -7.853000000e-03
1000000000.0 -1.001629000e+00 -8.341000000e-03
1004500000.0 -1.001368000e+00 -7.738000000e-03
1009000000.0 -1.003326000e+00 -1.141400000e-02
1013500000.0 -1.003705000e+00 -8.147000000e-03
1018000000.0 -1.000427000e+00 -7.229000000e-03
1022500000.0 -1.001861000e+00 -6.076000000e-03
1027000000.0 -1.001063000e+00 -7.748000000e-03
1031500000.0 -9.992880000e-01 -3.490000000e-03
1036000000.0 -1.001234000e+00 -2.691000000e-03
1040500000.0 -9.996190000e-01 -6.772000000e-03
1045000000.0 -1.003770000e+00 -8.165000000e-03
1049500000.0 -1.000662000e+00 -4.971000000e-03
1054000000.0 -9.990040000e-01 -8.229000000e-03
1058500000.0 -1.000431000e+00 -6.963000000e-03
1063000000.0 -1.001321000e+00 -8.174000000e-03
1067500000.0 -1.003885000e+00 -8.727000000e-03
1072000000.0 -1.001086000e+00 -8.717000000e-03
1076500000.0 -1.008747000e+00 -1.081000000e-02
1081000000.0 -1.008479000e+00 -1.225600000e-02
1085500000.0 -1.007745000e+00 -2.746900000e-02
1090000000.0 -1.008369000e+00 -1.528200000e-02
1094500000.0 -1.000675000e+00 5.791000000e-03
1099000000.0 -1.002274000e+00 -7.791000000e-03
1103500000.0 -1.007380000e+00 -2.999200000e-02
1108000000.0 -1.006992000e+00 -7.776000000e-03
1112500000.0 -1.003767000e+00 -6.980000000e-04
1117000000.0 -1.002103000e+00 -1.540600000e-02
1121500000.0 -1.007032000e+00 -1.101400000e-02
1126000000.0 -9.826060000e-01 4.234200000e-02
1130500000.0 -1.010689000e+00 -1.210900000e-02
1135000000.0 -1.005746000e+00 -6.252000000e-03
1139500000.0 -1.003996000e+00 1.288000000e-03
1144000000.0 -1.010887000e+00 -1.082700000e-02
1148500000.0 -1.008245000e+00 -1.507800000e-02
1153000000.0 -1.008126000e+00 -8.137000000e-03
1157500000.0 -1.008620000e+00 -9.945000000e-03
1162000000.0 -1.005983000e+00 -1.056200000e-02
1166500000.0 -1.006655000e+00 -5.854000000e-03
1171000000.0 -1.000229000e+00 -7.604000000e-03
1175500000.0 -9.987880000e-01 -4.665000000e-03
1180000000.0 -9.985020000e-01 -4.198000000e-03
1184500000.0 -1.001307000e+00 -8.452000000e-03
1189000000.0 -9.992470000e-01 -1.064200000e-02
1193500000.0 -9.996670000e-01 -3.250000000e-03
1198000000.0 -9.968460000e-01 -2.834000000e-03
1202500000.0 -9.994190000e-01 2.730000000e-03
1207000000.0 -9.987930000e-01 -2.403000000e-03
1211500000.0 -1.000782000e+00 -9.144000000e-03
1216000000.0 -1.003772000e+00 -2.751000000e-03
1220500000.0 -1.001008000e+00 -3.668000000e-03
1225000000.0 -1.003131000e+00 1.277000000e-03
1229500000.0 -1.006356000e+00 -8.831000000e-03
1234000000.0 -1.001848000e+00 -7.768000000e-03
1238500000.0 -1.001047000e+00 -1.041400000e-02
1243000000.0 -1.001114000e+00 -5.046000000e-03
1247500000.0 -1.006599000e+00 -5.757000000e-03
1252000000.0 -1.002782000e+00 -9.184000000e-03
1256500000.0 -1.005821000e+00 -6.336000000e-03
1261000000.0 -1.006042000e+00 -6.086000000e-03
1265500000.0 -1.011831000e+00 -1.385000000e-03
1270000000.0 -1.006950000e+00 -5.956000000e-03
1274500000.0 -1.003817000e+00 -1.331600000e-02
1279000000.0 -1.002994000e+00 -7.953000000e-03
1283500000.0 -1.007634000e+00 -1.147900000e-02
1288000000.0 -1.002524000e+00 -1.183200000e-02
1292500000.0 -1.004394000e+00 -8.047000000e-03
1297000000.0 -1.003295000e+00 1.231000000e-03
1301500000.0 -1.007509000e+00 8.180000000e-04
1306000000.0 -1.002077000e+00 -4.100000000e-03
1310500000.0 -9.969150000e-01 -5.157000000e-03
1315000000.0 -9.998390000e-01 -1.430000000e-04
1319500000.0 -9.989100000e-01 -5.103000000e-03
1324000000.0 -9.981180000e-01 3.680000000e-04
1328500000.0 -1.001751000e+00 7.080000000e-04
1333000000.0 -9.938590000e-01 -9.133000000e-03
1337500000.0 -9.933070000e-01 -5.453000000e-03
1342000000.0 -9.943030000e-01 -6.862000000e-03
1346500000.0 -9.971320000e-01 4.963000000e-03
1351000000.0 -9.909250000e-01 -3.781000000e-03
1355500000.0 -9.936640000e-01 -5.933000000e-03
1360000000.0 -9.968620000e-01 -1.205000000e-03
1364500000.0 -9.970920000e-01 -4.833000000e-03
1369000000.0 -1.005798000e+00 -8.054000000e-03
1373500000.0 -1.003445000e+00 -8.778000000e-03
1378000000.0 -9.986480000e-01 -1.144700000e-02
1382500000.0 -1.005694000e+00 1.537000000e-03
1387000000.0 -1.007384000e+00 4.707000000e-03
1391500000.0 -1.001911000e+00 1.053000000e-02
1396000000.0 -1.004943000e+00 -4.162000000e-03
1400500000.0 -1.010514000e+00 -1.979000000e-03
1405000000.0 -1.014504000e+00 -1.251900000e-02
1409500000.0 -1.007660000e+00 -9.227000000e-03
1414000000.0 -1.011692000e+00 1.390000000e-03
1418500000.0 -1.011778000e+00 -5.801000000e-03
1423000000.0 -1.010243000e+00 -9.853000000e-03
1427500000.0 -1.016390000e+00 -1.845400000e-02
1432000000.0 -1.013154000e+00 -7.104000000e-03
1436500000.0 -1.013077000e+00 -7.912000000e-03
1441000000.0 -1.006618000e+00 -1.146900000e-02
1445500000.0 -1.009509000e+00 -6.497000000e-03
1450000000.0 -1.011765000e+00 -4.718000000e-03
