! piloto_deriva / corto_deriva / r61
# HZ S RI R 50
50000.0 -9.992030000e-01 -3.729500000e-02
59500.0 -9.941160000e-01 -1.751700000e-02
69000.0 -9.980180000e-01 -9.053000000e-03
78500.0 -9.985390000e-01 -1.554000000e-03
88000.0 -9.990150000e-01 1.102000000e-03
97500.0 -9.994020000e-01 1.800000000e-05
107000.0 -9.996450000e-01 -2.858000000e-03
116500.0 -9.993610000e-01 -5.639000000e-03
126000.0 -1.000993000e+00 -1.112800000e-02
135500.0 -1.000199000e+00 -1.678300000e-02
145000.0 -1.000321000e+00 -2.281400000e-02
154500.0 -9.997050000e-01 -2.940800000e-02
164000.0 -9.997160000e-01 -3.662400000e-02
173500.0 -1.000393000e+00 -4.464600000e-02
183000.0 -9.996550000e-01 -5.220600000e-02
192500.0 -1.000751000e+00 -6.016700000e-02
202000.0 -9.997810000e-01 -6.966300000e-02
211500.0 -1.000520000e+00 -7.690500000e-02
221000.0 -1.000647000e+00 -8.689200000e-02
230500.0 -1.001142000e+00 -9.555000000e-02
240000.0 -1.000697000e+00 -1.045580000e-01
249500.0 -1.000930000e+00 -1.133280000e-01
259000.0 -1.001636000e+00 -1.226020000e-01
268500.0 -1.000938000e+00 -1.319610000e-01
278000.0 -1.002313000e+00 -1.405140000e-01
287500.0 -1.001312000e+00 -1.499660000e-01
297000.0 -1.002068000e+00 -1.600580000e-01
306500.0 -1.002318000e+00 -1.691150000e-01
316000.0 -1.002387000e+00 -1.789650000e-01
325500.0 -1.001719000e+00 -1.882630000e-01
335000.0 -1.003190000e+00 -1.970750000e-01
344500.0 -1.003321000e+00 -2.060560000e-01
354000.0 -1.004921000e+00 -1.972570000e-01
363500.0 -1.001024000e+00 -2.434420000e-01
373000.0 -1.005930000e+00 -2.152990000e-01
382500.0 -1.001705000e+00 -2.621390000e-01
392000.0 -1.006871000e+00 -2.348780000e-01
401500.0 -1.001399000e+00 -2.810420000e-01
411000.0 -1.008221000e+00 -2.527740000e-01
420500.0 -9.909970000e-01 -2.828850000e-01
430000.0 -1.005060000e+00 -2.908200000e-01
439500.0 -1.005319000e+00 -2.998290000e-01
449000.0 -1.006302000e+00 -3.095320000e-01
458500.0 -1.005557000e+00 -3.185940000e-01
468000.0 -1.006382000e+00 -3.276460000e-01
477500.0 -1.006465000e+00 -3.366890000e-01
487000.0 -1.006777000e+00 -3.465140000e-01
496500.0 -1.007538000e+00 -3.564660000e-01
506000.0 -1.007611000e+00 -3.641520000e-01
515500.0 -1.007907000e+00 -3.749580000e-01
525000.0 -1.007676000e+00 -3.827080000e-01
534500.0 -1.007687000e+00 -3.925840000e-01
544000.0 -1.009247000e+00 -4.025880000e-01
553500.0 -1.009764000e+00 -4.113430000e-01
563000.0 -1.008490000e+00 -4.204710000e-01
572500.0 -1.010537000e+00 -4.290950000e-01
582000.0 -1.010257000e+00 -4.387110000e-01
591500.0 -1.011912000e+00 -4.481840000e-01
601000.0 -1.011218000e+00 -4.574140000e-01
610500.0 -1.010822000e+00 -4.667830000e-01
620000.0 -1.013083000e+00 -4.750840000e-01
629500.0 -1.012584000e+00 -4.849730000e-01
639000.0 -1.012016000e+00 -4.936700000e-01
648500.0 -1.014206000e+00 -5.023920000e-01
658000.0 -1.016232000e+00 -5.109440000e-01
667500.0 -1.015615000e+00 -5.208890000e-01
677000.0 -1.016539000e+00 -5.309480000e-01
686500.0 -1.016472000e+00 -5.390910000e-01
696000.0 -1.016296000e+00 -5.472070000e-01
705500.0 -1.017587000e+00 -5.563450000e-01
715000.0 -1.018874000e+00 -5.646890000e-01
724500.0 -1.019455000e+00 -5.748840000e-01
734000.0 -1.019727000e+00 -5.838800000e-01
743500.0 -1.022253000e+00 -5.931180000e-01
753000.0 -1.023399000e+00 -6.018730000e-01
762500.0 -1.023715000e+00 -6.107830000e-01
772000.0 -1.024663000e+00 -6.188990000e-01
781500.0 -1.025524000e+00 -6.283990000e-01
791000.0 -1.027914000e+00 -6.374900000e-01
800500.0 -1.028422000e+00 -6.480010000e-01
810000.0 -1.028969000e+00 -6.549100000e-01
819500.0 -1.031339000e+00 -6.639030000e-01
829000.0 -1.031962000e+00 -6.728490000e-01
838500.0 -1.034691000e+00 -6.807390000e-01
848000.0 -1.034427000e+00 -6.902220000e-01
857500.0 -1.036684000e+00 -6.999300000e-01
867000.0 -1.039392000e+00 -7.067550000e-01
876500.0 -1.039783000e+00 -7.156390000e-01
886000.0 -1.043202000e+00 -7.249140000e-01
895500.0 -1.043576000e+00 -7.348900000e-01
905000.0 -1.045233000e+00 -7.420090000e-01
914500.0 -1.048133000e+00 -7.517230000e-01
924000.0 -1.049439000e+00 -7.595120000e-01
933500.0 -1.052862000e+00 -7.674150000e-01
943000.0 -1.053744000e+00 -7.770090000e-01
952500.0 -1.056466000e+00 -7.844180000e-01
962000.0 -1.058607000e+00 -7.928180000e-01
971500.0 -1.061516000e+00 -8.027060000e-01
981000.0 -1.063964000e+00 -8.092460000e-01
990500.0 -1.067642000e+00 -8.194020000e-01
1000000.0 -1.069305000e+00 -8.280870000e-01
1090000.0 -1.099376000e+00 -9.045550000e-01
1180000.0 -1.135698000e+00 -9.803440000e-01
1270000.0 -1.184283000e+00 -1.048986000e+00
1360000.0 -1.242130000e+00 -1.107826000e+00
1450000.0 -1.311411000e+00 -1.156264000e+00
1540000.0 -1.391603000e+00 -1.196061000e+00
1630000.0 -1.475885000e+00 -1.209277000e+00
1720000.0 -1.569656000e+00 -1.208878000e+00
1810000.0 -1.658352000e+00 -1.184087000e+00
1900000.0 -1.738721000e+00 -1.141562000e+00
1990000.0 -1.810493000e+00 -1.076318000e+00
2080000.0 -1.867028000e+00 -9.951650000e-01
2170000.0 -1.899611000e+00 -9.063920000e-01
2260000.0 -1.916481000e+00 -8.150210000e-01
2350000.0 -1.916261000e+00 -7.256760000e-01
2440000.0 -1.898970000e+00 -6.378490000e-01
2530000.0 -1.870545000e+00 -5.608860000e-01
2620000.0 -1.837233000e+00 -4.955840000e-01
2710000.0 -1.798454000e+00 -4.345380000e-01
2800000.0 -1.756025000e+00 -3.843990000e-01
2890000.0 -1.713691000e+00 -3.375060000e-01
2980000.0 -1.669036000e+00 -3.008960000e-01
3070000.0 -1.627907000e+00 -2.699800000e-01
3160000.0 -1.590648000e+00 -2.393920000e-01
3250000.0 -1.554940000e+00 -2.139050000e-01
3340000.0 -1.519738000e+00 -1.920160000e-01
3430000.0 -1.486892000e+00 -1.720590000e-01
3520000.0 -1.456301000e+00 -1.536100000e-01
3610000.0 -1.426844000e+00 -1.385150000e-01
3700000.0 -1.400531000e+00 -1.222840000e-01
3790000.0 -1.376030000e+00 -1.070420000e-01
3880000.0 -1.354475000e+00 -9.296700000e-02
3970000.0 -1.332589000e+00 -7.901600000e-02
4060000.0 -1.312833000e+00 -6.617000000e-02
4150000.0 -1.294681000e+00 -5.443200000e-02
4240000.0 -1.278196000e+00 -4.214300000e-02
4330000.0 -1.261560000e+00 -2.978300000e-02
4420000.0 -1.248692000e+00 -1.997100000e-02
4510000.0 -1.234737000e+00 -7.493000000e-03
4600000.0 -1.223288000e+00 2.621000000e-03
4690000.0 -1.211733000e+00 1.474100000e-02
4780000.0 -1.202731000e+00 2.695600000e-02
4870000.0 -1.194426000e+00 3.771400000e-02
4960000.0 -1.187202000e+00 4.779900000e-02
5050000.0 -1.171892000e+00 5.757800000e-02
5140000.0 -1.166797000e+00 7.028800000e-02
5230000.0 -1.161977000e+00 7.916900000e-02
5320000.0 -1.155437000e+00 9.068300000e-02
5410000.0 -1.151883000e+00 1.011470000e-01
5500000.0 -1.147930000e+00 1.116440000e-01
5590000.0 -1.142671000e+00 1.207410000e-01
5680000.0 -1.139482000e+00 1.305430000e-01
5770000.0 -1.136304000e+00 1.404910000e-01
5860000.0 -1.131370000e+00 1.505470000e-01
5950000.0 -1.128796000e+00 1.598100000e-01
6040000.0 -1.125437000e+00 1.674900000e-01
6130000.0 -1.117238000e+00 1.955570000e-01
6220000.0 -1.123683000e+00 1.652210000e-01
6310000.0 -1.111026000e+00 2.114200000e-01
6400000.0 -1.119509000e+00 1.793460000e-01
6490000.0 -1.106167000e+00 2.253510000e-01
6580000.0 -1.117431000e+00 1.932910000e-01
6670000.0 -1.103380000e+00 2.369990000e-01
6760000.0 -1.113024000e+00 2.034910000e-01
6850000.0 -1.099164000e+00 2.469680000e-01
6940000.0 -1.104341000e+00 2.323140000e-01
7030000.0 -1.103173000e+00 2.367850000e-01
7120000.0 -1.102481000e+00 2.381070000e-01
7210000.0 -1.102616000e+00 2.398560000e-01
7300000.0 -1.101838000e+00 2.421900000e-01
7390000.0 -1.101882000e+00 2.421660000e-01
7480000.0 -1.101617000e+00 2.429210000e-01
7570000.0 1.966650000e-01 1.072870000e+00
7660000.0 1.940650000e-01 1.073800000e+00
7750000.0 1.933970000e-01 1.074144000e+00
7840000.0 1.936080000e-01 1.074258000e+00
7930000.0 1.923830000e-01 1.074133000e+00
8020000.0 1.916840000e-01 1.075242000e+00
8110000.0 1.907860000e-01 1.075544000e+00
8200000.0 1.904630000e-01 1.076126000e+00
8290000.0 1.889030000e-01 1.076416000e+00
8380000.0 1.887820000e-01 1.077407000e+00
8470000.0 1.874750000e-01 1.077491000e+00
8560000.0 1.865010000e-01 1.078208000e+00
8650000.0 1.864370000e-01 1.078795000e+00
8740000.0 1.859680000e-01 1.079576000e+00
8830000.0 1.852340000e-01 1.078829000e+00
8920000.0 1.843790000e-01 1.079759000e+00
9010000.0 1.834930000e-01 1.080285000e+00
9100000.0 1.837500000e-01 1.081359000e+00
9190000.0 1.814220000e-01 1.080808000e+00
9280000.0 1.806020000e-01 1.081756000e+00
9370000.0 1.801160000e-01 1.083201000e+00
9460000.0 1.797330000e-01 1.083590000e+00
9550000.0 1.803060000e-01 1.083979000e+00
9640000.0 1.792100000e-01 1.084722000e+00
9730000.0 1.774900000e-01 1.085476000e+00
9820000.0 1.782220000e-01 1.085461000e+00
9910000.0 1.773120000e-01 1.087128000e+00
10000000.0 1.764000000e-01 1.088005000e+00
10900000.0 1.694940000e-01 1.093247000e+00
11800000.0 1.633360000e-01 1.102198000e+00
12700000.0 1.569600000e-01 1.109410000e+00
13600000.0 1.507590000e-01 1.117521000e+00
14500000.0 1.442330000e-01 1.126754000e+00
15400000.0 1.373280000e-01 1.136171000e+00
16300000.0 1.311820000e-01 1.145398000e+00
17200000.0 1.242250000e-01 1.154758000e+00
18100000.0 1.166620000e-01 1.162896000e+00
19000000.0 1.104030000e-01 1.172703000e+00
19900000.0 1.018880000e-01 1.182358000e+00
20800000.0 9.291500000e-02 1.192367000e+00
21700000.0 8.426200000e-02 1.202056000e+00
22600000.0 7.584500000e-02 1.210882000e+00
23500000.0 6.541500000e-02 1.220624000e+00
24400000.0 5.716700000e-02 1.232075000e+00
25300000.0 4.607800000e-02 1.240769000e+00
26200000.0 3.769200000e-02 1.251907000e+00
27100000.0 2.590000000e-02 1.260942000e+00
28000000.0 1.317100000e-02 1.272215000e+00
28900000.0 3.346000000e-03 1.282591000e+00
29800000.0 -9.437000000e-03 1.292660000e+00
30700000.0 -2.121800000e-02 1.301175000e+00
31600000.0 -3.421500000e-02 1.312488000e+00
32500000.0 -4.834000000e-02 1.322492000e+00
33400000.0 -6.148200000e-02 1.332130000e+00
34300000.0 -7.569200000e-02 1.341304000e+00
35200000.0 -9.081000000e-02 1.351368000e+00
36100000.0 -1.060960000e-01 1.360353000e+00
37000000.0 -1.225840000e-01 1.369440000e+00
37900000.0 -1.364320000e-01 1.380194000e+00
38800000.0 -1.543500000e-01 1.387051000e+00
39700000.0 -1.716370000e-01 1.397575000e+00
40600000.0 -1.884170000e-01 1.404160000e+00
41500000.0 -2.063520000e-01 1.413269000e+00
42400000.0 -2.251660000e-01 1.420616000e+00
43300000.0 -2.443190000e-01 1.427680000e+00
44200000.0 -2.638500000e-01 1.434703000e+00
45100000.0 -2.821300000e-01 1.442055000e+00
46000000.0 -3.031750000e-01 1.448353000e+00
46900000.0 -3.235930000e-01 1.452706000e+00
47800000.0 -3.451580000e-01 1.458794000e+00
48700000.0 -3.664270000e-01 1.463603000e+00
49600000.0 -3.885760000e-01 1.467200000e+00
50500000.0 -4.091110000e-01 1.470545000e+00
51400000.0 -4.312400000e-01 1.474605000e+00
52300000.0 -4.549820000e-01 1.477017000e+00
53200000.0 -4.766420000e-01 1.479540000e+00
54100000.0 -5.014430000e-01 1.481168000e+00
55000000.0 -5.229770000e-01 1.482388000e+00
55900000.0 -5.460640000e-01 1.480710000e+00
56800000.0 -5.704710000e-01 1.482017000e+00
57700000.0 -5.949600000e-01 1.479751000e+00
58600000.0 -6.187800000e-01 1.477788000e+00
59500000.0 -6.436720000e-01 1.475083000e+00
60400000.0 -6.676820000e-01 1.471990000e+00
61300000.0 -6.926350000e-01 1.467229000e+00
62200000.0 -7.157680000e-01 1.462615000e+00
63100000.0 -7.385320000e-01 1.457912000e+00
64000000.0 -7.651690000e-01 1.450314000e+00
64900000.0 -7.884690000e-01 1.442728000e+00
65800000.0 -8.122920000e-01 1.435471000e+00
66700000.0 -8.366910000e-01 1.428159000e+00
67600000.0 -8.594170000e-01 1.418434000e+00
68500000.0 -8.836790000e-01 1.408100000e+00
69400000.0 -9.089720000e-01 1.396955000e+00
70300000.0 -9.293970000e-01 1.387459000e+00
71200000.0 -9.534910000e-01 1.374155000e+00
72100000.0 -9.750550000e-01 1.361868000e+00
73000000.0 -9.977720000e-01 1.348238000e+00
73900000.0 -1.017388000e+00 1.333847000e+00
74800000.0 -1.039000000e+00 1.319125000e+00
75700000.0 -1.061812000e+00 1.304067000e+00
76600000.0 -1.081556000e+00 1.287342000e+00
77500000.0 -1.101872000e+00 1.271803000e+00
78400000.0 -1.119321000e+00 1.254872000e+00
79300000.0 -1.140094000e+00 1.237548000e+00
80200000.0 -1.156176000e+00 1.218971000e+00
81100000.0 -1.175999000e+00 1.201175000e+00
82000000.0 -1.192960000e+00 1.181292000e+00
82900000.0 -1.209243000e+00 1.162140000e+00
83800000.0 -1.225861000e+00 1.142242000e+00
84700000.0 -1.241106000e+00 1.121132000e+00
85600000.0 -1.255320000e+00 1.101087000e+00
86500000.0 -1.270203000e+00 1.078950000e+00
87400000.0 -1.281955000e+00 1.058172000e+00
88300000.0 -1.295704000e+00 1.035338000e+00
89200000.0 -1.305728000e+00 1.013005000e+00
90100000.0 -1.317819000e+00 9.922290000e-01
91000000.0 -1.328993000e+00 9.702860000e-01
91900000.0 -1.338586000e+00 9.466740000e-01
92800000.0 -1.346279000e+00 9.223390000e-01
93700000.0 -1.355213000e+00 8.997440000e-01
94600000.0 -1.360733000e+00 8.763100000e-01
95500000.0 -1.370713000e+00 8.538390000e-01
96400000.0 -1.374349000e+00 8.309030000e-01
97300000.0 -1.379519000e+00 8.070340000e-01
98200000.0 -1.384997000e+00 7.839620000e-01
99100000.0 -1.386820000e+00 7.607840000e-01
100000000.0 -1.391252000e+00 7.391300000e-01
109000000.0 -1.386001000e+00 5.215390000e-01
118000000.0 -1.331697000e+00 3.393630000e-01
127000000.0 -1.249870000e+00 1.980480000e-01
136000000.0 -1.134635000e+00 1.003820000e-01
145000000.0 -1.046464000e+00 2.984500000e-02
154000000.0 -1.000794000e+00 -1.730000000e-03
163000000.0 -1.001685000e+00 -3.192000000e-03
172000000.0 -1.005601000e+00 -5.504000000e-03
181000000.0 -1.006861000e+00 -8.181000000e-03
190000000.0 -1.008114000e+00 -9.944000000e-03
199000000.0 -1.008681000e+00 -1.080600000e-02
208000000.0 -1.009062000e+00 -1.103000000e-02
217000000.0 -1.009890000e+00 -1.223800000e-02
226000000.0 -1.009258000e+00 -1.220600000e-02
235000000.0 -1.010895000e+00 -1.124400000e-02
244000000.0 -1.009758000e+00 -1.073000000e-02
253000000.0 -1.009062000e+00 -9.926000000e-03
262000000.0 -1.007854000e+00 -9.827000000e-03
271000000.0 -1.006761000e+00 -7.035000000e-03
280000000.0 -1.004820000e+00 -6.573000000e-03
289000000.0 -1.001920000e+00 -3.878000000e-03
298000000.0 -9.998760000e-01 -1.524000000e-03
307000000.0 -1.002421000e+00 -1.003000000e-03
316000000.0 -1.006120000e+00 -8.420000000e-04
325000000.0 -1.008557000e+00 -2.658000000e-03
334000000.0 -1.011199000e+00 -2.049000000e-03
343000000.0 -1.012033000e+00 -2.798000000e-03
352000000.0 -1.013956000e+00 -2.415000000e-03
361000000.0 -1.002322000e+00 4.880700000e-02
370000000.0 -1.015882000e+00 -3.315000000e-03
379000000.0 -1.015514000e+00 -4.237000000e-03
388000000.0 -1.013533000e+00 -3.340000000e-03
397000000.0 -1.013526000e+00 -3.548000000e-03
406000000.0 -1.011734000e+00 -1.994000000e-03
415000000.0 -1.019013000e+00 -3.809200000e-02
424000000.0 -1.009664000e+00 -1.650000000e-03
433000000.0 -1.006734000e+00 -2.388000000e-03
442000000.0 -1.002074000e+00 -2.019000000e-03
451000000.0 -1.001113000e+00 1.035000000e-03
460000000.0 -1.005021000e+00 -6.180000000e-04
469000000.0 -1.007139000e+00 1.967000000e-03
478000000.0 -1.010355000e+00 3.050000000e-03
487000000.0 -1.013053000e+00 2.176000000e-03
496000000.0 -1.014121000e+00 2.536000000e-03
505000000.0 -1.015220000e+00 1.450000000e-03
514000000.0 -1.016368000e+00 5.139000000e-03
523000000.0 -1.017065000e+00 1.218000000e-03
532000000.0 -1.017454000e+00 2.567000000e-03
541000000.0 -1.017544000e+00 2.523000000e-03
550000000.0 -1.014331000e+00 1.893000000e-03
559000000.0 -1.010852000e+00 1.756000000e-03
568000000.0 -1.012035000e+00 -4.080000000e-04
577000000.0 -1.007941000e+00 5.030000000e-04
586000000.0 -1.004652000e+00 4.043000000e-03
595000000.0 -1.000650000e+00 1.133000000e-03
604000000.0 -1.000630000e+00 3.850000000e-04
613000000.0 -1.003147000e+00 9.160000000e-04
622000000.0 -1.005291000e+00 6.173000000e-03
631000000.0 -1.003387000e+00 8.445000000e-03
640000000.0 -1.009470000e+00 9.929000000e-03
649000000.0 -1.012020000e+00 1.129200000e-02
658000000.0 -1.006937000e+00 1.511600000e-02
667000000.0 -1.012240000e+00 1.177400000e-02
676000000.0 -1.010346000e+00 1.578700000e-02
685000000.0 -1.007639000e+00 9.358000000e-03
694000000.0 -1.008317000e+00 9.650000000e-03
703000000.0 -1.013003000e+00 1.372700000e-02
712000000.0 -1.014013000e+00 6.568000000e-03
721000000.0 -1.008389000e+00 1.092000000e-02
730000000.0 -1.004379000e+00 8.536000000e-03
739000000.0 -1.002867000e+00 3.356000000e-03
748000000.0 -9.998760000e-01 -6.930000000e-04
757000000.0 -1.001024000e+00 4.535000000e-03
766000000.0 -1.001413000e+00 4.559000000e-03
775000000.0 -1.001291000e+00 6.273000000e-03
784000000.0 -1.001320000e+00 5.284000000e-03
793000000.0 -9.968650000e-01 7.856000000e-03
802000000.0 -9.989560000e-01 9.415000000e-03
811000000.0 -9.983590000e-01 5.422000000e-03
820000000.0 -9.983100000e-01 6.094000000e-03
829000000.0 -1.000042000e+00 8.162000000e-03
838000000.0 -9.976300000e-01 8.661000000e-03
847000000.0 -9.955520000e-01 8.024000000e-03
856000000.0 -9.978860000e-01 5.288000000e-03
865000000.0 -9.979880000e-01 7.801000000e-03
874000000.0 -9.958220000e-01 2.289000000e-03
883000000.0 -1.000044000e+00 2.835000000e-03
892000000.0 -9.967630000e-01 5.720000000e-04
901000000.0 -1.000349000e+00 -3.804000000e-03
910000000.0 -9.994290000e-01 1.726000000e-03
919000000.0 -1.000241000e+00 -1.088000000e-03
928000000.0 -9.969310000e-01 -2.549000000e-03
937000000.0 -9.995100000e-01 -5.446000000e-03
946000000.0 -9.998040000e-01 -4.621000000e-03
955000000.0 -1.003216000e+00 -6.600000000e-03
964000000.0 -1.001524000e+00 -1.085100000e-02
973000000.0 -9.991810000e-01 -6.357000000e-03
982000000.0 -1.001907000e+00 -5.009000000e-03
991000000.0 -1.000584000e+00 -5.406000000e-03
1000000000.0 -1.000883000e+00 -7.618000000e-03
1004500000.0 -1.002110000e+00 -1.158400000e-02
1009000000.0 -1.003969000e+00 -8.076000000e-03
1013500000.0 -1.002215000e+00 -8.091000000e-03
1018000000.0 -1.001809000e+00 -7.038000000e-03
1022500000.0 -9.995720000e-01 -5.224000000e-03
1027000000.0 -1.001712000e+00 -4.856000000e-03
1031500000.0 -1.001227000e+00 -6.480000000e-03
1036000000.0 -9.996950000e-01 -9.990000000e-03
1040500000.0 -1.000100000e+00 -4.440000000e-04
1045000000.0 -1.003133000e+00 -6.621000000e-03
1049500000.0 -9.988470000e-01 -2.250000000e-03
1054000000.0 -1.001991000e+00 -2.883000000e-03
1058500000.0 -1.001130000e+00 -4.479000000e-03
1063000000.0 -1.002281000e+00 -5.277000000e-03
1067500000.0 -1.004198000e+00 -1.157100000e-02
1072000000.0 -1.001926000e+00 -4.017000000e-03
1076500000.0 -1.002632000e+00 -5.583000000e-03
1081000000.0 -1.002201000e+00 -9.159000000e-03
1085500000.0 -1.008353000e+00 -7.179000000e-03
1090000000.0 -1.006226000e+00 -7.583000000e-03
1094500000.0 -1.011301000e+00 -5.735000000e-03
1099000000.0 -1.009962000e+00 -8.966000000e-03
1103500000.0 -1.004001000e+00 -9.463000000e-03
1108000000.0 -1.007316000e+00 -7.560000000e-03
1112500000.0 -1.004704000e+00 -6.862000000e-03
1117000000.0 -1.003997000e+00 -1.014600000e-02
1121500000.0 -1.007649000e+00 -7.155000000e-03
1126000000.0 -1.008248000e+00 -3.010300000e-02
1130500000.0 -1.016790000e+00 -5.108700000e-02
1135000000.0 -1.007274000e+00 -1.486600000e-02
1139500000.0 -1.005889000e+00 -1.274000000e-02
1144000000.0 -9.988580000e-01 6.976000000e-03
1148500000.0 -1.000918000e+00 6.915000000e-03
1153000000.0 -1.020821000e+00 -4.018300000e-02
1157500000.0 -1.002706000e+00 -3.750000000e-03
1162000000.0 -1.004997000e+00 -1.029700000e-02
1166500000.0 -9.990060000e-01 -8.417000000e-03
1171000000.0 -1.004134000e+00 -5.086000000e-03
1175500000.0 -1.001909000e+00 -8.984000000e-03
1180000000.0 -1.003729000e+00 -3.699000000e-03
1184500000.0 -9.998960000e-01 -3.563000000e-03
1189000000.0 -1.003247000e+00 -5.160000000e-03
1193500000.0 -1.000180000e+00 -1.008000000e-02
1198000000.0 -9.991240000e-01 2.930000000e-03
1202500000.0 -9.906470000e-01 -1.687000000e-03
1207000000.0 -9.975290000e-01 -8.517000000e-03
1211500000.0 -9.979600000e-01 -6.881000000e-03
1216000000.0 -1.002614000e+00 2.860000000e-04
1220500000.0 -1.000617000e+00 -5.073000000e-03
1225000000.0 -1.002048000e+00 5.815000000e-03
1229500000.0 -1.007317000e+00 -7.311000000e-03
1234000000.0 -1.004843000e+00 -5.321000000e-03
1238500000.0 -1.001356000e+00 9.860000000e-04
1243000000.0 -1.004120000e+00 -1.136200000e-02
1247500000.0 -1.006612000e+00 -4.420000000e-03
1252000000.0 -1.003620000e+00 -3.085000000e-03
1256500000.0 -1.003324000e+00 -1.015800000e-02
1261000000.0 -1.002215000e+00 -7.481000000e-03
1265500000.0 -1.002693000e+00 -1.605700000e-02
1270000000.0 -1.006294000e+00 -1.043000000e-03
1274500000.0 -1.005286000e+00 -1.898800000e-02
1279000000.0 -1.002452000e+00 2.690000000e-04
1283500000.0 -1.005519000e+00 -2.250000000e-03
1288000000.0 -1.006866000e+00 -9.509000000e-03
1292500000.0 -1.009146000e+00 3.635000000e-03
1297000000.0 -9.998910000e-01 -4.651000000e-03
1301500000.0 -1.004025000e+00 -6.433000000e-03
1306000000.0 -1.000082000e+00 -6.259000000e-03
1310500000.0 -9.981420000e-01 4.888000000e-03
1315000000.0 -9.980310000e-01 -2.984000000e-03
1319500000.0 -1.001050000e+00 -6.637000000e-03
1324000000.0 -1.003384000e+00 -2.480000000e-04
1328500000.0 -1.003666000e+00 -1.171700000e-02
1333000000.0 -9.994750000e-01 -1.309700000e-02
1337500000.0 -9.977550000e-01 -2.987000000e-03
1342000000.0 -9.989580000e-01 -1.063300000e-02
1346500000.0 -9.945290000e-01 2.208000000e-03
1351000000.0 -9.850670000e-01 -1.097000000e-03
1355500000.0 -9.914890000e-01 -5.711000000e-03
1360000000.0 -9.960200000e-01 3.432000000e-03
1364500000.0 -9.992430000e-01 -8.945000000e-03
1369000000.0 -1.000875000e+00 -5.594000000e-03
1373500000.0 -1.000099000e+00 -5.703000000e-03
1378000000.0 -1.005379000e+00 -7.711000000e-03
1382500000.0 -1.007941000e+00 1.370000000e-04
1387000000.0 -1.001283000e+00 -2.012000000e-03
1391500000.0 -1.005273000e+00 1.477000000e-03
1396000000.0 -1.002677000e+00 -7.491000000e-03
1400500000.0 -1.009294000e+00 -1.180000000e-03
1405000000.0 -1.008424000e+00 -1.036500000e-02
1409500000.0 -1.005504000e+00 -8.754000000e-03
1414000000.0 -1.007868000e+00 -1.025900000e-02
1418500000.0 -1.016728000e+00 -5.850000000e-03
1423000000.0 -1.016064000e+00 5.451000000e-03
1427500000.0 -1.008397000e+00 -1.265900000e-02
1432000000.0 -1.009411000e+00 1.337000000e-03
1436500000.0 -1.012142000e+00 -1.176000000e-03
1441000000.0 -1.010411000e+00 -1.166000000e-03
1445500000.0 -1.014408000e+00 -8.377000000e-03
1450000000.0 -1.012464000e+00 -1.253000000e-03
