! piloto_deriva / corto_deriva / r28
# HZ S RI R 50
50000.0 -9.962010000e-01 -3.522100000e-02
59500.0 -9.945450000e-01 -1.815900000e-02
69000.0 -9.984830000e-01 -3.416000000e-03
78500.0 -9.992720000e-01 -1.399000000e-03
88000.0 -9.993660000e-01 4.030000000e-04
97500.0 -9.988870000e-01 -7.900000000e-05
107000.0 -9.991000000e-01 -2.840000000e-03
116500.0 -9.999410000e-01 -5.335000000e-03
126000.0 -1.000299000e+00 -1.072200000e-02
135500.0 -9.999950000e-01 -1.637600000e-02
145000.0 -9.999290000e-01 -2.239600000e-02
154500.0 -1.000071000e+00 -2.857500000e-02
164000.0 -9.999000000e-01 -3.692100000e-02
173500.0 -9.997670000e-01 -4.418500000e-02
183000.0 -9.996610000e-01 -5.208700000e-02
192500.0 -9.997990000e-01 -6.067400000e-02
202000.0 -1.000243000e+00 -6.900100000e-02
211500.0 -1.000591000e+00 -7.779600000e-02
221000.0 -9.995190000e-01 -8.551900000e-02
230500.0 -1.000893000e+00 -9.529000000e-02
240000.0 -9.995080000e-01 -1.036290000e-01
249500.0 -1.000713000e+00 -1.136070000e-01
259000.0 -1.001743000e+00 -1.222040000e-01
268500.0 -1.001048000e+00 -1.316380000e-01
278000.0 -1.002187000e+00 -1.409350000e-01
287500.0 -1.001672000e+00 -1.500210000e-01
297000.0 -1.002610000e+00 -1.589630000e-01
306500.0 -1.002089000e+00 -1.690800000e-01
316000.0 -1.002130000e+00 -1.774850000e-01
325500.0 -1.002846000e+00 -1.871170000e-01
335000.0 -1.002625000e+00 -1.959310000e-01
344500.0 -1.002900000e+00 -2.063000000e-01
354000.0 -1.003409000e+00 -2.148250000e-01
363500.0 -1.003819000e+00 -2.245240000e-01
373000.0 -1.003491000e+00 -2.348650000e-01
382500.0 -1.004028000e+00 -2.433870000e-01
392000.0 -1.004338000e+00 -2.525770000e-01
401500.0 -1.004776000e+00 -2.618670000e-01
411000.0 -1.005018000e+00 -2.705980000e-01
420500.0 -1.005277000e+00 -2.807150000e-01
430000.0 -1.005441000e+00 -2.893140000e-01
439500.0 -1.004900000e+00 -2.993720000e-01
449000.0 -1.005706000e+00 -3.083900000e-01
458500.0 -1.005694000e+00 -3.174190000e-01
468000.0 -1.006283000e+00 -3.271450000e-01
477500.0 -1.006192000e+00 -3.366650000e-01
487000.0 -1.006249000e+00 -3.457560000e-01
496500.0 -1.007173000e+00 -3.552140000e-01
506000.0 -1.007707000e+00 -3.644350000e-01
515500.0 -1.007475000e+00 -3.733910000e-01
525000.0 -1.008238000e+00 -3.820640000e-01
534500.0 -1.007093000e+00 -3.920350000e-01
544000.0 -1.008383000e+00 -4.012740000e-01
553500.0 -1.008916000e+00 -4.098620000e-01
563000.0 -1.008531000e+00 -4.191490000e-01
572500.0 -1.009910000e+00 -4.293010000e-01
582000.0 -1.009735000e+00 -4.380900000e-01
591500.0 -1.011090000e+00 -4.474820000e-01
601000.0 -1.010626000e+00 -4.563200000e-01
610500.0 -1.011746000e+00 -4.648630000e-01
620000.0 -1.011692000e+00 -4.745090000e-01
629500.0 -1.011982000e+00 -4.836540000e-01
639000.0 -1.013165000e+00 -4.931910000e-01
648500.0 -1.013982000e+00 -5.026260000e-01
658000.0 -1.014092000e+00 -5.108560000e-01
667500.0 -1.014716000e+00 -5.202520000e-01
677000.0 -1.015828000e+00 -5.282960000e-01
686500.0 -1.017194000e+00 -5.374540000e-01
696000.0 -1.016694000e+00 -5.465770000e-01
705500.0 -1.017623000e+00 -5.552890000e-01
715000.0 -1.018603000e+00 -5.637110000e-01
724500.0 -1.019653000e+00 -5.730220000e-01
734000.0 -1.020725000e+00 -5.819440000e-01
743500.0 -1.020138000e+00 -5.896570000e-01
753000.0 -1.022370000e+00 -6.003720000e-01
762500.0 -1.022979000e+00 -6.088760000e-01
772000.0 -1.025267000e+00 -6.195800000e-01
781500.0 -1.025618000e+00 -6.266470000e-01
791000.0 -1.027190000e+00 -6.351980000e-01
800500.0 -1.028161000e+00 -6.438620000e-01
810000.0 -1.028033000e+00 -6.521680000e-01
819500.0 -1.029918000e+00 -6.614420000e-01
829000.0 -1.031462000e+00 -6.710540000e-01
838500.0 -1.032777000e+00 -6.800940000e-01
848000.0 -1.033490000e+00 -6.898420000e-01
857500.0 -1.035982000e+00 -6.978510000e-01
867000.0 -1.038434000e+00 -7.068690000e-01
876500.0 -1.039783000e+00 -7.158130000e-01
886000.0 -1.042267000e+00 -7.237710000e-01
895500.0 -1.042266000e+00 -7.321980000e-01
905000.0 -1.045112000e+00 -7.398040000e-01
914500.0 -1.047050000e+00 -7.493110000e-01
924000.0 -1.047388000e+00 -7.573380000e-01
933500.0 -1.050386000e+00 -7.664640000e-01
943000.0 -1.053761000e+00 -7.744560000e-01
952500.0 -1.056531000e+00 -7.824240000e-01
962000.0 -1.057850000e+00 -7.925420000e-01
971500.0 -1.118506000e+00 -7.817100000e-01
981000.0 -1.062352000e+00 -8.079880000e-01
990500.0 -1.080309000e+00 -7.956430000e-01
1000000.0 -1.068224000e+00 -8.246890000e-01
1090000.0 -1.096954000e+00 -9.025390000e-01
1180000.0 -1.132637000e+00 -9.752950000e-01
1270000.0 -1.181346000e+00 -1.045641000e+00
1360000.0 -1.241127000e+00 -1.106348000e+00
1450000.0 -1.308425000e+00 -1.155900000e+00
1540000.0 -1.384820000e+00 -1.190081000e+00
1630000.0 -1.472509000e+00 -1.208958000e+00
1720000.0 -1.559588000e+00 -1.210499000e+00
1810000.0 -1.650361000e+00 -1.188445000e+00
1900000.0 -1.736870000e+00 -1.142905000e+00
1990000.0 -1.805007000e+00 -1.081170000e+00
2080000.0 -1.863716000e+00 -1.000786000e+00
2170000.0 -1.898879000e+00 -9.137330000e-01
2260000.0 -1.916325000e+00 -8.191140000e-01
2350000.0 -1.912508000e+00 -7.299660000e-01
2440000.0 -1.899185000e+00 -6.431250000e-01
2530000.0 -1.872336000e+00 -5.668460000e-01
2620000.0 -1.836859000e+00 -5.000970000e-01
2710000.0 -1.800363000e+00 -4.406900000e-01
2800000.0 -1.758467000e+00 -3.857370000e-01
2890000.0 -1.717224000e+00 -3.411830000e-01
2980000.0 -1.673323000e+00 -3.028020000e-01
3070000.0 -1.633687000e+00 -2.702640000e-01
3160000.0 -1.593174000e+00 -2.400410000e-01
3250000.0 -1.555105000e+00 -2.161380000e-01
3340000.0 -1.519028000e+00 -1.934250000e-01
3430000.0 -1.488789000e+00 -1.726650000e-01
3520000.0 -1.456296000e+00 -1.550440000e-01
3610000.0 -1.429627000e+00 -1.382020000e-01
3700000.0 -1.402146000e+00 -1.220430000e-01
3790000.0 -1.378025000e+00 -1.077340000e-01
3880000.0 -1.356587000e+00 -9.356500000e-02
3970000.0 -1.332325000e+00 -7.872600000e-02
4060000.0 -1.313457000e+00 -6.820800000e-02
4150000.0 -1.296909000e+00 -5.512500000e-02
4240000.0 -1.278681000e+00 -4.379000000e-02
4330000.0 -1.263141000e+00 -3.069000000e-02
4420000.0 -1.248739000e+00 -1.857500000e-02
4510000.0 -1.235265000e+00 -7.248000000e-03
4600000.0 -1.224806000e+00 3.343000000e-03
4690000.0 -1.214076000e+00 1.417800000e-02
4780000.0 -1.203543000e+00 2.619600000e-02
4870000.0 -1.196041000e+00 3.724800000e-02
4960000.0 -1.187826000e+00 4.829800000e-02
5050000.0 -1.172161000e+00 5.869800000e-02
5140000.0 -1.166092000e+00 6.934100000e-02
5230000.0 -1.162467000e+00 7.982500000e-02
5320000.0 -1.157023000e+00 9.060700000e-02
5410000.0 -1.152431000e+00 1.007420000e-01
5500000.0 -1.148031000e+00 1.101030000e-01
5590000.0 -1.143076000e+00 1.206410000e-01
5680000.0 -1.139392000e+00 1.306290000e-01
5770000.0 -1.134514000e+00 1.412450000e-01
5860000.0 -1.132212000e+00 1.494510000e-01
5950000.0 -1.128207000e+00 1.595460000e-01
6040000.0 -1.125070000e+00 1.680890000e-01
6130000.0 -1.122943000e+00 1.768780000e-01
6220000.0 -1.120363000e+00 1.849490000e-01
6310000.0 -1.117005000e+00 1.926780000e-01
6400000.0 -1.115079000e+00 2.007350000e-01
6490000.0 -1.113112000e+00 2.060700000e-01
6580000.0 -1.111065000e+00 2.128080000e-01
6670000.0 -1.108155000e+00 2.189020000e-01
6760000.0 -1.106906000e+00 2.244080000e-01
6850000.0 -1.106327000e+00 2.283550000e-01
6940000.0 -1.105236000e+00 2.322240000e-01
7030000.0 -1.103972000e+00 2.357620000e-01
7120000.0 -1.103877000e+00 2.384820000e-01
7210000.0 -1.101981000e+00 2.408750000e-01
7300000.0 -1.101865000e+00 2.422970000e-01
7390000.0 -1.102083000e+00 2.419160000e-01
7480000.0 -1.102228000e+00 2.422830000e-01
7570000.0 1.952700000e-01 1.072786000e+00
7660000.0 1.956480000e-01 1.073755000e+00
7750000.0 1.942500000e-01 1.074216000e+00
7840000.0 1.939410000e-01 1.075364000e+00
7930000.0 1.922220000e-01 1.074300000e+00
8020000.0 1.913490000e-01 1.075398000e+00
8110000.0 1.921850000e-01 1.076417000e+00
8200000.0 1.901720000e-01 1.075561000e+00
8290000.0 1.900340000e-01 1.076576000e+00
8380000.0 1.882810000e-01 1.077873000e+00
8470000.0 1.883720000e-01 1.077071000e+00
8560000.0 1.876810000e-01 1.078478000e+00
8650000.0 1.876850000e-01 1.079139000e+00
8740000.0 1.852620000e-01 1.078920000e+00
8830000.0 1.852760000e-01 1.080711000e+00
8920000.0 1.854030000e-01 1.080162000e+00
9010000.0 1.837830000e-01 1.080018000e+00
9100000.0 1.831350000e-01 1.081269000e+00
9190000.0 1.814510000e-01 1.081329000e+00
9280000.0 1.818750000e-01 1.081732000e+00
9370000.0 1.819610000e-01 1.082650000e+00
9460000.0 1.800030000e-01 1.083144000e+00
9550000.0 1.784770000e-01 1.084796000e+00
9640000.0 1.785640000e-01 1.083955000e+00
9730000.0 1.778930000e-01 1.086876000e+00
9820000.0 1.782540000e-01 1.085759000e+00
9910000.0 1.772570000e-01 1.086941000e+00
10000000.0 1.759150000e-01 1.087531000e+00
10900000.0 1.701060000e-01 1.093724000e+00
11800000.0 1.626930000e-01 1.101524000e+00
12700000.0 1.565610000e-01 1.109980000e+00
13600000.0 1.509170000e-01 1.118372000e+00
14500000.0 1.437710000e-01 1.127584000e+00
15400000.0 1.380220000e-01 1.135793000e+00
16300000.0 1.309290000e-01 1.144784000e+00
17200000.0 1.236260000e-01 1.154522000e+00
18100000.0 1.164850000e-01 1.163587000e+00
19000000.0 1.101760000e-01 1.172764000e+00
19900000.0 1.013840000e-01 1.183180000e+00
20800000.0 9.299100000e-02 1.192674000e+00
21700000.0 8.443900000e-02 1.201803000e+00
22600000.0 7.543600000e-02 1.211666000e+00
23500000.0 6.540500000e-02 1.222600000e+00
24400000.0 5.696800000e-02 1.231716000e+00
25300000.0 4.654700000e-02 1.242461000e+00
26200000.0 3.683200000e-02 1.252149000e+00
27100000.0 2.480600000e-02 1.261496000e+00
28000000.0 1.436400000e-02 1.271474000e+00
28900000.0 1.970000000e-03 1.282313000e+00
29800000.0 -9.425000000e-03 1.290789000e+00
30700000.0 -2.161500000e-02 1.301642000e+00
31600000.0 -3.497500000e-02 1.312951000e+00
32500000.0 -4.836600000e-02 1.322859000e+00
33400000.0 -6.256500000e-02 1.332205000e+00
34300000.0 -7.553100000e-02 1.340685000e+00
35200000.0 -9.255000000e-02 1.351839000e+00
36100000.0 -1.063960000e-01 1.360609000e+00
37000000.0 -1.208620000e-01 1.370026000e+00
37900000.0 -1.376370000e-01 1.378584000e+00
38800000.0 -1.534960000e-01 1.388090000e+00
39700000.0 -1.697130000e-01 1.395610000e+00
40600000.0 -1.889630000e-01 1.404687000e+00
41500000.0 -2.059580000e-01 1.412203000e+00
42400000.0 -2.240580000e-01 1.420302000e+00
43300000.0 -2.440370000e-01 1.428373000e+00
44200000.0 -2.624270000e-01 1.435942000e+00
45100000.0 -2.827940000e-01 1.441793000e+00
46000000.0 -3.027580000e-01 1.447480000e+00
46900000.0 -3.223960000e-01 1.454248000e+00
47800000.0 -3.443890000e-01 1.459589000e+00
48700000.0 -3.655960000e-01 1.462949000e+00
49600000.0 -3.861500000e-01 1.467599000e+00
50500000.0 -4.099390000e-01 1.472658000e+00
51400000.0 -4.311470000e-01 1.475434000e+00
52300000.0 -4.540860000e-01 1.476997000e+00
53200000.0 -4.770580000e-01 1.479335000e+00
54100000.0 -4.990380000e-01 1.481376000e+00
55000000.0 -5.231500000e-01 1.481093000e+00
55900000.0 -5.472240000e-01 1.482039000e+00
56800000.0 -5.692810000e-01 1.480191000e+00
57700000.0 -5.941680000e-01 1.480428000e+00
58600000.0 -6.194500000e-01 1.477088000e+00
59500000.0 -6.424680000e-01 1.476566000e+00
60400000.0 -6.666180000e-01 1.472308000e+00
61300000.0 -6.910690000e-01 1.467614000e+00
62200000.0 -7.156800000e-01 1.463063000e+00
63100000.0 -7.402630000e-01 1.456173000e+00
64000000.0 -7.661450000e-01 1.450481000e+00
64900000.0 -7.895590000e-01 1.444722000e+00
65800000.0 -8.128740000e-01 1.437517000e+00
66700000.0 -8.357200000e-01 1.427919000e+00
67600000.0 -8.593120000e-01 1.419608000e+00
68500000.0 -8.829430000e-01 1.408628000e+00
69400000.0 -9.080490000e-01 1.397522000e+00
70300000.0 -9.306310000e-01 1.386716000e+00
71200000.0 -9.533960000e-01 1.375017000e+00
72100000.0 -9.746910000e-01 1.361132000e+00
73000000.0 -9.974920000e-01 1.348200000e+00
73900000.0 -1.018490000e+00 1.335608000e+00
74800000.0 -1.039725000e+00 1.320535000e+00
75700000.0 -1.060375000e+00 1.303959000e+00
76600000.0 -1.082130000e+00 1.289885000e+00
77500000.0 -1.102104000e+00 1.270836000e+00
78400000.0 -1.119857000e+00 1.255327000e+00
79300000.0 -1.140321000e+00 1.237950000e+00
80200000.0 -1.157187000e+00 1.218791000e+00
81100000.0 -1.175520000e+00 1.200924000e+00
82000000.0 -1.192149000e+00 1.181848000e+00
82900000.0 -1.210699000e+00 1.162393000e+00
83800000.0 -1.225706000e+00 1.142111000e+00
84700000.0 -1.240849000e+00 1.120932000e+00
85600000.0 -1.255736000e+00 1.100341000e+00
86500000.0 -1.269452000e+00 1.079403000e+00
87400000.0 -1.283528000e+00 1.058210000e+00
88300000.0 -1.294236000e+00 1.036451000e+00
89200000.0 -1.307103000e+00 1.015016000e+00
90100000.0 -1.317707000e+00 9.918050000e-01
91000000.0 -1.327737000e+00 9.682390000e-01
91900000.0 -1.338353000e+00 9.458290000e-01
92800000.0 -1.346910000e+00 9.239470000e-01
93700000.0 -1.354171000e+00 8.989720000e-01
94600000.0 -1.361895000e+00 8.767900000e-01
95500000.0 -1.367893000e+00 8.540420000e-01
96400000.0 -1.376198000e+00 8.302830000e-01
97300000.0 -1.380019000e+00 8.072260000e-01
98200000.0 -1.382863000e+00 7.849580000e-01
99100000.0 -1.387685000e+00 7.610070000e-01
100000000.0 -1.391418000e+00 7.373700000e-01
109000000.0 -1.386861000e+00 5.214960000e-01
118000000.0 -1.332207000e+00 3.402760000e-01
127000000.0 -1.249064000e+00 1.999700000e-01
136000000.0 -1.135547000e+00 1.002190000e-01
145000000.0 -1.045978000e+00 2.972400000e-02
154000000.0 -9.996790000e-01 -1.405000000e-03
163000000.0 -1.002298000e+00 -4.310000000e-03
172000000.0 -1.004160000e+00 -5.493000000e-03
181000000.0 -1.005587000e+00 -8.149000000e-03
190000000.0 -1.007552000e+00 -9.041000000e-03
199000000.0 -1.008193000e+00 -1.021500000e-02
208000000.0 -1.009526000e+00 -1.082600000e-02
217000000.0 -1.010599000e+00 -1.137600000e-02
226000000.0 -1.010395000e+00 -1.111800000e-02
235000000.0 -1.011158000e+00 -1.352400000e-02
244000000.0 -1.010359000e+00 -1.120200000e-02
253000000.0 -1.009515000e+00 -8.050000000e-03
262000000.0 -1.007715000e+00 -8.121000000e-03
271000000.0 -1.007724000e+00 -6.716000000e-03
280000000.0 -1.004813000e+00 -4.209000000e-03
289000000.0 -1.003317000e+00 -3.357000000e-03
298000000.0 -1.000117000e+00 -5.300000000e-05
307000000.0 -1.002518000e+00 -1.554000000e-03
316000000.0 -1.005641000e+00 -6.680000000e-04
325000000.0 -1.007015000e+00 -1.473000000e-03
334000000.0 -1.009118000e+00 -3.148000000e-03
343000000.0 -1.013125000e+00 -3.431000000e-03
352000000.0 -1.003945000e+00 3.236100000e-02
361000000.0 -1.023881000e+00 -3.853700000e-02
370000000.0 -1.014795000e+00 -4.282000000e-03
379000000.0 -1.014606000e+00 -3.856000000e-03
388000000.0 -1.015245000e+00 -2.586000000e-03
397000000.0 -1.013695000e+00 -4.207000000e-03
406000000.0 -1.010592000e+00 1.458500000e-02
415000000.0 -1.010584000e+00 -4.617000000e-03
424000000.0 -1.008610000e+00 -2.682000000e-03
433000000.0 -1.005982000e+00 -2.355000000e-03
442000000.0 -1.003342000e+00 -9.660000000e-04
451000000.0 -1.000741000e+00 9.670000000e-04
460000000.0 -1.004858000e+00 1.454000000e-03
469000000.0 -1.008708000e+00 2.770000000e-04
478000000.0 -1.010661000e+00 5.070000000e-04
487000000.0 -1.012544000e+00 2.568000000e-03
496000000.0 -1.013908000e+00 2.083000000e-03
505000000.0 -1.017188000e+00 1.379000000e-03
514000000.0 -1.016924000e+00 2.718000000e-03
523000000.0 -1.017527000e+00 3.987000000e-03
532000000.0 -1.017638000e+00 3.253000000e-03
541000000.0 -1.015367000e+00 1.742000000e-03
550000000.0 -1.012961000e+00 2.554000000e-03
559000000.0 -1.011362000e+00 1.287000000e-03
568000000.0 -1.010194000e+00 1.933000000e-03
577000000.0 -1.009736000e+00 3.542000000e-03
586000000.0 -1.004728000e+00 1.161000000e-03
595000000.0 -1.001823000e+00 3.393000000e-03
604000000.0 -9.998070000e-01 8.660000000e-04
613000000.0 -1.005711000e+00 1.264000000e-03
622000000.0 -1.005163000e+00 6.957000000e-03
631000000.0 -1.011516000e+00 7.644000000e-03
640000000.0 -1.009589000e+00 9.362000000e-03
649000000.0 -1.008985000e+00 1.228700000e-02
658000000.0 -1.011466000e+00 1.169000000e-02
667000000.0 -1.007692000e+00 1.104000000e-02
676000000.0 -1.011735000e+00 1.517500000e-02
685000000.0 -1.011462000e+00 1.015200000e-02
694000000.0 -1.007140000e+00 1.214200000e-02
703000000.0 -1.011286000e+00 1.122900000e-02
712000000.0 -1.009552000e+00 1.038700000e-02
721000000.0 -1.005675000e+00 2.640000000e-03
730000000.0 -1.002827000e+00 8.413000000e-03
739000000.0 -1.002228000e+00 3.758000000e-03
748000000.0 -9.980540000e-01 -1.220000000e-03
757000000.0 -9.975790000e-01 3.273000000e-03
766000000.0 -1.000228000e+00 2.275000000e-03
775000000.0 -9.994220000e-01 6.239000000e-03
784000000.0 -1.000931000e+00 3.603000000e-03
793000000.0 -9.982680000e-01 1.128900000e-02
802000000.0 -9.974290000e-01 8.016000000e-03
811000000.0 -9.967130000e-01 5.349000000e-03
820000000.0 -9.965840000e-01 7.276000000e-03
829000000.0 -9.961620000e-01 6.957000000e-03
838000000.0 -9.977670000e-01 3.638000000e-03
847000000.0 -9.976590000e-01 8.601000000e-03
856000000.0 -1.000691000e+00 1.636000000e-03
865000000.0 -9.958870000e-01 1.410000000e-03
874000000.0 -9.987720000e-01 8.990000000e-04
883000000.0 -9.980300000e-01 1.808000000e-03
892000000.0 -9.946240000e-01 2.371000000e-03
901000000.0 -9.945440000e-01 9.310000000e-04
910000000.0 -9.987220000e-01 -3.080000000e-04
919000000.0 -9.976430000e-01 1.069400000e-02
928000000.0 -9.970620000e-01 -3.064000000e-03
937000000.0 -1.001157000e+00 -5.467000000e-03
946000000.0 -9.950630000e-01 6.719000000e-03
955000000.0 -1.002518000e+00 -9.247000000e-03
964000000.0 -1.001181000e+00 -1.036900000e-02
973000000.0 -1.004206000e+00 -2.389200000e-02
982000000.0 -1.003988000e+00 -7.839000000e-03
991000000.0 -9.990770000e-01 6.559000000e-03
1000000000.0 -1.001316000e+00 -9.017000000e-03
1004500000.0 -1.001652000e+00 -2.846000000e-03
1009000000.0 -1.002116000e+00 -9.083000000e-03
1013500000.0 -1.001852000e+00 -4.886000000e-03
1018000000.0 -1.003913000e+00 -1.054300000e-02
1022500000.0 -1.000223000e+00 -7.593000000e-03
1027000000.0 -1.004190000e+00 -4.713000000e-03
1031500000.0 -9.997800000e-01 -3.483000000e-03
1036000000.0 -1.003394000e+00 -1.346100000e-02
1040500000.0 -9.983240000e-01 -4.765000000e-03
1045000000.0 -1.001658000e+00 -1.269800000e-02
1049500000.0 -1.001508000e+00 -7.740000000e-03
1054000000.0 -1.000022000e+00 -1.343000000e-03
1058500000.0 -1.003267000e+00 -6.880000000e-03
1063000000.0 -1.003718000e+00 -1.008100000e-02
1067500000.0 -1.001457000e+00 -7.688000000e-03
1072000000.0 -1.004341000e+00 -1.142100000e-02
1076500000.0 -1.005160000e+00 -1.512900000e-02
1081000000.0 -1.004301000e+00 -8.503000000e-03
1085500000.0 -1.007247000e+00 -1.210800000e-02
1090000000.0 -1.003136000e+00 -9.576000000e-03
1094500000.0 -1.006175000e+00 -8.371000000e-03
1099000000.0 -1.003311000e+00 -1.034700000e-02
1103500000.0 -1.004177000e+00 -9.086000000e-03
1108000000.0 -1.005902000e+00 -1.289800000e-02
1112500000.0 -1.010988000e+00 -1.131200000e-02
1117000000.0 -1.002992000e+00 -1.099800000e-02
1121500000.0 -1.013657000e+00 -6.475300000e-02
1126000000.0 -1.004848000e+00 -8.034000000e-03
1130500000.0 -1.006361000e+00 -1.098200000e-02
1135000000.0 -1.009410000e+00 -1.494400000e-02
1139500000.0 -1.008778000e+00 -2.892500000e-02
1144000000.0 -1.006096000e+00 -6.931000000e-03
1148500000.0 -1.001086000e+00 1.807800000e-02
1153000000.0 -1.010457000e+00 -1.112600000e-02
1157500000.0 -1.002365000e+00 -1.188900000e-02
1162000000.0 -1.007131000e+00 -7.708000000e-03
1166500000.0 -1.004619000e+00 -7.461000000e-03
1171000000.0 -1.000267000e+00 -2.510000000e-03
1175500000.0 -1.001575000e+00 -8.952000000e-03
1180000000.0 -1.002769000e+00 -6.773000000e-03
1184500000.0 -1.000040000e+00 -1.273300000e-02
1189000000.0 -1.002294000e+00 -1.199600000e-02
1193500000.0 -9.981030000e-01 3.264000000e-03
1198000000.0 -9.977130000e-01 1.754000000e-03
1202500000.0 -9.986600000e-01 -3.669000000e-03
1207000000.0 -9.967300000e-01 -3.071000000e-03
1211500000.0 -1.000559000e+00 1.742000000e-03
1216000000.0 -9.989800000e-01 -3.330000000e-04
1220500000.0 -1.001430000e+00 -1.030100000e-02
1225000000.0 -1.003212000e+00 1.940000000e-04
1229500000.0 -1.000324000e+00 -5.729000000e-03
1234000000.0 -1.002948000e+00 -5.916000000e-03
1238500000.0 -1.003849000e+00 -3.861000000e-03
1243000000.0 -1.003230000e+00 -1.139000000e-03
1247500000.0 -1.004491000e+00 -5.547000000e-03
1252000000.0 -1.004351000e+00 -9.480000000e-03
1256500000.0 -1.009122000e+00 -6.977000000e-03
1261000000.0 -1.006276000e+00 -1.572200000e-02
1265500000.0 -1.005413000e+00 -1.356000000e-03
1270000000.0 -1.005220000e+00 1.782000000e-03
1274500000.0 -1.009529000e+00 -1.542700000e-02
1279000000.0 -1.003898000e+00 -5.912000000e-03
1283500000.0 -1.003936000e+00 -9.229000000e-03
1288000000.0 -1.001159000e+00 -6.046000000e-03
1292500000.0 -9.997420000e-01 -7.977000000e-03
1297000000.0 -1.000199000e+00 -5.928000000e-03
1301500000.0 -1.004941000e+00 -7.240000000e-03
1306000000.0 -1.002530000e+00 -8.746000000e-03
1310500000.0 -9.968370000e-01 -1.009100000e-02
1315000000.0 -9.965140000e-01 2.792000000e-03
1319500000.0 -1.001334000e+00 -4.599000000e-03
1324000000.0 -9.959650000e-01 -9.808000000e-03
1328500000.0 -9.964600000e-01 -5.703000000e-03
1333000000.0 -9.976350000e-01 -9.587000000e-03
1337500000.0 -9.964010000e-01 -2.914000000e-03
1342000000.0 -9.902920000e-01 1.030000000e-03
1346500000.0 -9.919920000e-01 4.110000000e-04
1351000000.0 -9.876790000e-01 3.886000000e-03
1355500000.0 -9.923070000e-01 -2.651000000e-03
1360000000.0 -9.979830000e-01 -3.300000000e-05
1364500000.0 -9.970920000e-01 -1.510000000e-03
1369000000.0 -1.000924000e+00 -6.407000000e-03
1373500000.0 -1.004787000e+00 -7.944000000e-03
1378000000.0 -1.004847000e+00 -1.699000000e-03
1382500000.0 -1.000827000e+00 6.422000000e-03
1387000000.0 -9.996040000e-01 4.251000000e-03
1391500000.0 -1.005657000e+00 1.969000000e-03
1396000000.0 -1.008965000e+00 -9.789000000e-03
1400500000.0 -1.004875000e+00 1.622000000e-03
1405000000.0 -1.006699000e+00 -2.818000000e-03
1409500000.0 -1.007001000e+00 -9.045000000e-03
1414000000.0 -1.010972000e+00 -4.946000000e-03
1418500000.0 -1.011724000e+00 1.316000000e-03
1423000000.0 -1.014428000e+00 -1.035200000e-02
1427500000.0 -1.013882000e+00 -1.233700000e-02
1432000000.0 -1.008874000e+00 -8.794000000e-03
1436500000.0 -1.008371000e+00 -6.956000000e-03
1441000000.0 -1.013435000e+00 -6.856000000e-03
1445500000.0 -1.010162000e+00 -4.786000000e-03
1450000000.0 -1.010590000e+00 -5.118000000e-03
