! piloto_deriva / corto_deriva / r37
# HZ S RI R 50
50000.0 -9.979040000e-01 -3.745900000e-02
59500.0 -9.986140000e-01 -1.810900000e-02
69000.0 -9.989880000e-01 -8.091000000e-03
78500.0 -9.985520000e-01 -9.770000000e-04
88000.0 -1.000440000e+00 1.061000000e-03
97500.0 -9.993100000e-01 3.270000000e-04
107000.0 -9.995840000e-01 -2.672000000e-03
116500.0 -9.998090000e-01 -6.412000000e-03
126000.0 -9.996440000e-01 -1.030200000e-02
135500.0 -9.995480000e-01 -1.618100000e-02
145000.0 -9.993240000e-01 -2.255700000e-02
154500.0 -1.000122000e+00 -2.923000000e-02
164000.0 -9.997320000e-01 -3.645200000e-02
173500.0 -9.998080000e-01 -4.447600000e-02
183000.0 -9.997160000e-01 -5.282300000e-02
192500.0 -9.999000000e-01 -6.058200000e-02
202000.0 -1.000062000e+00 -6.855200000e-02
211500.0 -1.000309000e+00 -7.711600000e-02
221000.0 -9.999900000e-01 -8.606600000e-02
230500.0 -1.001192000e+00 -9.552600000e-02
240000.0 -1.001849000e+00 -1.044210000e-01
249500.0 -8.592320000e-01 -1.030710000e-01
259000.0 -1.000974000e+00 -1.220770000e-01
268500.0 -1.001382000e+00 -1.309270000e-01
278000.0 -1.001597000e+00 -1.403990000e-01
287500.0 -1.001420000e+00 -1.497320000e-01
297000.0 -1.002311000e+00 -1.594350000e-01
306500.0 -1.002303000e+00 -1.691840000e-01
316000.0 -1.002921000e+00 -1.781910000e-01
325500.0 -1.002779000e+00 -1.868870000e-01
335000.0 -1.002971000e+00 -1.969710000e-01
344500.0 -1.002922000e+00 -2.062760000e-01
354000.0 -1.004001000e+00 -2.161870000e-01
363500.0 -1.003686000e+00 -2.243450000e-01
373000.0 -1.003700000e+00 -2.337550000e-01
382500.0 -1.004175000e+00 -2.435210000e-01
392000.0 -1.004293000e+00 -2.523710000e-01
401500.0 -1.004607000e+00 -2.620900000e-01
411000.0 -1.005416000e+00 -2.710050000e-01
420500.0 -1.004723000e+00 -2.804900000e-01
430000.0 -1.005771000e+00 -2.903550000e-01
439500.0 -1.005331000e+00 -2.993600000e-01
449000.0 -1.005530000e+00 -3.084870000e-01
458500.0 -1.006577000e+00 -3.172970000e-01
468000.0 -1.007085000e+00 -3.268730000e-01
477500.0 -1.006069000e+00 -3.371260000e-01
487000.0 -1.006636000e+00 -3.453840000e-01
496500.0 -1.007505000e+00 -3.558720000e-01
506000.0 -1.006779000e+00 -3.641760000e-01
515500.0 -1.007888000e+00 -3.739510000e-01
525000.0 -1.007736000e+00 -3.830660000e-01
534500.0 -1.041190000e+00 -3.846340000e-01
544000.0 -1.002641000e+00 -4.200080000e-01
553500.0 -1.013986000e+00 -3.910630000e-01
563000.0 -1.002552000e+00 -4.382490000e-01
572500.0 -1.015265000e+00 -4.096640000e-01
582000.0 -1.003646000e+00 -4.573590000e-01
591500.0 -1.016298000e+00 -4.283390000e-01
601000.0 -1.004420000e+00 -4.754550000e-01
610500.0 -1.011095000e+00 -4.657020000e-01
620000.0 -1.012091000e+00 -4.736020000e-01
629500.0 -1.012379000e+00 -4.841610000e-01
639000.0 -1.012551000e+00 -4.933100000e-01
648500.0 -1.012562000e+00 -5.026890000e-01
658000.0 -1.014075000e+00 -5.104840000e-01
667500.0 -1.015921000e+00 -5.205090000e-01
677000.0 -1.015933000e+00 -5.283530000e-01
686500.0 -1.016691000e+00 -5.384030000e-01
696000.0 -1.016404000e+00 -5.474730000e-01
705500.0 -1.019105000e+00 -5.562770000e-01
715000.0 -1.019236000e+00 -5.644520000e-01
724500.0 -1.020457000e+00 -5.738670000e-01
734000.0 -1.019998000e+00 -5.826800000e-01
743500.0 -1.023073000e+00 -5.916690000e-01
753000.0 -1.021898000e+00 -6.011800000e-01
762500.0 -1.023257000e+00 -6.102990000e-01
772000.0 -1.023228000e+00 -6.183490000e-01
781500.0 -1.025620000e+00 -6.271840000e-01
791000.0 -1.026797000e+00 -6.360280000e-01
800500.0 -1.029765000e+00 -6.461330000e-01
810000.0 -1.029349000e+00 -6.543070000e-01
819500.0 -1.030527000e+00 -6.625770000e-01
829000.0 -1.032014000e+00 -6.712420000e-01
838500.0 -1.033966000e+00 -6.808160000e-01
848000.0 -1.036429000e+00 -6.886080000e-01
857500.0 -1.036234000e+00 -6.961390000e-01
867000.0 -1.037010000e+00 -7.055980000e-01
876500.0 -1.039486000e+00 -7.153600000e-01
886000.0 -1.042334000e+00 -7.239840000e-01
895500.0 -1.044404000e+00 -7.322870000e-01
905000.0 -1.045685000e+00 -7.413180000e-01
914500.0 -1.046974000e+00 -7.497720000e-01
924000.0 -1.049329000e+00 -7.588310000e-01
933500.0 -1.051530000e+00 -7.651190000e-01
943000.0 -1.053820000e+00 -7.762190000e-01
952500.0 -1.056563000e+00 -7.834620000e-01
962000.0 -1.059036000e+00 -7.919360000e-01
971500.0 -1.061535000e+00 -7.998090000e-01
981000.0 -1.062459000e+00 -8.096390000e-01
990500.0 -1.064676000e+00 -8.170260000e-01
1000000.0 -1.068486000e+00 -8.252730000e-01
1090000.0 -1.097340000e+00 -9.028200000e-01
1180000.0 -1.135477000e+00 -9.770550000e-01
1270000.0 -1.182360000e+00 -1.046445000e+00
1360000.0 -1.241037000e+00 -1.106425000e+00
1450000.0 -1.309110000e+00 -1.156405000e+00
1540000.0 -1.386845000e+00 -1.192600000e+00
1630000.0 -1.472365000e+00 -1.212174000e+00
1720000.0 -1.561953000e+00 -1.209897000e+00
1810000.0 -1.651260000e+00 -1.185944000e+00
1900000.0 -1.735648000e+00 -1.145276000e+00
1990000.0 -1.809654000e+00 -1.078952000e+00
2080000.0 -1.864552000e+00 -1.002275000e+00
2170000.0 -1.896331000e+00 -9.121510000e-01
2260000.0 -1.914234000e+00 -8.169160000e-01
2350000.0 -1.917522000e+00 -7.287260000e-01
2440000.0 -1.900862000e+00 -6.438940000e-01
2530000.0 -1.875601000e+00 -5.650110000e-01
2620000.0 -1.841015000e+00 -4.957540000e-01
2710000.0 -1.800091000e+00 -4.367230000e-01
2800000.0 -1.759414000e+00 -3.868630000e-01
2890000.0 -1.711280000e+00 -2.589580000e-01
2980000.0 -1.672948000e+00 -3.014870000e-01
3070000.0 -1.632055000e+00 -2.691110000e-01
3160000.0 -1.593145000e+00 -2.388630000e-01
3250000.0 -1.556241000e+00 -2.151630000e-01
3340000.0 -1.520541000e+00 -1.925150000e-01
3430000.0 -1.488015000e+00 -1.711490000e-01
3520000.0 -1.457435000e+00 -1.536160000e-01
3610000.0 -1.428834000e+00 -1.368070000e-01
3700000.0 -1.403936000e+00 -1.220610000e-01
3790000.0 -1.377375000e+00 -1.070140000e-01
3880000.0 -1.354333000e+00 -9.451300000e-02
3970000.0 -1.334575000e+00 -8.047100000e-02
4060000.0 -1.314468000e+00 -6.627100000e-02
4150000.0 -1.294759000e+00 -5.390400000e-02
4240000.0 -1.278469000e+00 -4.141000000e-02
4330000.0 -1.262934000e+00 -3.109600000e-02
4420000.0 -1.249215000e+00 -1.940100000e-02
4510000.0 -1.236493000e+00 -6.521000000e-03
4600000.0 -1.223454000e+00 4.035000000e-03
4690000.0 -1.213153000e+00 1.618300000e-02
4780000.0 -1.202975000e+00 2.683400000e-02
4870000.0 -1.193704000e+00 3.751500000e-02
4960000.0 -1.185607000e+00 4.921800000e-02
5050000.0 -1.173023000e+00 6.018800000e-02
5140000.0 -1.167433000e+00 6.931000000e-02
5230000.0 -1.162053000e+00 8.031200000e-02
5320000.0 -1.156707000e+00 9.091100000e-02
5410000.0 -1.152368000e+00 1.013830000e-01
5500000.0 -1.147234000e+00 1.109020000e-01
5590000.0 -1.143463000e+00 1.210800000e-01
5680000.0 -1.138997000e+00 1.312630000e-01
5770000.0 -1.135428000e+00 1.405460000e-01
5860000.0 -1.131500000e+00 1.503890000e-01
5950000.0 -1.129235000e+00 1.590960000e-01
6040000.0 -1.125364000e+00 1.679600000e-01
6130000.0 -1.123038000e+00 1.773440000e-01
6220000.0 -1.119048000e+00 1.843250000e-01
6310000.0 -1.116843000e+00 1.909280000e-01
6400000.0 -1.114514000e+00 1.990210000e-01
6490000.0 -1.113522000e+00 2.062540000e-01
6580000.0 -1.110532000e+00 2.127190000e-01
6670000.0 -1.109442000e+00 2.182370000e-01
6760000.0 -1.107928000e+00 2.237920000e-01
6850000.0 -1.106100000e+00 2.280530000e-01
6940000.0 -1.104902000e+00 2.324490000e-01
7030000.0 -1.103189000e+00 2.358300000e-01
7120000.0 -1.102939000e+00 2.395370000e-01
7210000.0 -1.102444000e+00 2.410010000e-01
7300000.0 -1.102267000e+00 2.414040000e-01
7390000.0 -1.101876000e+00 2.417420000e-01
7480000.0 -1.101921000e+00 2.420810000e-01
7570000.0 1.948540000e-01 1.072767000e+00
7660000.0 1.949540000e-01 1.073631000e+00
7750000.0 1.940640000e-01 1.074319000e+00
7840000.0 1.937520000e-01 1.074410000e+00
7930000.0 1.922610000e-01 1.075379000e+00
8020000.0 1.918410000e-01 1.075233000e+00
8110000.0 1.916330000e-01 1.074936000e+00
8200000.0 1.908420000e-01 1.075779000e+00
8290000.0 1.897160000e-01 1.076627000e+00
8380000.0 1.882280000e-01 1.076832000e+00
8470000.0 1.883600000e-01 1.077175000e+00
8560000.0 1.868820000e-01 1.077660000e+00
8650000.0 1.857680000e-01 1.078255000e+00
8740000.0 1.853080000e-01 1.079307000e+00
8830000.0 1.845210000e-01 1.079478000e+00
8920000.0 1.849910000e-01 1.079521000e+00
9010000.0 1.839120000e-01 1.081190000e+00
9100000.0 1.833370000e-01 1.080914000e+00
9190000.0 1.832190000e-01 1.081947000e+00
9280000.0 1.811590000e-01 1.082256000e+00
9370000.0 1.807700000e-01 1.083525000e+00
9460000.0 1.801210000e-01 1.084223000e+00
9550000.0 1.786520000e-01 1.084337000e+00
9640000.0 1.793370000e-01 1.084461000e+00
9730000.0 1.772690000e-01 1.085446000e+00
9820000.0 1.770610000e-01 1.085624000e+00
9910000.0 1.763600000e-01 1.086593000e+00
10000000.0 1.761740000e-01 1.087295000e+00
10900000.0 1.704190000e-01 1.094132000e+00
11800000.0 1.639750000e-01 1.102362000e+00
12700000.0 1.567870000e-01 1.110681000e+00
13600000.0 1.502280000e-01 1.119106000e+00
14500000.0 1.442780000e-01 1.126456000e+00
15400000.0 1.376290000e-01 1.136129000e+00
16300000.0 1.313000000e-01 1.145202000e+00
17200000.0 1.243870000e-01 1.154342000e+00
18100000.0 1.173530000e-01 1.162845000e+00
19000000.0 1.087770000e-01 1.173224000e+00
19900000.0 1.015110000e-01 1.183581000e+00
20800000.0 9.343700000e-02 1.191645000e+00
21700000.0 8.383600000e-02 1.201348000e+00
22600000.0 7.569600000e-02 1.211121000e+00
23500000.0 6.638500000e-02 1.220448000e+00
24400000.0 5.658500000e-02 1.231108000e+00
25300000.0 4.675800000e-02 1.241328000e+00
26200000.0 3.554900000e-02 1.252213000e+00
27100000.0 2.547900000e-02 1.261439000e+00
28000000.0 1.528200000e-02 1.270746000e+00
28900000.0 6.563800000e-02 1.126711000e+00
29800000.0 -8.681000000e-03 1.293265000e+00
30700000.0 -2.200600000e-02 1.301928000e+00
31600000.0 -3.434500000e-02 1.312389000e+00
32500000.0 -4.826100000e-02 1.322339000e+00
33400000.0 -6.236900000e-02 1.331775000e+00
34300000.0 -7.662100000e-02 1.341223000e+00
35200000.0 -9.008500000e-02 1.350216000e+00
36100000.0 -1.051860000e-01 1.360141000e+00
37000000.0 -1.209170000e-01 1.371188000e+00
37900000.0 -1.382260000e-01 1.378039000e+00
38800000.0 -1.547180000e-01 1.387127000e+00
39700000.0 -1.711330000e-01 1.396302000e+00
40600000.0 -1.892150000e-01 1.406809000e+00
41500000.0 -2.066670000e-01 1.411621000e+00
42400000.0 -2.245610000e-01 1.419753000e+00
43300000.0 -2.427550000e-01 1.427604000e+00
44200000.0 -2.630800000e-01 1.436232000e+00
45100000.0 -2.818480000e-01 1.442309000e+00
46000000.0 -3.030010000e-01 1.448215000e+00
46900000.0 -3.240440000e-01 1.454052000e+00
47800000.0 -3.435070000e-01 1.458583000e+00
48700000.0 -3.660210000e-01 1.462312000e+00
49600000.0 -3.866660000e-01 1.468751000e+00
50500000.0 -4.086090000e-01 1.471236000e+00
51400000.0 -4.318160000e-01 1.474538000e+00
52300000.0 -4.542430000e-01 1.477172000e+00
53200000.0 -4.759870000e-01 1.478848000e+00
54100000.0 -5.010310000e-01 1.480440000e+00
55000000.0 -5.226270000e-01 1.481772000e+00
55900000.0 -5.474170000e-01 1.481400000e+00
56800000.0 -5.711500000e-01 1.481189000e+00
57700000.0 -5.953500000e-01 1.479439000e+00
58600000.0 -6.177210000e-01 1.477897000e+00
59500000.0 -6.427390000e-01 1.475227000e+00
60400000.0 -6.667920000e-01 1.471258000e+00
61300000.0 -6.918970000e-01 1.468492000e+00
62200000.0 -7.163410000e-01 1.462083000e+00
63100000.0 -7.407710000e-01 1.457361000e+00
64000000.0 -7.632990000e-01 1.450508000e+00
64900000.0 -7.886170000e-01 1.444305000e+00
65800000.0 -8.124520000e-01 1.437811000e+00
66700000.0 -8.360510000e-01 1.427140000e+00
67600000.0 -8.592040000e-01 1.416785000e+00
68500000.0 -8.840520000e-01 1.408350000e+00
69400000.0 -9.074030000e-01 1.398303000e+00
70300000.0 -9.299030000e-01 1.387145000e+00
71200000.0 -9.515820000e-01 1.373538000e+00
72100000.0 -9.762550000e-01 1.362839000e+00
73000000.0 -9.968350000e-01 1.348465000e+00
73900000.0 -1.019226000e+00 1.333800000e+00
74800000.0 -1.040363000e+00 1.319195000e+00
75700000.0 -1.060785000e+00 1.303791000e+00
76600000.0 -1.081408000e+00 1.288998000e+00
77500000.0 -1.101626000e+00 1.272674000e+00
78400000.0 -1.120952000e+00 1.256206000e+00
79300000.0 -1.140338000e+00 1.237358000e+00
80200000.0 -1.157732000e+00 1.219327000e+00
81100000.0 -1.176233000e+00 1.199756000e+00
82000000.0 -1.192221000e+00 1.183136000e+00
82900000.0 -1.208858000e+00 1.162116000e+00
83800000.0 -1.224550000e+00 1.141711000e+00
84700000.0 -1.241052000e+00 1.120064000e+00
85600000.0 -1.255010000e+00 1.100456000e+00
86500000.0 -1.270008000e+00 1.079242000e+00
87400000.0 -1.284149000e+00 1.058468000e+00
88300000.0 -1.295043000e+00 1.036293000e+00
89200000.0 -1.306304000e+00 1.015597000e+00
90100000.0 -1.317181000e+00 9.920220000e-01
91000000.0 -1.327314000e+00 9.678050000e-01
91900000.0 -1.337942000e+00 9.458750000e-01
92800000.0 -1.346462000e+00 9.244170000e-01
93700000.0 -1.354926000e+00 9.001200000e-01
94600000.0 -1.363475000e+00 8.767340000e-01
95500000.0 -1.370016000e+00 8.540410000e-01
96400000.0 -1.375025000e+00 8.301080000e-01
97300000.0 -1.379645000e+00 8.076280000e-01
98200000.0 -1.384343000e+00 7.850120000e-01
99100000.0 -1.388240000e+00 7.607640000e-01
100000000.0 -1.390282000e+00 7.374670000e-01
109000000.0 -1.385438000e+00 5.213670000e-01
118000000.0 -1.331254000e+00 3.386420000e-01
127000000.0 -1.250011000e+00 1.998400000e-01
136000000.0 -1.134752000e+00 1.005350000e-01
145000000.0 -1.046834000e+00 2.970100000e-02
154000000.0 -1.000603000e+00 -9.100000000e-04
163000000.0 -1.001555000e+00 -4.015000000e-03
172000000.0 -1.004138000e+00 -6.359000000e-03
181000000.0 -1.005917000e+00 -8.158000000e-03
190000000.0 -1.007379000e+00 -9.277000000e-03
199000000.0 -1.009063000e+00 -1.116500000e-02
208000000.0 -1.009637000e+00 -1.097300000e-02
217000000.0 -1.009720000e+00 -1.266500000e-02
226000000.0 -1.011240000e+00 -1.087000000e-02
235000000.0 -1.010398000e+00 -1.141900000e-02
244000000.0 -1.009843000e+00 -1.070200000e-02
253000000.0 -1.009114000e+00 -9.747000000e-03
262000000.0 -1.007691000e+00 -7.703000000e-03
271000000.0 -1.006548000e+00 -7.052000000e-03
280000000.0 -1.004695000e+00 -5.184000000e-03
289000000.0 -1.001980000e+00 -3.428000000e-03
298000000.0 -1.000425000e+00 3.790000000e-04
307000000.0 -1.001410000e+00 8.270000000e-04
316000000.0 -1.004253000e+00 -1.812000000e-03
325000000.0 -1.007716000e+00 -2.020000000e-04
334000000.0 -1.010253000e+00 -2.135000000e-03
343000000.0 -1.011634000e+00 -1.098000000e-03
352000000.0 -1.012782000e+00 -3.350000000e-03
361000000.0 -1.021030000e+00 -3.882300000e-02
370000000.0 -1.015036000e+00 -4.577000000e-03
379000000.0 -1.014113000e+00 -3.429000000e-03
388000000.0 -1.015157000e+00 -1.689000000e-03
397000000.0 -1.013160000e+00 -5.067000000e-03
406000000.0 -1.012480000e+00 -3.382000000e-03
415000000.0 -1.023236000e+00 -7.365000000e-02
424000000.0 -1.009045000e+00 -4.528000000e-03
433000000.0 -1.009025000e+00 -1.841000000e-02
442000000.0 -1.004480000e+00 -1.128000000e-03
451000000.0 -1.000283000e+00 -7.950000000e-04
460000000.0 -1.004855000e+00 7.280000000e-04
469000000.0 -1.008142000e+00 2.210000000e-04
478000000.0 -1.011084000e+00 1.537000000e-03
487000000.0 -1.013366000e+00 4.992000000e-03
496000000.0 -1.015132000e+00 3.597000000e-03
505000000.0 -1.016060000e+00 1.305000000e-03
514000000.0 -1.017763000e+00 3.803000000e-03
523000000.0 -1.017133000e+00 6.776000000e-03
532000000.0 -1.015613000e+00 3.129000000e-03
541000000.0 -1.015728000e+00 1.411000000e-03
550000000.0 -1.017579000e+00 1.252000000e-03
559000000.0 -1.012846000e+00 1.777000000e-03
568000000.0 -1.009490000e+00 2.648000000e-03
577000000.0 -1.007402000e+00 -4.060000000e-04
586000000.0 -1.005376000e+00 2.320000000e-03
595000000.0 -1.000930000e+00 -3.590000000e-04
604000000.0 -1.001090000e+00 1.995000000e-03
613000000.0 -1.003570000e+00 7.257000000e-03
622000000.0 -1.004477000e+00 5.331000000e-03
631000000.0 -1.008035000e+00 9.613000000e-03
640000000.0 -1.008625000e+00 9.715000000e-03
649000000.0 -1.008096000e+00 1.411300000e-02
658000000.0 -1.012628000e+00 1.349800000e-02
667000000.0 -1.012400000e+00 1.160100000e-02
676000000.0 -1.011293000e+00 1.181200000e-02
685000000.0 -1.011786000e+00 1.442600000e-02
694000000.0 -1.012001000e+00 8.139000000e-03
703000000.0 -1.008880000e+00 1.231100000e-02
712000000.0 -1.004603000e+00 9.656000000e-03
721000000.0 -1.009108000e+00 8.316000000e-03
730000000.0 -1.004764000e+00 2.681000000e-03
739000000.0 -1.002450000e+00 6.328000000e-03
748000000.0 -1.000320000e+00 3.988000000e-03
757000000.0 -9.986440000e-01 3.090000000e-03
766000000.0 -9.982330000e-01 6.548000000e-03
775000000.0 -9.961270000e-01 8.006000000e-03
784000000.0 -1.000125000e+00 7.556000000e-03
793000000.0 -9.991690000e-01 6.762000000e-03
802000000.0 -1.001843000e+00 1.031100000e-02
811000000.0 -1.000232000e+00 1.033500000e-02
820000000.0 -9.987420000e-01 1.144500000e-02
829000000.0 -9.967150000e-01 6.928000000e-03
838000000.0 -9.969230000e-01 7.492000000e-03
847000000.0 -9.980180000e-01 7.135000000e-03
856000000.0 -9.970650000e-01 4.391000000e-03
865000000.0 -9.960200000e-01 5.394000000e-03
874000000.0 -9.973350000e-01 1.517000000e-03
883000000.0 -9.947440000e-01 -2.990000000e-04
892000000.0 -9.988800000e-01 2.390000000e-03
901000000.0 -1.000352000e+00 -8.283000000e-03
910000000.0 -9.973890000e-01 -2.634000000e-03
919000000.0 -9.983970000e-01 -2.787000000e-03
928000000.0 -1.002298000e+00 -5.457000000e-03
937000000.0 -1.000112000e+00 -1.558000000e-03
946000000.0 -1.002746000e+00 -2.556000000e-03
955000000.0 -9.975100000e-01 -6.127000000e-03
964000000.0 -1.001619000e+00 -7.783000000e-03
973000000.0 -1.001811000e+00 -9.551000000e-03
982000000.0 -1.000007000e+00 -6.764000000e-03
991000000.0 -1.003270000e+00 -9.216000000e-03
1000000000.0 -1.001251000e+00 -1.029900000e-02
1004500000.0 -1.001671000e+00 -5.489000000e-03
1009000000.0 -1.003950000e+00 -9.030000000e-03
1013500000.0 -1.001137000e+00 -4.717000000e-03
1018000000.0 -1.001168000e+00 -3.504000000e-03
1022500000.0 -1.002764000e+00 -8.330000000e-03
1027000000.0 -9.993060000e-01 -1.381000000e-03
1031500000.0 -1.003799000e+00 -3.995000000e-03
1036000000.0 -9.989460000e-01 -3.822000000e-03
1040500000.0 -1.004187000e+00 -8.271000000e-03
1045000000.0 -1.003442000e+00 -3.260000000e-03
1049500000.0 -9.986200000e-01 -3.334000000e-03
1054000000.0 -9.990680000e-01 -4.059000000e-03
1058500000.0 -1.000849000e+00 -2.585000000e-03
1063000000.0 -1.005547000e+00 -1.146600000e-02
1067500000.0 -1.002864000e+00 -7.576000000e-03
1072000000.0 -1.004525000e+00 -1.206900000e-02
1076500000.0 -1.004370000e+00 -6.398000000e-03
1081000000.0 -1.002788000e+00 -9.877000000e-03
1085500000.0 -1.007179000e+00 -4.019000000e-03
1090000000.0 -1.008333000e+00 -5.553000000e-03
1094500000.0 -1.008551000e+00 -8.475000000e-03
1099000000.0 -1.006217000e+00 -1.182800000e-02
1103500000.0 -1.006464000e+00 -1.004300000e-02
1108000000.0 -1.004026000e+00 -1.163200000e-02
1112500000.0 -1.009570000e+00 -1.771200000e-02
1117000000.0 -1.005023000e+00 -1.289900000e-02
1121500000.0 -1.010923000e+00 -1.156300000e-02
1126000000.0 -1.012641000e+00 -1.546500000e-02
1130500000.0 -1.004902000e+00 -1.439800000e-02
1135000000.0 -1.005338000e+00 -9.875000000e-03
1139500000.0 -1.005141000e+00 -7.514000000e-03
1144000000.0 -1.006995000e+00 -3.816000000e-03
1148500000.0 -1.003185000e+00 -3.284000000e-03
1153000000.0 -1.010747000e+00 -2.633600000e-02
1157500000.0 -1.005806000e+00 -1.237100000e-02
1162000000.0 -1.008570000e+00 -1.324700000e-02
1166500000.0 -1.004816000e+00 -3.385000000e-03
1171000000.0 -1.001840000e+00 -1.016800000e-02
1175500000.0 -1.003988000e+00 -1.393100000e-02
1180000000.0 -9.962980000e-01 3.530000000e-04
1184500000.0 -9.979880000e-01 -2.996000000e-03
1189000000.0 -1.004172000e+00 -6.559000000e-03
1193500000.0 -1.002266000e+00 -2.663000000e-03
1198000000.0 -9.921670000e-01 -3.678000000e-03
1202500000.0 -1.000096000e+00 -1.084700000e-02
1207000000.0 -9.953620000e-01 1.811000000e-03
1211500000.0 -1.002400000e+00 -8.650000000e-04
1216000000.0 -9.985690000e-01 2.349000000e-03
1220500000.0 -1.000979000e+00 -1.372500000e-02
1225000000.0 -1.001297000e+00 5.113000000e-03
1229500000.0 -9.964090000e-01 -5.823000000e-03
1234000000.0 -1.002079000e+00 -4.372000000e-03
1238500000.0 -1.001820000e+00 -6.952000000e-03
1243000000.0 -1.007585000e+00 -1.198000000e-03
1247500000.0 -1.005702000e+00 -8.234000000e-03
1252000000.0 -1.005598000e+00 -3.614000000e-03
1256500000.0 -1.001433000e+00 -5.925000000e-03
1261000000.0 -1.000143000e+00 -7.149000000e-03
1265500000.0 -1.014243000e+00 -2.065000000e-03
1270000000.0 -1.010135000e+00 -1.071200000e-02
1274500000.0 -1.006588000e+00 -2.916000000e-03
1279000000.0 -1.002463000e+00 -9.457000000e-03
1283500000.0 -1.005468000e+00 -1.633700000e-02
1288000000.0 -1.003716000e+00 -3.763000000e-03
1292500000.0 -1.004572000e+00 2.517000000e-03
1297000000.0 -9.975700000e-01 -1.436000000e-03
1301500000.0 -9.997200000e-01 -7.768000000e-03
1306000000.0 -8.728860000e-01 6.532500000e-02
1310500000.0 -1.000003000e+00 -8.281000000e-03
1315000000.0 -1.002215000e+00 -8.439000000e-03
1319500000.0 -1.005264000e+00 -2.978000000e-03
1324000000.0 -9.939050000e-01 -6.121000000e-03
1328500000.0 -1.003989000e+00 -3.254000000e-03
1333000000.0 -1.000208000e+00 -1.415900000e-02
1337500000.0 -9.931370000e-01 5.980000000e-04
1342000000.0 -9.951480000e-01 -5.631000000e-03
1346500000.0 -9.876900000e-01 2.171000000e-03
1351000000.0 -9.899590000e-01 6.030000000e-04
1355500000.0 -9.904880000e-01 -3.230000000e-04
1360000000.0 -9.944150000e-01 -1.102800000e-02
1364500000.0 -9.972750000e-01 -6.046000000e-03
1369000000.0 -9.992440000e-01 -1.027900000e-02
1373500000.0 -9.980790000e-01 -5.173000000e-03
1378000000.0 -1.003487000e+00 -1.259200000e-02
1382500000.0 -1.007011000e+00 8.000000000e-05
1387000000.0 -9.993910000e-01 -2.811000000e-03
1391500000.0 -9.957530000e-01 -4.038000000e-03
1396000000.0 -1.008577000e+00 -1.635700000e-02
1400500000.0 -1.010103000e+00 4.243000000e-03
1405000000.0 -1.013526000e+00 -5.077000000e-03
1409500000.0 -1.005801000e+00 -7.959000000e-03
1414000000.0 -1.007699000e+00 -1.465000000e-03
1418500000.0 -1.013252000e+00 -4.333000000e-03
1423000000.0 -1.010188000e+00 4.605000000e-03
1427500000.0 -1.021556000e+00 -1.102900000e-02
1432000000.0 -1.009897000e+00 -8.184000000e-03
1436500000.0 -1.013477000e+00 -5.030000000e-03
1441000000.0 -1.006886000e+00 -9.511000000e-03
1445500000.0 -1.009557000e+00 -6.361000000e-03
1450000000.0 -1.010782000e+00 -6.237000000e-03
