! piloto_deriva / corto_deriva / r01
# HZ S RI R 50
50000.0 -9.945650000e-01 -3.744900000e-02
59500.0 -9.946970000e-01 -1.778000000e-02
69000.0 -9.982580000e-01 -7.462000000e-03
78500.0 -9.986790000e-01 -1.240000000e-03
88000.0 -1.000276000e+00 4.490000000e-04
97500.0 -1.000086000e+00 1.170000000e-04
107000.0 -9.998850000e-01 -1.593000000e-03
116500.0 -9.994400000e-01 -5.293000000e-03
126000.0 -1.000207000e+00 -9.690000000e-03
135500.0 -1.000048000e+00 -1.515500000e-02
145000.0 -9.997780000e-01 -2.243600000e-02
154500.0 -9.996250000e-01 -2.920500000e-02
164000.0 -9.996570000e-01 -3.579600000e-02
173500.0 -1.000210000e+00 -4.336700000e-02
183000.0 -9.994240000e-01 -5.082500000e-02
192500.0 -1.000436000e+00 -5.950700000e-02
202000.0 -1.000242000e+00 -6.804500000e-02
211500.0 -9.995850000e-01 -7.728800000e-02
221000.0 -1.000284000e+00 -8.561700000e-02
230500.0 -1.000534000e+00 -9.474500000e-02
240000.0 -1.000802000e+00 -1.031800000e-01
249500.0 -1.001343000e+00 -1.123850000e-01
259000.0 -1.001809000e+00 -1.209880000e-01
268500.0 -1.001581000e+00 -1.315470000e-01
278000.0 -1.002020000e+00 -1.396140000e-01
287500.0 -1.002750000e+00 -1.492060000e-01
297000.0 -1.001845000e+00 -1.584940000e-01
306500.0 -1.002311000e+00 -1.682860000e-01
316000.0 -1.002755000e+00 -1.757180000e-01
325500.0 -1.002674000e+00 -1.860440000e-01
335000.0 -1.002201000e+00 -1.959730000e-01
344500.0 -1.003060000e+00 -2.050350000e-01
354000.0 -1.004211000e+00 -2.138620000e-01
363500.0 -1.003320000e+00 -2.229750000e-01
373000.0 -1.003647000e+00 -2.328240000e-01
382500.0 -1.003898000e+00 -2.417930000e-01
392000.0 -1.004478000e+00 -2.513290000e-01
401500.0 -1.003980000e+00 -2.602250000e-01
411000.0 -1.003899000e+00 -2.699640000e-01
420500.0 -1.004759000e+00 -2.790280000e-01
430000.0 -1.005190000e+00 -2.890300000e-01
439500.0 -1.004721000e+00 -2.982950000e-01
449000.0 -1.005469000e+00 -3.069660000e-01
458500.0 -1.005228000e+00 -3.163890000e-01
468000.0 -1.005650000e+00 -3.261530000e-01
477500.0 -1.005807000e+00 -3.355430000e-01
487000.0 -1.006291000e+00 -3.443610000e-01
496500.0 -1.006827000e+00 -3.540530000e-01
506000.0 -1.007042000e+00 -3.627320000e-01
515500.0 -1.006986000e+00 -3.718720000e-01
525000.0 -1.007501000e+00 -3.809480000e-01
534500.0 -1.006833000e+00 -3.902440000e-01
544000.0 -1.008459000e+00 -3.990050000e-01
553500.0 -1.002161000e+00 -4.278560000e-01
563000.0 -1.008710000e+00 -4.172430000e-01
572500.0 -1.003051000e+00 -4.458770000e-01
582000.0 -1.015673000e+00 -4.169510000e-01
591500.0 -1.003250000e+00 -4.646790000e-01
601000.0 -1.016943000e+00 -4.352300000e-01
610500.0 -1.003398000e+00 -4.822730000e-01
620000.0 -1.018263000e+00 -4.525400000e-01
629500.0 -1.004969000e+00 -5.013230000e-01
639000.0 -1.019477000e+00 -4.710880000e-01
648500.0 -1.012924000e+00 -4.997670000e-01
658000.0 -1.013080000e+00 -5.080930000e-01
667500.0 -1.014897000e+00 -5.182890000e-01
677000.0 -1.015194000e+00 -5.269560000e-01
686500.0 -1.015106000e+00 -5.357550000e-01
696000.0 -1.015823000e+00 -5.441160000e-01
705500.0 -1.017044000e+00 -5.537190000e-01
715000.0 -1.018988000e+00 -5.617520000e-01
724500.0 -1.018367000e+00 -5.711890000e-01
734000.0 -1.019603000e+00 -5.807350000e-01
743500.0 -1.019996000e+00 -5.896880000e-01
753000.0 -1.021062000e+00 -5.979950000e-01
762500.0 -1.023115000e+00 -6.076380000e-01
772000.0 -1.024376000e+00 -6.165240000e-01
781500.0 -1.025035000e+00 -6.251600000e-01
791000.0 -1.026435000e+00 -6.342650000e-01
800500.0 -1.026578000e+00 -6.430570000e-01
810000.0 -1.027790000e+00 -6.513290000e-01
819500.0 -1.030033000e+00 -6.609870000e-01
829000.0 -1.030571000e+00 -6.686300000e-01
838500.0 -1.032060000e+00 -6.787710000e-01
848000.0 -1.034672000e+00 -6.851230000e-01
857500.0 -1.034894000e+00 -6.946080000e-01
867000.0 -1.036207000e+00 -7.029970000e-01
876500.0 -1.036904000e+00 -7.118380000e-01
886000.0 -1.039893000e+00 -7.218890000e-01
895500.0 -1.043159000e+00 -7.305410000e-01
905000.0 -1.043239000e+00 -7.373760000e-01
914500.0 -1.045184000e+00 -7.461350000e-01
924000.0 -1.047611000e+00 -7.555620000e-01
933500.0 -1.050313000e+00 -7.643340000e-01
943000.0 -1.051152000e+00 -7.724860000e-01
952500.0 -1.055238000e+00 -7.806390000e-01
962000.0 -1.055205000e+00 -7.890280000e-01
971500.0 -1.058465000e+00 -7.994510000e-01
981000.0 -1.063296000e+00 -8.052370000e-01
990500.0 -1.064058000e+00 -8.131640000e-01
1000000.0 -1.065360000e+00 -8.229140000e-01
1090000.0 -1.093585000e+00 -8.988250000e-01
1180000.0 -1.130768000e+00 -9.733260000e-01
1270000.0 -1.178481000e+00 -1.043043000e+00
1360000.0 -1.236400000e+00 -1.102890000e+00
1450000.0 -1.303285000e+00 -1.153853000e+00
1540000.0 -1.382343000e+00 -1.191807000e+00
1630000.0 -1.463074000e+00 -1.211106000e+00
1720000.0 -1.552319000e+00 -1.210186000e+00
1810000.0 -1.643103000e+00 -1.189928000e+00
1900000.0 -1.728997000e+00 -1.153125000e+00
1990000.0 -1.801543000e+00 -1.085063000e+00
2080000.0 -1.860342000e+00 -1.008356000e+00
2170000.0 -1.896234000e+00 -9.205910000e-01
2260000.0 -1.912058000e+00 -8.306930000e-01
2350000.0 -1.915062000e+00 -7.375470000e-01
2440000.0 -1.898165000e+00 -6.513150000e-01
2530000.0 -1.874990000e+00 -5.744830000e-01
2620000.0 -1.842138000e+00 -5.038970000e-01
2710000.0 -1.803092000e+00 -4.415280000e-01
2800000.0 -1.760867000e+00 -3.903530000e-01
2890000.0 -1.720241000e+00 -3.463730000e-01
2980000.0 -1.832838000e+00 -5.538250000e-01
3070000.0 -1.636492000e+00 -2.727180000e-01
3160000.0 -1.596851000e+00 -2.427670000e-01
3250000.0 -1.560146000e+00 -2.171820000e-01
3340000.0 -1.522771000e+00 -1.951420000e-01
3430000.0 -1.491777000e+00 -1.753950000e-01
3520000.0 -1.460233000e+00 -1.549480000e-01
3610000.0 -1.431975000e+00 -1.372490000e-01
3700000.0 -1.403875000e+00 -1.228870000e-01
3790000.0 -1.380204000e+00 -1.061490000e-01
3880000.0 -1.356809000e+00 -9.325800000e-02
3970000.0 -1.335171000e+00 -7.996600000e-02
4060000.0 -1.314715000e+00 -6.757500000e-02
4150000.0 -1.296677000e+00 -5.549700000e-02
4240000.0 -1.279644000e+00 -4.220600000e-02
4330000.0 -1.264292000e+00 -2.964600000e-02
4420000.0 -1.250291000e+00 -1.792000000e-02
4510000.0 -1.236520000e+00 -6.653000000e-03
4600000.0 -1.225522000e+00 5.057000000e-03
4690000.0 -1.214464000e+00 1.622200000e-02
4780000.0 -1.203887000e+00 2.567300000e-02
4870000.0 -1.194794000e+00 3.804400000e-02
4960000.0 -1.188015000e+00 4.859400000e-02
5050000.0 -1.172964000e+00 5.948800000e-02
5140000.0 -1.167861000e+00 7.008700000e-02
5230000.0 -1.162992000e+00 7.968900000e-02
5320000.0 -1.156848000e+00 9.069700000e-02
5410000.0 -1.152569000e+00 1.008290000e-01
5500000.0 -1.148367000e+00 1.128440000e-01
5590000.0 -1.144092000e+00 1.226380000e-01
5680000.0 -1.138994000e+00 1.320180000e-01
5770000.0 -1.136320000e+00 1.410800000e-01
5860000.0 -1.131531000e+00 1.508130000e-01
5950000.0 -1.129176000e+00 1.602810000e-01
6040000.0 -1.125572000e+00 1.689040000e-01
6130000.0 -1.122117000e+00 1.771620000e-01
6220000.0 -1.119997000e+00 1.842740000e-01
6310000.0 -1.117912000e+00 1.919480000e-01
6400000.0 -1.115610000e+00 1.999110000e-01
6490000.0 -1.113414000e+00 2.070470000e-01
6580000.0 -1.110974000e+00 2.128970000e-01
6670000.0 -1.109253000e+00 2.189450000e-01
6760000.0 -1.108120000e+00 2.244450000e-01
6850000.0 -1.106660000e+00 2.278880000e-01
6940000.0 -1.105530000e+00 2.330100000e-01
7030000.0 -1.103508000e+00 2.370770000e-01
7120000.0 -1.102842000e+00 2.384950000e-01
7210000.0 -1.101950000e+00 2.419220000e-01
7300000.0 -1.102785000e+00 2.414950000e-01
7390000.0 -1.101613000e+00 2.426640000e-01
7480000.0 -1.103280000e+00 2.424910000e-01
7570000.0 1.961980000e-01 1.073832000e+00
7660000.0 1.940340000e-01 1.074473000e+00
7750000.0 1.939620000e-01 1.074027000e+00
7840000.0 1.939800000e-01 1.074898000e+00
7930000.0 1.932710000e-01 1.075799000e+00
8020000.0 1.921850000e-01 1.076258000e+00
8110000.0 1.906130000e-01 1.076226000e+00
8200000.0 1.915560000e-01 1.076600000e+00
8290000.0 1.896530000e-01 1.076811000e+00
8380000.0 1.888600000e-01 1.077078000e+00
8470000.0 1.873650000e-01 1.077389000e+00
8560000.0 1.875670000e-01 1.078702000e+00
8650000.0 1.865930000e-01 1.077944000e+00
8740000.0 1.867690000e-01 1.078324000e+00
8830000.0 1.846840000e-01 1.079104000e+00
8920000.0 1.840570000e-01 1.080517000e+00
9010000.0 1.831360000e-01 1.081516000e+00
9100000.0 1.818000000e-01 1.081551000e+00
9190000.0 1.819950000e-01 1.081286000e+00
9280000.0 1.816650000e-01 1.082828000e+00
9370000.0 1.804630000e-01 1.083511000e+00
9460000.0 1.795650000e-01 1.083470000e+00
9550000.0 1.791100000e-01 1.083760000e+00
9640000.0 1.796140000e-01 1.084464000e+00
9730000.0 1.785240000e-01 1.085303000e+00
9820000.0 1.780960000e-01 1.086656000e+00
9910000.0 1.777010000e-01 1.086807000e+00
10000000.0 1.751860000e-01 1.087683000e+00
10900000.0 1.692250000e-01 1.094339000e+00
11800000.0 1.628910000e-01 1.101718000e+00
12700000.0 1.569320000e-01 1.110280000e+00
13600000.0 1.501050000e-01 1.118359000e+00
14500000.0 1.445120000e-01 1.126210000e+00
15400000.0 1.380300000e-01 1.134566000e+00
16300000.0 1.319960000e-01 1.145105000e+00
17200000.0 1.246920000e-01 1.155388000e+00
18100000.0 1.160830000e-01 1.163878000e+00
19000000.0 1.090930000e-01 1.172693000e+00
19900000.0 1.013360000e-01 1.182687000e+00
20800000.0 9.316800000e-02 1.192279000e+00
21700000.0 8.495200000e-02 1.201632000e+00
22600000.0 7.637600000e-02 1.212914000e+00
23500000.0 6.692700000e-02 1.222095000e+00
24400000.0 5.661000000e-02 1.231483000e+00
25300000.0 4.693300000e-02 1.241953000e+00
26200000.0 3.649100000e-02 1.251890000e+00
27100000.0 2.530200000e-02 1.262707000e+00
28000000.0 1.418100000e-02 1.271600000e+00
28900000.0 3.166000000e-03 1.282442000e+00
29800000.0 -9.416000000e-03 1.292947000e+00
30700000.0 -2.108000000e-02 1.301779000e+00
31600000.0 -3.420000000e-02 1.311135000e+00
32500000.0 -4.799200000e-02 1.322228000e+00
33400000.0 -6.275000000e-02 1.331990000e+00
34300000.0 -7.638000000e-02 1.341674000e+00
35200000.0 -9.227100000e-02 1.351135000e+00
36100000.0 -1.056250000e-01 1.360187000e+00
37000000.0 -1.208430000e-01 1.369362000e+00
37900000.0 -1.363610000e-01 1.379914000e+00
38800000.0 -1.545170000e-01 1.388377000e+00
39700000.0 -1.702160000e-01 1.396821000e+00
40600000.0 -1.887180000e-01 1.404577000e+00
41500000.0 -2.064420000e-01 1.412670000e+00
42400000.0 -2.245660000e-01 1.420463000e+00
43300000.0 -2.440590000e-01 1.428457000e+00
44200000.0 -2.625310000e-01 1.435159000e+00
45100000.0 -2.817850000e-01 1.442038000e+00
46000000.0 -3.027310000e-01 1.448581000e+00
46900000.0 -3.218130000e-01 1.454148000e+00
47800000.0 -3.423870000e-01 1.459516000e+00
48700000.0 -3.646730000e-01 1.463784000e+00
49600000.0 -3.870260000e-01 1.467581000e+00
50500000.0 -4.090490000e-01 1.471782000e+00
51400000.0 -4.321170000e-01 1.474652000e+00
52300000.0 -4.543430000e-01 1.477217000e+00
53200000.0 -4.760560000e-01 1.479543000e+00
54100000.0 -4.998500000e-01 1.481452000e+00
55000000.0 -5.241550000e-01 1.482139000e+00
55900000.0 -5.465130000e-01 1.482077000e+00
56800000.0 -5.717830000e-01 1.482050000e+00
57700000.0 -5.945760000e-01 1.480454000e+00
58600000.0 -6.193620000e-01 1.477404000e+00
59500000.0 -6.434920000e-01 1.475696000e+00
60400000.0 -6.668260000e-01 1.471031000e+00
61300000.0 -6.920600000e-01 1.468612000e+00
62200000.0 -7.153940000e-01 1.463024000e+00
63100000.0 -7.405030000e-01 1.456422000e+00
64000000.0 -7.621540000e-01 1.450911000e+00
64900000.0 -7.889880000e-01 1.443902000e+00
65800000.0 -8.128480000e-01 1.436046000e+00
66700000.0 -8.355630000e-01 1.427672000e+00
67600000.0 -8.600930000e-01 1.417407000e+00
68500000.0 -8.846150000e-01 1.408901000e+00
69400000.0 -9.065670000e-01 1.398675000e+00
70300000.0 -9.312760000e-01 1.386988000e+00
71200000.0 -9.534300000e-01 1.375790000e+00
72100000.0 -9.740520000e-01 1.361446000e+00
73000000.0 -9.970470000e-01 1.348221000e+00
73900000.0 -1.019621000e+00 1.335079000e+00
74800000.0 -1.039874000e+00 1.321191000e+00
75700000.0 -1.061538000e+00 1.304428000e+00
76600000.0 -1.080142000e+00 1.289658000e+00
77500000.0 -1.101110000e+00 1.271653000e+00
78400000.0 -1.119949000e+00 1.256377000e+00
79300000.0 -1.138628000e+00 1.238737000e+00
80200000.0 -1.158480000e+00 1.219054000e+00
81100000.0 -1.176343000e+00 1.200427000e+00
82000000.0 -1.192793000e+00 1.182074000e+00
82900000.0 -1.209272000e+00 1.162714000e+00
83800000.0 -1.225981000e+00 1.141103000e+00
84700000.0 -1.239328000e+00 1.121997000e+00
85600000.0 -1.255183000e+00 1.101133000e+00
86500000.0 -1.268597000e+00 1.080388000e+00
87400000.0 -1.282840000e+00 1.059756000e+00
88300000.0 -1.295224000e+00 1.037094000e+00
89200000.0 -1.307255000e+00 1.013838000e+00
90100000.0 -1.317697000e+00 9.909570000e-01
91000000.0 -1.328788000e+00 9.688860000e-01
91900000.0 -1.338838000e+00 9.471020000e-01
92800000.0 -1.349258000e+00 9.237700000e-01
93700000.0 -1.354299000e+00 8.997230000e-01
94600000.0 -1.362954000e+00 8.779000000e-01
95500000.0 -1.368192000e+00 8.544470000e-01
96400000.0 -1.376510000e+00 8.309220000e-01
97300000.0 -1.380892000e+00 8.067640000e-01
98200000.0 -1.383665000e+00 7.846090000e-01
99100000.0 -1.388369000e+00 7.613310000e-01
100000000.0 -1.392414000e+00 7.371100000e-01
109000000.0 -1.385385000e+00 5.209140000e-01
118000000.0 -1.331386000e+00 3.392200000e-01
127000000.0 -1.250427000e+00 1.994590000e-01
136000000.0 -1.135357000e+00 1.001840000e-01
145000000.0 -1.047438000e+00 2.957500000e-02
154000000.0 -1.000522000e+00 -6.650000000e-04
163000000.0 -1.003079000e+00 -3.843000000e-03
172000000.0 -1.004166000e+00 -6.207000000e-03
181000000.0 -1.005490000e+00 -7.660000000e-03
190000000.0 -1.007566000e+00 -9.477000000e-03
199000000.0 -1.008726000e+00 -9.605000000e-03
208000000.0 -1.009587000e+00 -1.137600000e-02
217000000.0 -1.010285000e+00 -1.145400000e-02
226000000.0 -1.010192000e+00 -1.122200000e-02
235000000.0 -1.009953000e+00 -1.188300000e-02
244000000.0 -1.009963000e+00 -1.084100000e-02
253000000.0 -1.009355000e+00 -8.945000000e-03
262000000.0 -1.008323000e+00 -8.540000000e-03
271000000.0 -1.006600000e+00 -7.147000000e-03
280000000.0 -1.004500000e+00 -6.390000000e-03
289000000.0 -1.001953000e+00 -2.986000000e-03
298000000.0 -1.000259000e+00 -8.670000000e-04
307000000.0 -1.001940000e+00 -1.224000000e-03
316000000.0 -1.006795000e+00 -6.700000000e-05
325000000.0 -1.007765000e+00 -1.399000000e-03
334000000.0 -1.009679000e+00 -2.338000000e-03
343000000.0 -1.011443000e+00 -1.525000000e-03
352000000.0 -1.014867000e+00 -1.618000000e-03
361000000.0 -9.415250000e-01 1.013600000e-01
370000000.0 -1.014957000e+00 -4.373000000e-03
379000000.0 -1.014055000e+00 -4.147000000e-03
388000000.0 -1.014795000e+00 -3.836000000e-03
397000000.0 -1.012973000e+00 -2.773000000e-03
406000000.0 -1.015493000e+00 -2.424800000e-02
415000000.0 -1.011026000e+00 -2.711000000e-03
424000000.0 -1.009451000e+00 -2.988000000e-03
433000000.0 -1.005081000e+00 -2.130000000e-03
442000000.0 -1.004407000e+00 -8.710000000e-04
451000000.0 -1.002443000e+00 6.490000000e-04
460000000.0 -1.005262000e+00 -1.700000000e-05
469000000.0 -1.006888000e+00 1.392000000e-03
478000000.0 -1.010545000e+00 1.622000000e-03
487000000.0 -1.011831000e+00 2.918000000e-03
496000000.0 -1.014012000e+00 2.302000000e-03
505000000.0 -1.016674000e+00 2.756000000e-03
514000000.0 -1.016909000e+00 3.475000000e-03
523000000.0 -1.018677000e+00 3.634000000e-03
532000000.0 -1.016012000e+00 3.556000000e-03
541000000.0 -1.016989000e+00 3.458000000e-03
550000000.0 -1.013795000e+00 -3.710000000e-04
559000000.0 -1.013635000e+00 1.656000000e-03
568000000.0 -1.012665000e+00 1.321000000e-03
577000000.0 -1.007694000e+00 -9.600000000e-05
586000000.0 -1.006876000e+00 9.800000000e-04
595000000.0 -1.002484000e+00 4.410000000e-03
604000000.0 -1.001290000e+00 1.397000000e-03
613000000.0 -1.001193000e+00 2.245300000e-02
622000000.0 -1.006504000e+00 7.651000000e-03
631000000.0 -1.008929000e+00 7.684000000e-03
640000000.0 -1.008667000e+00 1.024300000e-02
649000000.0 -1.010166000e+00 1.281800000e-02
658000000.0 -1.009839000e+00 9.203000000e-03
667000000.0 -1.009484000e+00 1.328200000e-02
676000000.0 -1.010365000e+00 1.413000000e-02
685000000.0 -1.012536000e+00 -3.577000000e-03
694000000.0 -1.007821000e+00 1.376900000e-02
703000000.0 -1.006456000e+00 1.144000000e-02
712000000.0 -1.009491000e+00 1.370900000e-02
721000000.0 -1.005555000e+00 1.134200000e-02
730000000.0 -1.002909000e+00 7.304000000e-03
739000000.0 -1.004461000e+00 3.592000000e-03
748000000.0 -9.978800000e-01 5.143000000e-03
757000000.0 -9.970850000e-01 2.529000000e-03
766000000.0 -9.967210000e-01 6.259000000e-03
775000000.0 -1.000547000e+00 3.892000000e-03
784000000.0 -9.993010000e-01 6.524000000e-03
793000000.0 -1.000624000e+00 8.768000000e-03
802000000.0 -1.001225000e+00 5.753000000e-03
811000000.0 -9.980760000e-01 1.007600000e-02
820000000.0 -9.966710000e-01 8.791000000e-03
829000000.0 -9.971980000e-01 4.626000000e-03
838000000.0 -9.984890000e-01 6.497000000e-03
847000000.0 -9.968800000e-01 9.496000000e-03
856000000.0 -9.979880000e-01 5.169000000e-03
865000000.0 -9.964360000e-01 3.449000000e-03
874000000.0 -9.969260000e-01 1.454000000e-03
883000000.0 -9.985670000e-01 8.450000000e-04
892000000.0 -1.003124000e+00 -1.520000000e-04
901000000.0 -1.003378000e+00 -1.485000000e-03
910000000.0 -9.965410000e-01 -2.236000000e-03
919000000.0 -9.981980000e-01 -6.612000000e-03
928000000.0 -9.970110000e-01 -4.384000000e-03
937000000.0 -1.000043000e+00 -1.196800000e-02
946000000.0 -1.003848000e+00 -7.616000000e-03
955000000.0 -9.998530000e-01 -7.350000000e-03
964000000.0 -1.000651000e+00 -1.006600000e-02
973000000.0 -9.980960000e-01 -1.965000000e-03
982000000.0 -1.000277000e+00 -6.230000000e-03
991000000.0 -1.002054000e+00 -3.656000000e-03
1000000000.0 -1.000351000e+00 -6.418000000e-03
1004500000.0 -1.002972000e+00 -1.261600000e-02
1009000000.0 -9.984920000e-01 1.170200000e-02
1013500000.0 -1.002039000e+00 -5.439000000e-03
1018000000.0 -1.003986000e+00 -2.600900000e-02
1022500000.0 -1.001422000e+00 -1.034400000e-02
1027000000.0 -9.973200000e-01 1.144700000e-02
1031500000.0 -1.003062000e+00 -9.981000000e-03
1036000000.0 -1.002683000e+00 -8.161000000e-03
1040500000.0 -1.001082000e+00 -1.929000000e-03
1045000000.0 -1.001389000e+00 -8.132000000e-03
1049500000.0 -1.002918000e+00 -3.283000000e-03
1054000000.0 -1.002276000e+00 -8.132000000e-03
1058500000.0 -1.003680000e+00 -5.931000000e-03
1063000000.0 -1.003400000e+00 -1.531000000e-03
1067500000.0 -1.000975000e+00 -2.500000000e-04
1072000000.0 -1.001988000e+00 -1.128100000e-02
1076500000.0 -1.002047000e+00 -7.065000000e-03
1081000000.0 -1.002951000e+00 -7.998000000e-03
1085500000.0 -1.006886000e+00 -1.243200000e-02
1090000000.0 -1.003871000e+00 -9.566000000e-03
1094500000.0 -1.007018000e+00 -1.520500000e-02
1099000000.0 -1.003790000e+00 -1.881200000e-02
1103500000.0 -1.005458000e+00 -1.196700000e-02
1108000000.0 -1.006058000e+00 -1.036600000e-02
1112500000.0 -1.008635000e+00 -1.020400000e-02
1117000000.0 -1.005001000e+00 -2.867000000e-03
1121500000.0 -1.003672000e+00 -1.402100000e-02
1126000000.0 -9.976630000e-01 2.324300000e-02
1130500000.0 -1.005461000e+00 -1.475500000e-02
1135000000.0 -1.005309000e+00 -7.539000000e-03
1139500000.0 -1.009803000e+00 -9.550000000e-03
1144000000.0 -9.922480000e-01 2.329600000e-02
1148500000.0 -1.018803000e+00 -5.900000000e-02
1153000000.0 -9.962540000e-01 2.400200000e-02
1157500000.0 -1.000122000e+00 -4.254000000e-03
1162000000.0 -1.014420000e+00 -4.182300000e-02
1166500000.0 -1.007058000e+00 -2.429000000e-03
1171000000.0 -1.003847000e+00 -5.308000000e-03
1175500000.0 -1.002576000e+00 -1.162400000e-02
1180000000.0 -1.001459000e+00 -7.158000000e-03
1184500000.0 -1.001442000e+00 -8.130000000e-04
1189000000.0 -9.999960000e-01 -1.231700000e-02
1193500000.0 -9.991750000e-01 -7.760000000e-03
1198000000.0 -9.984090000e-01 -1.624000000e-03
1202500000.0 -1.000684000e+00 -3.053000000e-03
1207000000.0 -9.947830000e-01 6.860000000e-04
1211500000.0 -9.994800000e-01 -3.941000000e-03
1216000000.0 -9.994700000e-01 9.710000000e-04
1220500000.0 -1.003323000e+00 -4.320000000e-04
1225000000.0 -9.970070000e-01 2.907000000e-03
1229500000.0 -1.001322000e+00 -5.338000000e-03
1234000000.0 -9.990290000e-01 1.692000000e-03
1238500000.0 -1.000688000e+00 -8.377000000e-03
1243000000.0 -1.003795000e+00 -7.160000000e-04
1247500000.0 -1.002637000e+00 -1.198300000e-02
1252000000.0 -1.004560000e+00 -9.580000000e-03
1256500000.0 -1.006132000e+00 -1.069500000e-02
1261000000.0 -1.007760000e+00 -1.872600000e-02
1265500000.0 -1.009416000e+00 -1.461300000e-02
1270000000.0 -1.005731000e+00 -2.105000000e-03
1274500000.0 -1.008143000e+00 -9.429000000e-03
1279000000.0 -1.007201000e+00 -6.084000000e-03
1283500000.0 -1.003790000e+00 -1.099900000e-02
1288000000.0 -1.003709000e+00 -5.669000000e-03
1292500000.0 -1.002593000e+00 -5.606000000e-03
1297000000.0 -1.007148000e+00 -9.269000000e-03
1301500000.0 -1.004921000e+00 -1.139400000e-02
1306000000.0 -9.976050000e-01 -7.967000000e-03
1310500000.0 -9.985220000e-01 -1.142400000e-02
1315000000.0 -1.000737000e+00 -4.468000000e-03
1319500000.0 -1.001746000e+00 -1.177000000e-02
1324000000.0 -1.003469000e+00 4.682000000e-03
1328500000.0 -9.982490000e-01 -1.477200000e-02
1333000000.0 -9.867800000e-01 -2.948000000e-03
1337500000.0 -9.966530000e-01 -6.925000000e-03
1342000000.0 -9.956710000e-01 -1.755000000e-03
1346500000.0 -9.875100000e-01 -6.869000000e-03
1351000000.0 -1.000647000e+00 -1.169700000e-02
1355500000.0 -9.953930000e-01 -8.860000000e-04
1360000000.0 -9.972520000e-01 -3.177000000e-03
1364500000.0 -1.000952000e+00 1.848000000e-03
1369000000.0 -9.930190000e-01 2.559000000e-03
1373500000.0 -1.000657000e+00 -5.659000000e-03
1378000000.0 -1.006245000e+00 -9.327000000e-03
1382500000.0 -1.003173000e+00 4.428000000e-03
1387000000.0 -9.997100000e-01 -1.030000000e-04
1391500000.0 -1.004013000e+00 6.620000000e-04
1396000000.0 -1.003452000e+00 -4.737000000e-03
1400500000.0 -1.010120000e+00 5.016000000e-03
1405000000.0 -1.001845000e+00 -4.811000000e-03
1409500000.0 -1.010144000e+00 -1.347700000e-02
1414000000.0 -1.011451000e+00 3.123000000e-03
1418500000.0 -1.007360000e+00 -2.959000000e-03
1423000000.0 -1.006179000e+00 -1.134900000e-02
1427500000.0 -1.015539000e+00 -3.825000000e-03
1432000000.0 -1.011269000e+00 -2.490000000e-03
1436500000.0 -1.011689000e+00 -9.699000000e-03
1441000000.0 -1.012683000e+00 -4.992000000e-03
1445500000.0 -1.008495000e+00 -1.131400000e-02
1450000000.0 -1.008803000e+00 -6.326000000e-03
