! piloto_deriva / corto_deriva / r53
# HZ S RI R 50
50000.0 -9.962500000e-01 -3.574900000e-02
59500.0 -9.970290000e-01 -1.738900000e-02
69000.0 -9.978430000e-01 -9.413000000e-03
78500.0 -9.985670000e-01 -1.536000000e-03
88000.0 -9.989410000e-01 6.630000000e-04
97500.0 -9.991030000e-01 -1.240000000e-04
107000.0 -1.000507000e+00 -2.114000000e-03
116500.0 -1.000400000e+00 -6.659000000e-03
126000.0 -9.989250000e-01 -1.097000000e-02
135500.0 -9.998990000e-01 -1.596600000e-02
145000.0 -9.995490000e-01 -2.273400000e-02
154500.0 -9.996760000e-01 -2.973400000e-02
164000.0 -1.000494000e+00 -3.725400000e-02
173500.0 -9.999370000e-01 -4.364800000e-02
183000.0 -9.995570000e-01 -5.205300000e-02
192500.0 -9.996650000e-01 -6.007300000e-02
202000.0 -9.999070000e-01 -6.854800000e-02
211500.0 -1.000720000e+00 -7.764900000e-02
221000.0 -1.000615000e+00 -8.689800000e-02
230500.0 -1.000353000e+00 -9.485300000e-02
240000.0 -1.000337000e+00 -1.039910000e-01
249500.0 -1.001540000e+00 -1.132860000e-01
259000.0 -1.001057000e+00 -1.229840000e-01
268500.0 -1.001596000e+00 -1.315830000e-01
278000.0 -1.001776000e+00 -1.408440000e-01
287500.0 -1.001698000e+00 -1.501990000e-01
297000.0 -1.002178000e+00 -1.594830000e-01
306500.0 -1.002132000e+00 -1.695860000e-01
316000.0 -1.002538000e+00 -1.782450000e-01
325500.0 -1.002710000e+00 -1.884490000e-01
335000.0 -1.003235000e+00 -1.970830000e-01
344500.0 -1.003778000e+00 -2.061690000e-01
354000.0 -1.003739000e+00 -2.162470000e-01
363500.0 -1.003269000e+00 -2.258250000e-01
373000.0 -1.002873000e+00 -2.343090000e-01
382500.0 -1.004710000e+00 -2.433020000e-01
392000.0 -1.004155000e+00 -2.520450000e-01
401500.0 -1.004810000e+00 -2.619310000e-01
411000.0 -1.004553000e+00 -2.702330000e-01
420500.0 -1.005005000e+00 -2.805800000e-01
430000.0 -1.004925000e+00 -2.904100000e-01
439500.0 -1.004404000e+00 -2.997280000e-01
449000.0 -1.006014000e+00 -3.088970000e-01
458500.0 -1.005549000e+00 -3.182650000e-01
468000.0 -1.006197000e+00 -3.280520000e-01
477500.0 -1.006463000e+00 -3.379440000e-01
487000.0 -1.007855000e+00 -3.467670000e-01
496500.0 -1.006234000e+00 -3.542390000e-01
506000.0 -1.007357000e+00 -3.643720000e-01
515500.0 -1.006397000e+00 -3.745410000e-01
525000.0 -1.007534000e+00 -3.833780000e-01
534500.0 -1.008042000e+00 -3.922670000e-01
544000.0 -1.008770000e+00 -4.024130000e-01
553500.0 -1.020564000e+00 -4.269010000e-01
563000.0 -1.009954000e+00 -4.207540000e-01
572500.0 -1.008889000e+00 -4.284770000e-01
582000.0 -1.009972000e+00 -4.399950000e-01
591500.0 -1.010417000e+00 -4.481680000e-01
601000.0 -1.010478000e+00 -4.572600000e-01
610500.0 -1.011440000e+00 -4.663210000e-01
620000.0 -1.012027000e+00 -4.753000000e-01
629500.0 -1.012415000e+00 -4.839520000e-01
639000.0 -1.012797000e+00 -4.936270000e-01
648500.0 -1.013089000e+00 -5.024820000e-01
658000.0 -1.014606000e+00 -5.121190000e-01
667500.0 -1.014554000e+00 -5.207480000e-01
677000.0 -1.015762000e+00 -5.285280000e-01
686500.0 -1.016612000e+00 -5.381640000e-01
696000.0 -1.016544000e+00 -5.482490000e-01
705500.0 -1.018368000e+00 -5.577610000e-01
715000.0 -1.018834000e+00 -5.652160000e-01
724500.0 -1.020732000e+00 -5.745850000e-01
734000.0 -1.021272000e+00 -5.830990000e-01
743500.0 -1.021324000e+00 -5.918960000e-01
753000.0 -1.022885000e+00 -6.001190000e-01
762500.0 -1.024282000e+00 -6.103960000e-01
772000.0 -1.024851000e+00 -6.201570000e-01
781500.0 -1.025818000e+00 -6.288260000e-01
791000.0 -1.027370000e+00 -6.371960000e-01
800500.0 -1.027617000e+00 -6.463860000e-01
810000.0 -1.029835000e+00 -6.548380000e-01
819500.0 -1.030100000e+00 -6.622700000e-01
829000.0 -1.032453000e+00 -6.726880000e-01
838500.0 -1.033976000e+00 -6.808630000e-01
848000.0 -1.034289000e+00 -6.899660000e-01
857500.0 -1.036982000e+00 -6.978010000e-01
867000.0 -1.038121000e+00 -7.068970000e-01
876500.0 -1.039759000e+00 -7.173960000e-01
886000.0 -1.041651000e+00 -7.247440000e-01
895500.0 -1.042804000e+00 -7.332180000e-01
905000.0 -1.045986000e+00 -7.419130000e-01
914500.0 -1.047310000e+00 -7.509030000e-01
924000.0 -1.049930000e+00 -7.594170000e-01
933500.0 -1.051194000e+00 -7.677780000e-01
943000.0 -1.053900000e+00 -7.757060000e-01
952500.0 -1.056065000e+00 -7.849070000e-01
962000.0 -1.057576000e+00 -7.933970000e-01
971500.0 -1.061283000e+00 -8.014760000e-01
981000.0 -1.064018000e+00 -8.099700000e-01
990500.0 -1.065984000e+00 -8.196690000e-01
1000000.0 -1.069130000e+00 -8.263670000e-01
1090000.0 -1.098199000e+00 -9.039040000e-01
1180000.0 -1.136491000e+00 -9.791880000e-01
1270000.0 -1.183768000e+00 -1.046530000e+00
1360000.0 -1.242225000e+00 -1.106758000e+00
1450000.0 -1.310686000e+00 -1.158692000e+00
1540000.0 -1.389070000e+00 -1.194387000e+00
1630000.0 -1.474670000e+00 -1.209664000e+00
1720000.0 -1.566688000e+00 -1.209924000e+00
1810000.0 -1.652545000e+00 -1.189414000e+00
1900000.0 -1.737097000e+00 -1.142458000e+00
1990000.0 -1.810832000e+00 -1.078435000e+00
2080000.0 -1.866107000e+00 -9.992340000e-01
2170000.0 -1.903340000e+00 -9.097430000e-01
2260000.0 -1.918096000e+00 -8.153330000e-01
2350000.0 -1.917920000e+00 -7.238900000e-01
2440000.0 -1.899108000e+00 -6.402030000e-01
2530000.0 -1.873980000e+00 -5.618770000e-01
2620000.0 -1.837855000e+00 -4.965570000e-01
2710000.0 -1.799208000e+00 -4.354990000e-01
2800000.0 -1.756052000e+00 -3.829480000e-01
2890000.0 -1.713584000e+00 -3.415310000e-01
2980000.0 -1.672048000e+00 -3.015000000e-01
3070000.0 -1.629134000e+00 -2.697720000e-01
3160000.0 -1.589889000e+00 -2.383360000e-01
3250000.0 -1.555564000e+00 -2.152680000e-01
3340000.0 -1.522742000e+00 -1.923340000e-01
3430000.0 -1.487453000e+00 -1.709400000e-01
3520000.0 -1.457312000e+00 -1.523540000e-01
3610000.0 -1.428100000e+00 -1.364170000e-01
3700000.0 -1.401283000e+00 -1.214020000e-01
3790000.0 -1.377381000e+00 -1.073570000e-01
3880000.0 -1.355291000e+00 -9.326500000e-02
3970000.0 -1.331464000e+00 -8.089600000e-02
4060000.0 -1.313178000e+00 -6.787800000e-02
4150000.0 -1.295562000e+00 -5.520700000e-02
4240000.0 -1.277874000e+00 -4.263900000e-02
4330000.0 -1.261660000e+00 -3.146100000e-02
4420000.0 -1.249391000e+00 -1.835800000e-02
4510000.0 -1.235709000e+00 -7.087000000e-03
4600000.0 -1.223763000e+00 3.922000000e-03
4690000.0 -1.214898000e+00 1.498300000e-02
4780000.0 -1.203009000e+00 2.645900000e-02
4870000.0 -1.194762000e+00 3.647500000e-02
4960000.0 -1.186865000e+00 4.826700000e-02
5050000.0 -1.172721000e+00 5.827600000e-02
5140000.0 -1.166003000e+00 6.752100000e-02
5230000.0 -1.162381000e+00 8.074500000e-02
5320000.0 -1.155699000e+00 9.074000000e-02
5410000.0 -1.152454000e+00 1.011760000e-01
5500000.0 -1.147434000e+00 1.117770000e-01
5590000.0 -1.141924000e+00 1.215290000e-01
5680000.0 -1.138867000e+00 1.310290000e-01
5770000.0 -1.135892000e+00 1.401760000e-01
5860000.0 -1.131809000e+00 1.511440000e-01
5950000.0 -1.128113000e+00 1.597570000e-01
6040000.0 -1.126267000e+00 1.687710000e-01
6130000.0 -1.123486000e+00 1.761460000e-01
6220000.0 -1.119528000e+00 1.843150000e-01
6310000.0 -1.115661000e+00 1.918070000e-01
6400000.0 -1.115081000e+00 1.991540000e-01
6490000.0 -1.112594000e+00 2.062500000e-01
6580000.0 -1.110308000e+00 2.124590000e-01
6670000.0 -1.108084000e+00 2.186910000e-01
6760000.0 -1.106886000e+00 2.237030000e-01
6850000.0 -1.106034000e+00 2.287700000e-01
6940000.0 -1.105065000e+00 2.331600000e-01
7030000.0 -1.103414000e+00 2.366630000e-01
7120000.0 -1.103834000e+00 2.381380000e-01
7210000.0 -1.101956000e+00 2.396740000e-01
7300000.0 -1.102689000e+00 2.429940000e-01
7390000.0 -1.102195000e+00 2.433510000e-01
7480000.0 -1.101732000e+00 2.416020000e-01
7570000.0 1.951870000e-01 1.073049000e+00
7660000.0 1.948160000e-01 1.074534000e+00
7750000.0 1.942860000e-01 1.073629000e+00
7840000.0 1.939770000e-01 1.073632000e+00
7930000.0 1.922350000e-01 1.074684000e+00
8020000.0 1.919930000e-01 1.075492000e+00
8110000.0 1.910210000e-01 1.075376000e+00
8200000.0 1.897520000e-01 1.075276000e+00
8290000.0 1.886530000e-01 1.076131000e+00
8380000.0 1.885460000e-01 1.077639000e+00
8470000.0 1.875350000e-01 1.076767000e+00
8560000.0 1.852020000e-01 1.078956000e+00
8650000.0 1.867940000e-01 1.078997000e+00
8740000.0 1.859020000e-01 1.078385000e+00
8830000.0 1.853060000e-01 1.078897000e+00
8920000.0 1.840080000e-01 1.079504000e+00
9010000.0 1.837170000e-01 1.080979000e+00
9100000.0 1.824760000e-01 1.080834000e+00
9190000.0 1.825830000e-01 1.081859000e+00
9280000.0 1.819870000e-01 1.082313000e+00
9370000.0 1.808390000e-01 1.082698000e+00
9460000.0 1.789150000e-01 1.083930000e+00
9550000.0 1.803400000e-01 1.083468000e+00
9640000.0 1.779740000e-01 1.085141000e+00
9730000.0 1.774810000e-01 1.085511000e+00
9820000.0 1.774790000e-01 1.086043000e+00
9910000.0 1.761930000e-01 1.087130000e+00
10000000.0 1.758580000e-01 1.088127000e+00
10900000.0 1.694610000e-01 1.094311000e+00
11800000.0 1.636970000e-01 1.101429000e+00
12700000.0 1.565820000e-01 1.110011000e+00
13600000.0 1.509710000e-01 1.118686000e+00
14500000.0 1.448220000e-01 1.126909000e+00
15400000.0 1.374700000e-01 1.135945000e+00
16300000.0 1.309220000e-01 1.144765000e+00
17200000.0 1.243250000e-01 1.154466000e+00
18100000.0 1.166710000e-01 1.162286000e+00
19000000.0 1.089080000e-01 1.172912000e+00
19900000.0 1.013620000e-01 1.182363000e+00
20800000.0 9.247000000e-02 1.192596000e+00
21700000.0 8.444100000e-02 1.201713000e+00
22600000.0 7.557000000e-02 1.211305000e+00
23500000.0 6.656000000e-02 1.220891000e+00
24400000.0 5.704000000e-02 1.231657000e+00
25300000.0 4.664800000e-02 1.241981000e+00
26200000.0 3.775200000e-02 1.251146000e+00
27100000.0 2.531500000e-02 1.260881000e+00
28000000.0 1.386200000e-02 1.272362000e+00
28900000.0 2.680000000e-03 1.281117000e+00
29800000.0 -8.863000000e-03 1.292168000e+00
30700000.0 -2.103300000e-02 1.302110000e+00
31600000.0 -3.444000000e-02 1.312355000e+00
32500000.0 -4.922900000e-02 1.321178000e+00
33400000.0 -6.189000000e-02 1.330776000e+00
34300000.0 -7.624700000e-02 1.342091000e+00
35200000.0 -9.271000000e-02 1.351463000e+00
36100000.0 -1.058610000e-01 1.361498000e+00
37000000.0 -1.226710000e-01 1.369547000e+00
37900000.0 -1.372360000e-01 1.379333000e+00
38800000.0 -1.531920000e-01 1.387158000e+00
39700000.0 -1.711360000e-01 1.396410000e+00
40600000.0 -1.882980000e-01 1.404325000e+00
41500000.0 -2.053950000e-01 1.412374000e+00
42400000.0 -2.244380000e-01 1.420364000e+00
43300000.0 -2.436110000e-01 1.427408000e+00
44200000.0 -2.632530000e-01 1.435469000e+00
45100000.0 -2.823430000e-01 1.441357000e+00
46000000.0 -3.033500000e-01 1.448069000e+00
46900000.0 -3.227550000e-01 1.452376000e+00
47800000.0 -3.434550000e-01 1.458196000e+00
48700000.0 -3.659780000e-01 1.463594000e+00
49600000.0 -3.875100000e-01 1.468107000e+00
50500000.0 -4.097140000e-01 1.472341000e+00
51400000.0 -4.322070000e-01 1.476263000e+00
52300000.0 -4.534760000e-01 1.477537000e+00
53200000.0 -4.766660000e-01 1.480435000e+00
54100000.0 -4.999800000e-01 1.482015000e+00
55000000.0 -5.235160000e-01 1.481257000e+00
55900000.0 -5.449320000e-01 1.481498000e+00
56800000.0 -5.691830000e-01 1.481145000e+00
57700000.0 -5.945180000e-01 1.480274000e+00
58600000.0 -6.188520000e-01 1.478030000e+00
59500000.0 -6.439480000e-01 1.475579000e+00
60400000.0 -6.687870000e-01 1.471818000e+00
61300000.0 -6.918880000e-01 1.467497000e+00
62200000.0 -7.154380000e-01 1.462971000e+00
63100000.0 -7.392600000e-01 1.456466000e+00
64000000.0 -7.639340000e-01 1.450551000e+00
64900000.0 -7.892330000e-01 1.442837000e+00
65800000.0 -8.120320000e-01 1.436010000e+00
66700000.0 -8.361780000e-01 1.428561000e+00
67600000.0 -8.591670000e-01 1.417044000e+00
68500000.0 -8.839330000e-01 1.409764000e+00
69400000.0 -9.075550000e-01 1.399218000e+00
70300000.0 -9.319480000e-01 1.385624000e+00
71200000.0 -9.508870000e-01 1.372997000e+00
72100000.0 -9.745410000e-01 1.360467000e+00
73000000.0 -9.974750000e-01 1.349198000e+00
73900000.0 -1.018633000e+00 1.334456000e+00
74800000.0 -1.039003000e+00 1.318409000e+00
75700000.0 -1.059735000e+00 1.305555000e+00
76600000.0 -1.080532000e+00 1.288365000e+00
77500000.0 -1.101326000e+00 1.272272000e+00
78400000.0 -1.121456000e+00 1.254908000e+00
79300000.0 -1.140036000e+00 1.237208000e+00
80200000.0 -1.159239000e+00 1.218782000e+00
81100000.0 -1.174661000e+00 1.200149000e+00
82000000.0 -1.193166000e+00 1.181838000e+00
82900000.0 -1.208620000e+00 1.161821000e+00
83800000.0 -1.224909000e+00 1.141869000e+00
84700000.0 -1.240354000e+00 1.122516000e+00
85600000.0 -1.255074000e+00 1.099879000e+00
86500000.0 -1.268710000e+00 1.078859000e+00
87400000.0 -1.283191000e+00 1.059150000e+00
88300000.0 -1.294449000e+00 1.035721000e+00
89200000.0 -1.307236000e+00 1.013345000e+00
90100000.0 -1.318061000e+00 9.910300000e-01
91000000.0 -1.329292000e+00 9.686120000e-01
91900000.0 -1.338003000e+00 9.463300000e-01
92800000.0 -1.346587000e+00 9.231780000e-01
93700000.0 -1.353393000e+00 8.988090000e-01
94600000.0 -1.361414000e+00 8.777640000e-01
95500000.0 -1.367262000e+00 8.536020000e-01
96400000.0 -1.374272000e+00 8.302400000e-01
97300000.0 -1.380070000e+00 8.074090000e-01
98200000.0 -1.383684000e+00 7.845710000e-01
99100000.0 -1.387821000e+00 7.612020000e-01
100000000.0 -1.392243000e+00 7.365130000e-01
109000000.0 -1.384995000e+00 5.213420000e-01
118000000.0 -1.330987000e+00 3.383470000e-01
127000000.0 -1.249656000e+00 2.006090000e-01
136000000.0 -1.134601000e+00 1.005340000e-01
145000000.0 -1.046333000e+00 2.993900000e-02
154000000.0 -1.000582000e+00 -4.870000000e-04
163000000.0 -1.002465000e+00 -4.569000000e-03
172000000.0 -1.003780000e+00 -5.863000000e-03
181000000.0 -1.006410000e+00 -7.847000000e-03
190000000.0 -1.007330000e+00 -9.621000000e-03
199000000.0 -1.008743000e+00 -1.012300000e-02
208000000.0 -1.009577000e+00 -1.079100000e-02
217000000.0 -1.011070000e+00 -1.239900000e-02
226000000.0 -1.009512000e+00 -1.084500000e-02
235000000.0 -1.010241000e+00 -1.296300000e-02
244000000.0 -1.010473000e+00 -1.107500000e-02
253000000.0 -1.008836000e+00 -1.041500000e-02
262000000.0 -1.007810000e+00 -8.983000000e-03
271000000.0 -1.006102000e+00 -5.013000000e-03
280000000.0 -1.004309000e+00 -6.396000000e-03
289000000.0 -1.002022000e+00 -3.149000000e-03
298000000.0 -1.001033000e+00 -2.649000000e-03
307000000.0 -1.003052000e+00 -1.300000000e-03
316000000.0 -1.004291000e+00 -1.505000000e-03
325000000.0 -1.007248000e+00 -2.624000000e-03
334000000.0 -1.009956000e+00 -1.692000000e-03
343000000.0 -1.011899000e+00 -7.570000000e-04
352000000.0 -9.617940000e-01 6.489100000e-02
361000000.0 -1.014585000e+00 -4.254000000e-03
370000000.0 -1.016085000e+00 -4.107000000e-03
379000000.0 -1.015598000e+00 -4.467000000e-03
388000000.0 -1.013962000e+00 -4.812000000e-03
397000000.0 -1.012766000e+00 -3.822000000e-03
406000000.0 -1.010174000e+00 1.364000000e-02
415000000.0 -1.012370000e+00 -2.206700000e-02
424000000.0 -1.006341000e+00 1.650900000e-02
433000000.0 -1.007011000e+00 -6.290000000e-04
442000000.0 -1.004717000e+00 -1.928100000e-02
451000000.0 -1.000879000e+00 -3.780000000e-04
460000000.0 -1.001269000e+00 1.651600000e-02
469000000.0 -1.008030000e+00 1.513000000e-03
478000000.0 -1.012151000e+00 -1.601300000e-02
487000000.0 -1.013234000e+00 3.333000000e-03
496000000.0 -1.015027000e+00 3.296000000e-03
505000000.0 -1.014944000e+00 3.052000000e-03
514000000.0 -1.015105000e+00 4.123000000e-03
523000000.0 -1.016611000e+00 2.297000000e-03
532000000.0 -1.017804000e+00 1.701000000e-03
541000000.0 -1.017124000e+00 1.422000000e-03
550000000.0 -1.013025000e+00 3.967000000e-03
559000000.0 -1.011314000e+00 1.590000000e-03
568000000.0 -1.009919000e+00 6.962000000e-03
577000000.0 -1.008260000e+00 2.969000000e-03
586000000.0 -1.005961000e+00 2.305000000e-03
595000000.0 -1.003216000e+00 5.920000000e-04
604000000.0 -1.001953000e+00 3.477000000e-03
613000000.0 -1.003314000e+00 7.374000000e-03
622000000.0 -1.007474000e+00 4.883000000e-03
631000000.0 -1.010139000e+00 1.080800000e-02
640000000.0 -1.008050000e+00 9.456000000e-03
649000000.0 -1.010191000e+00 1.490500000e-02
658000000.0 -1.011219000e+00 1.506900000e-02
667000000.0 -1.010308000e+00 1.209200000e-02
676000000.0 -1.008567000e+00 1.191900000e-02
685000000.0 -1.011595000e+00 1.295900000e-02
694000000.0 -1.009923000e+00 1.114300000e-02
703000000.0 -1.011295000e+00 1.099000000e-02
712000000.0 -1.007089000e+00 6.828000000e-03
721000000.0 -1.009768000e+00 6.771000000e-03
730000000.0 -1.003496000e+00 7.198000000e-03
739000000.0 -1.003155000e+00 1.858000000e-03
748000000.0 -9.990500000e-01 -3.340000000e-04
757000000.0 -1.001076000e+00 8.110000000e-04
766000000.0 -9.969440000e-01 6.809000000e-03
775000000.0 -9.979820000e-01 8.443000000e-03
784000000.0 -9.984500000e-01 7.044000000e-03
793000000.0 -9.992110000e-01 3.912000000e-03
802000000.0 -9.983510000e-01 6.764000000e-03
811000000.0 -1.000639000e+00 2.575000000e-03
820000000.0 -9.971480000e-01 8.888000000e-03
829000000.0 -9.965330000e-01 1.280300000e-02
838000000.0 -9.983350000e-01 6.235000000e-03
847000000.0 -1.000204000e+00 6.178000000e-03
856000000.0 -9.980900000e-01 9.830000000e-04
865000000.0 -9.971670000e-01 4.529000000e-03
874000000.0 -1.002120000e+00 3.654000000e-03
883000000.0 -9.973820000e-01 1.100000000e-03
892000000.0 -1.000272000e+00 -1.537000000e-03
901000000.0 -9.954390000e-01 -2.834000000e-03
910000000.0 -1.001865000e+00 -2.057000000e-03
919000000.0 -1.000518000e+00 -1.488000000e-03
928000000.0 -1.002547000e+00 -5.459000000e-03
937000000.0 -1.002689000e+00 -4.406000000e-03
946000000.0 -9.990580000e-01 -6.687000000e-03
955000000.0 -1.000746000e+00 -5.294000000e-03
964000000.0 -9.994710000e-01 -4.928000000e-03
973000000.0 -1.000113000e+00 -9.065000000e-03
982000000.0 -1.000805000e+00 -1.141700000e-02
991000000.0 -1.001680000e+00 -7.486000000e-03
1000000000.0 -1.002175000e+00 -1.459100000e-02
1004500000.0 -1.003270000e+00 -1.013600000e-02
1009000000.0 -1.000602000e+00 -6.243000000e-03
1013500000.0 -1.001306000e+00 -8.131000000e-03
1018000000.0 -1.001429000e+00 -7.952000000e-03
1022500000.0 -1.000697000e+00 -4.282000000e-03
1027000000.0 -1.004326000e+00 -9.522000000e-03
1031500000.0 -1.002628000e+00 -5.393000000e-03
1036000000.0 -1.002408000e+00 -1.029300000e-02
1040500000.0 -1.000857000e+00 -8.078000000e-03
1045000000.0 -9.999230000e-01 -1.368000000e-03
1049500000.0 -1.001184000e+00 -8.978000000e-03
1054000000.0 -9.992950000e-01 -6.076000000e-03
1058500000.0 -1.000382000e+00 -6.366000000e-03
1063000000.0 -1.002540000e+00 -1.961000000e-03
1067500000.0 -1.003483000e+00 -7.645000000e-03
1072000000.0 -1.002221000e+00 -3.143000000e-03
1076500000.0 -1.003234000e+00 -1.181000000e-02
1081000000.0 -1.003179000e+00 -8.631000000e-03
1085500000.0 -1.009014000e+00 -8.589000000e-03
1090000000.0 -1.007065000e+00 -1.010600000e-02
1094500000.0 -1.007010000e+00 -1.140000000e-02
1099000000.0 -1.009945000e+00 -1.243400000e-02
1103500000.0 -1.007756000e+00 -1.548400000e-02
1108000000.0 -1.006922000e+00 -1.570300000e-02
1112500000.0 -1.006728000e+00 -1.065900000e-02
1117000000.0 -1.005572000e+00 -2.616000000e-03
1121500000.0 -1.010424000e+00 -1.253600000e-02
1126000000.0 -1.006461000e+00 -1.465300000e-02
1130500000.0 -1.032551000e+00 -7.939800000e-02
1135000000.0 -9.959950000e-01 2.174000000e-02
1139500000.0 -1.005149000e+00 -8.131000000e-03
1144000000.0 -1.007267000e+00 -9.557000000e-03
1148500000.0 -1.003077000e+00 -8.989000000e-03
1153000000.0 -1.006280000e+00 -4.884000000e-03
1157500000.0 -1.014817000e+00 -4.221100000e-02
1162000000.0 -1.002330000e+00 -1.139000000e-02
1166500000.0 -1.011520000e+00 -4.005000000e-02
1171000000.0 -1.002113000e+00 -6.083000000e-03
1175500000.0 -1.000214000e+00 -1.734000000e-03
1180000000.0 -1.001116000e+00 -4.351000000e-03
1184500000.0 -1.001860000e+00 -1.039300000e-02
1189000000.0 -1.004051000e+00 -9.506000000e-03
1193500000.0 -9.957500000e-01 -4.702000000e-03
1198000000.0 -9.981750000e-01 -1.768000000e-03
1202500000.0 -9.923260000e-01 1.133000000e-03
1207000000.0 -1.000493000e+00 -4.521000000e-03
1211500000.0 -1.000723000e+00 -4.661000000e-03
1216000000.0 -1.002260000e+00 -1.198200000e-02
1220500000.0 -1.000917000e+00 -7.270000000e-04
1225000000.0 -1.005162000e+00 -7.552000000e-03
1229500000.0 -9.998850000e-01 -9.267000000e-03
1234000000.0 -1.002202000e+00 -4.423000000e-03
1238500000.0 -1.001176000e+00 -3.164000000e-03
1243000000.0 -1.003707000e+00 2.070000000e-03
1247500000.0 -1.005171000e+00 -2.452000000e-03
1252000000.0 -1.006034000e+00 -4.416000000e-03
1256500000.0 -1.010671000e+00 -3.040000000e-04
1261000000.0 -9.973230000e-01 -8.362000000e-03
1265500000.0 -1.009671000e+00 -8.968000000e-03
1270000000.0 -1.005559000e+00 -5.394000000e-03
1274500000.0 -1.006135000e+00 -6.258000000e-03
1279000000.0 -1.004456000e+00 -1.249900000e-02
1283500000.0 -1.006342000e+00 -5.653000000e-03
1288000000.0 -1.009703000e+00 -7.601000000e-03
1292500000.0 -1.005768000e+00 -8.006000000e-03
1297000000.0 -1.004251000e+00 1.808000000e-03
1301500000.0 -1.008796000e+00 -4.279000000e-03
1306000000.0 -1.003870000e+00 -1.177800000e-02
1310500000.0 -9.982940000e-01 7.088000000e-03
1315000000.0 -1.002948000e+00 -3.700000000e-04
1319500000.0 -9.958980000e-01 6.350000000e-04
1324000000.0 -9.953320000e-01 -8.480000000e-04
1328500000.0 -9.977290000e-01 -6.622000000e-03
1333000000.0 -9.929610000e-01 -9.067000000e-03
1337500000.0 -9.897810000e-01 -1.957000000e-03
1342000000.0 -9.997630000e-01 -6.564000000e-03
1346500000.0 -1.001172000e+00 2.998000000e-03
1351000000.0 -9.907610000e-01 -1.297000000e-03
1355500000.0 -9.894760000e-01 1.603000000e-03
1360000000.0 -1.001290000e+00 -4.430000000e-04
1364500000.0 -9.965910000e-01 2.770000000e-04
1369000000.0 -9.986540000e-01 -4.752000000e-03
1373500000.0 -9.943310000e-01 -6.315000000e-03
1378000000.0 -1.000459000e+00 -4.661000000e-03
1382500000.0 -1.002580000e+00 -4.469000000e-03
1387000000.0 -1.002386000e+00 -2.987000000e-03
1391500000.0 -1.000400000e+00 -4.173000000e-03
1396000000.0 -1.004504000e+00 -4.508000000e-03
1400500000.0 -1.007138000e+00 -1.480000000e-03
1405000000.0 -1.011794000e+00 -4.653000000e-03
1409500000.0 -1.006508000e+00 -6.882000000e-03
1414000000.0 -1.010928000e+00 -1.873000000e-03
1418500000.0 -1.007890000e+00 -3.010000000e-03
1423000000.0 -1.014595000e+00 -8.497000000e-03
1427500000.0 -1.012248000e+00 -1.284500000e-02
1432000000.0 -1.011246000e+00 -9.336000000e-03
1436500000.0 -1.011787000e+00 -7.895000000e-03
1441000000.0 -1.008488000e+00 -5.231000000e-03
1445500000.0 -1.011341000e+00 -4.833000000e-03
1450000000.0 -1.010769000e+00 -4.501000000e-03
