! piloto_deriva / corto_deriva / r04
# HZ S RI R 50
50000.0 -9.988930000e-01 -3.765400000e-02
59500.0 -9.974620000e-01 -1.732300000e-02
69000.0 -9.977770000e-01 -3.751000000e-03
78500.0 -9.992960000e-01 -1.296000000e-03
88000.0 -9.988640000e-01 5.150000000e-04
97500.0 -1.000119000e+00 -3.000000000e-06
107000.0 -1.000220000e+00 -1.444000000e-03
116500.0 -1.000154000e+00 -6.273000000e-03
126000.0 -1.000610000e+00 -1.066000000e-02
135500.0 -9.998090000e-01 -1.628500000e-02
145000.0 -1.000359000e+00 -2.284800000e-02
154500.0 -1.000214000e+00 -2.909600000e-02
164000.0 -9.999890000e-01 -3.656000000e-02
173500.0 -1.000241000e+00 -4.383000000e-02
183000.0 -1.000198000e+00 -5.153100000e-02
192500.0 -1.000538000e+00 -6.081500000e-02
202000.0 -9.999730000e-01 -6.788200000e-02
211500.0 -1.000097000e+00 -7.633100000e-02
221000.0 -1.000006000e+00 -8.519400000e-02
230500.0 -1.000647000e+00 -9.486300000e-02
240000.0 -1.002549000e+00 -1.034800000e-01
249500.0 -1.000863000e+00 -1.129140000e-01
259000.0 -1.000827000e+00 -1.218240000e-01
268500.0 -1.001586000e+00 -1.313720000e-01
278000.0 -1.001895000e+00 -1.406820000e-01
287500.0 -1.000995000e+00 -1.495270000e-01
297000.0 -1.002764000e+00 -1.591820000e-01
306500.0 -1.002294000e+00 -1.685290000e-01
316000.0 -1.002369000e+00 -1.772020000e-01
325500.0 -1.003008000e+00 -1.867830000e-01
335000.0 -1.002932000e+00 -1.960390000e-01
344500.0 -1.003425000e+00 -2.054450000e-01
354000.0 -1.003642000e+00 -2.148900000e-01
363500.0 -1.003824000e+00 -2.241270000e-01
373000.0 -1.003451000e+00 -2.333770000e-01
382500.0 -1.003868000e+00 -2.422000000e-01
392000.0 -1.004298000e+00 -2.524050000e-01
401500.0 -1.017819000e+00 -2.588700000e-01
411000.0 -1.004835000e+00 -2.703870000e-01
420500.0 -1.005155000e+00 -2.803020000e-01
430000.0 -1.004174000e+00 -2.891060000e-01
439500.0 -1.005775000e+00 -2.984600000e-01
449000.0 -1.005953000e+00 -3.078200000e-01
458500.0 -1.006256000e+00 -3.173930000e-01
468000.0 -1.006695000e+00 -3.279150000e-01
477500.0 -1.006445000e+00 -3.362970000e-01
487000.0 -1.006599000e+00 -3.441470000e-01
496500.0 -1.006943000e+00 -3.543580000e-01
506000.0 -1.006997000e+00 -3.636980000e-01
515500.0 -1.007185000e+00 -3.734580000e-01
525000.0 -1.007549000e+00 -3.816850000e-01
534500.0 -1.008242000e+00 -3.915660000e-01
544000.0 -1.007500000e+00 -4.008300000e-01
553500.0 -1.008480000e+00 -4.097870000e-01
563000.0 -1.008717000e+00 -4.188490000e-01
572500.0 -1.009673000e+00 -4.281770000e-01
582000.0 -1.009516000e+00 -4.375600000e-01
591500.0 -1.010303000e+00 -4.456570000e-01
601000.0 -1.010351000e+00 -4.559660000e-01
610500.0 -1.011257000e+00 -4.637550000e-01
620000.0 -1.010741000e+00 -4.734330000e-01
629500.0 -1.011874000e+00 -4.823140000e-01
639000.0 -1.013487000e+00 -4.908090000e-01
648500.0 -1.012988000e+00 -5.018230000e-01
658000.0 -1.014473000e+00 -5.100590000e-01
667500.0 -1.014574000e+00 -5.184150000e-01
677000.0 -1.015084000e+00 -5.273360000e-01
686500.0 -1.015993000e+00 -5.370840000e-01
696000.0 -1.017082000e+00 -5.452650000e-01
705500.0 -1.017849000e+00 -5.545750000e-01
715000.0 -1.017460000e+00 -5.635790000e-01
724500.0 -1.018991000e+00 -5.724280000e-01
734000.0 -1.019872000e+00 -5.815650000e-01
743500.0 -1.022120000e+00 -5.909100000e-01
753000.0 -1.022441000e+00 -6.001540000e-01
762500.0 -1.023306000e+00 -6.081120000e-01
772000.0 -1.023545000e+00 -6.172450000e-01
781500.0 -1.025607000e+00 -6.261690000e-01
791000.0 -1.025504000e+00 -6.352340000e-01
800500.0 -1.027404000e+00 -6.447280000e-01
810000.0 -1.028545000e+00 -6.524310000e-01
819500.0 -1.030518000e+00 -6.624710000e-01
829000.0 -1.030988000e+00 -6.698300000e-01
838500.0 -1.033707000e+00 -6.783950000e-01
848000.0 -1.034865000e+00 -6.892600000e-01
857500.0 -1.035803000e+00 -6.951150000e-01
867000.0 -1.036487000e+00 -7.054930000e-01
876500.0 -1.038352000e+00 -7.143990000e-01
886000.0 -1.039209000e+00 -7.229050000e-01
895500.0 -1.043140000e+00 -7.316790000e-01
905000.0 -1.044701000e+00 -7.390800000e-01
914500.0 -1.046996000e+00 -7.489220000e-01
924000.0 -1.048581000e+00 -7.584880000e-01
933500.0 -1.050628000e+00 -7.630500000e-01
943000.0 -1.053740000e+00 -7.750340000e-01
952500.0 -1.055108000e+00 -7.818230000e-01
962000.0 -1.056572000e+00 -7.909760000e-01
971500.0 -1.060592000e+00 -7.997130000e-01
981000.0 -1.061789000e+00 -8.088620000e-01
990500.0 -1.066114000e+00 -8.157730000e-01
1000000.0 -1.067984000e+00 -8.249450000e-01
1090000.0 -1.097872000e+00 -9.025870000e-01
1180000.0 -1.133627000e+00 -9.747630000e-01
1270000.0 -1.182016000e+00 -1.043726000e+00
1360000.0 -1.239213000e+00 -1.105017000e+00
1450000.0 -1.304269000e+00 -1.154239000e+00
1540000.0 -1.385106000e+00 -1.191842000e+00
1630000.0 -1.467833000e+00 -1.211664000e+00
1720000.0 -1.557544000e+00 -1.209727000e+00
1810000.0 -1.648583000e+00 -1.189213000e+00
1900000.0 -1.730058000e+00 -1.144549000e+00
1990000.0 -1.802922000e+00 -1.084555000e+00
2080000.0 -1.857626000e+00 -1.003734000e+00
2170000.0 -1.897139000e+00 -9.169040000e-01
2260000.0 -1.915988000e+00 -8.213200000e-01
2350000.0 -1.916357000e+00 -7.346370000e-01
2440000.0 -1.901671000e+00 -6.490350000e-01
2530000.0 -1.874439000e+00 -5.732660000e-01
2620000.0 -1.841463000e+00 -5.001120000e-01
2710000.0 -1.799634000e+00 -4.384640000e-01
2800000.0 -1.763161000e+00 -3.865890000e-01
2890000.0 -1.714580000e+00 -3.736840000e-01
2980000.0 -1.674002000e+00 -3.051900000e-01
3070000.0 -1.634597000e+00 -2.706570000e-01
3160000.0 -1.596653000e+00 -2.395620000e-01
3250000.0 -1.558245000e+00 -2.151360000e-01
3340000.0 -1.521997000e+00 -1.924020000e-01
3430000.0 -1.489339000e+00 -1.733690000e-01
3520000.0 -1.459416000e+00 -1.542860000e-01
3610000.0 -1.430949000e+00 -1.383890000e-01
3700000.0 -1.402810000e+00 -1.207630000e-01
3790000.0 -1.378253000e+00 -1.067580000e-01
3880000.0 -1.355022000e+00 -9.415400000e-02
3970000.0 -1.334123000e+00 -8.028100000e-02
4060000.0 -1.316074000e+00 -6.749500000e-02
4150000.0 -1.296330000e+00 -5.569800000e-02
4240000.0 -1.277984000e+00 -4.277500000e-02
4330000.0 -1.264006000e+00 -2.918700000e-02
4420000.0 -1.250061000e+00 -1.929500000e-02
4510000.0 -1.236536000e+00 -7.008000000e-03
4600000.0 -1.224517000e+00 3.374000000e-03
4690000.0 -1.213104000e+00 1.454600000e-02
4780000.0 -1.202299000e+00 2.567900000e-02
4870000.0 -1.195617000e+00 3.776100000e-02
4960000.0 -1.187276000e+00 4.837200000e-02
5050000.0 -1.172014000e+00 5.903000000e-02
5140000.0 -1.167076000e+00 7.077900000e-02
5230000.0 -1.162058000e+00 8.035000000e-02
5320000.0 -1.156319000e+00 9.147400000e-02
5410000.0 -1.152033000e+00 1.012650000e-01
5500000.0 -1.146518000e+00 1.118260000e-01
5590000.0 -1.144180000e+00 1.212090000e-01
5680000.0 -1.139480000e+00 1.315530000e-01
5770000.0 -1.136350000e+00 1.415150000e-01
5860000.0 -1.131657000e+00 1.501190000e-01
5950000.0 -1.129087000e+00 1.597440000e-01
6040000.0 -1.125737000e+00 1.687390000e-01
6130000.0 -1.122976000e+00 1.776430000e-01
6220000.0 -1.118950000e+00 1.843460000e-01
6310000.0 -1.117803000e+00 1.922370000e-01
6400000.0 -1.115044000e+00 1.996320000e-01
6490000.0 -1.112436000e+00 2.063330000e-01
6580000.0 -1.110838000e+00 2.125440000e-01
6670000.0 -1.108703000e+00 2.191440000e-01
6760000.0 -1.100262000e+00 2.434030000e-01
6850000.0 -1.112228000e+00 2.098830000e-01
6940000.0 -1.098497000e+00 2.516270000e-01
7030000.0 -1.110562000e+00 2.169440000e-01
7120000.0 -1.096975000e+00 2.572340000e-01
7210000.0 -1.109395000e+00 2.217190000e-01
7300000.0 -1.095825000e+00 2.608760000e-01
7390000.0 -1.108296000e+00 2.234710000e-01
7480000.0 -1.095052000e+00 2.618190000e-01
7570000.0 1.948450000e-01 1.074382000e+00
7660000.0 1.946710000e-01 1.074763000e+00
7750000.0 1.943200000e-01 1.074529000e+00
7840000.0 1.934680000e-01 1.073630000e+00
7930000.0 1.929960000e-01 1.075362000e+00
8020000.0 1.917940000e-01 1.075043000e+00
8110000.0 1.908100000e-01 1.075838000e+00
8200000.0 1.905770000e-01 1.076033000e+00
8290000.0 1.906190000e-01 1.076406000e+00
8380000.0 1.889440000e-01 1.076689000e+00
8470000.0 1.883220000e-01 1.077273000e+00
8560000.0 1.874810000e-01 1.077217000e+00
8650000.0 1.879050000e-01 1.079084000e+00
8740000.0 1.867170000e-01 1.078980000e+00
8830000.0 1.862220000e-01 1.079677000e+00
8920000.0 1.843300000e-01 1.079003000e+00
9010000.0 1.841720000e-01 1.080047000e+00
9100000.0 1.822900000e-01 1.081302000e+00
9190000.0 1.820310000e-01 1.081939000e+00
9280000.0 1.822490000e-01 1.081453000e+00
9370000.0 1.806360000e-01 1.083412000e+00
9460000.0 1.804760000e-01 1.083497000e+00
9550000.0 1.802240000e-01 1.082815000e+00
9640000.0 1.790320000e-01 1.083619000e+00
9730000.0 1.785580000e-01 1.086036000e+00
9820000.0 1.776830000e-01 1.085889000e+00
9910000.0 1.769350000e-01 1.086584000e+00
10000000.0 1.762790000e-01 1.085657000e+00
10900000.0 1.699540000e-01 1.094752000e+00
11800000.0 1.640910000e-01 1.101940000e+00
12700000.0 1.571150000e-01 1.110012000e+00
13600000.0 1.506550000e-01 1.118629000e+00
14500000.0 1.443060000e-01 1.127470000e+00
15400000.0 1.362520000e-01 1.135259000e+00
16300000.0 1.310030000e-01 1.144993000e+00
17200000.0 1.246220000e-01 1.154519000e+00
18100000.0 1.173090000e-01 1.163860000e+00
19000000.0 1.093040000e-01 1.173345000e+00
19900000.0 1.016530000e-01 1.182904000e+00
20800000.0 9.391100000e-02 1.191760000e+00
21700000.0 8.393200000e-02 1.202160000e+00
22600000.0 7.649200000e-02 1.211982000e+00
23500000.0 6.702300000e-02 1.221704000e+00
24400000.0 5.694700000e-02 1.231287000e+00
25300000.0 4.713600000e-02 1.242485000e+00
26200000.0 3.595700000e-02 1.252234000e+00
27100000.0 2.529700000e-02 1.262384000e+00
28000000.0 1.462900000e-02 1.272562000e+00
28900000.0 4.385000000e-03 1.282358000e+00
29800000.0 -8.802000000e-03 1.292637000e+00
30700000.0 2.708500000e-02 1.131475000e+00
31600000.0 -3.474200000e-02 1.312762000e+00
32500000.0 -4.744500000e-02 1.322260000e+00
33400000.0 -6.124300000e-02 1.332392000e+00
34300000.0 -7.674800000e-02 1.341765000e+00
35200000.0 -8.959000000e-02 1.350522000e+00
36100000.0 -1.068340000e-01 1.360785000e+00
37000000.0 -1.210270000e-01 1.370590000e+00
37900000.0 -1.368550000e-01 1.379119000e+00
38800000.0 -1.545320000e-01 1.387976000e+00
39700000.0 -1.715610000e-01 1.397448000e+00
40600000.0 -1.885550000e-01 1.405604000e+00
41500000.0 -2.083400000e-01 1.413476000e+00
42400000.0 -2.246670000e-01 1.420156000e+00
43300000.0 -2.432380000e-01 1.427725000e+00
44200000.0 -2.634080000e-01 1.434720000e+00
45100000.0 -2.821780000e-01 1.442492000e+00
46000000.0 -3.028070000e-01 1.448216000e+00
46900000.0 -3.239130000e-01 1.453458000e+00
47800000.0 -3.435880000e-01 1.458813000e+00
48700000.0 -3.648930000e-01 1.463959000e+00
49600000.0 -3.870240000e-01 1.468165000e+00
50500000.0 -4.084610000e-01 1.471704000e+00
51400000.0 -4.309950000e-01 1.475922000e+00
52300000.0 -4.527940000e-01 1.477811000e+00
53200000.0 -4.774410000e-01 1.480361000e+00
54100000.0 -5.003560000e-01 1.480743000e+00
55000000.0 -5.237910000e-01 1.481135000e+00
55900000.0 -5.470300000e-01 1.481994000e+00
56800000.0 -5.714610000e-01 1.481327000e+00
57700000.0 -5.949050000e-01 1.479759000e+00
58600000.0 -6.204800000e-01 1.478381000e+00
59500000.0 -6.426750000e-01 1.475156000e+00
60400000.0 -6.681880000e-01 1.471994000e+00
61300000.0 -6.918970000e-01 1.466763000e+00
62200000.0 -7.163530000e-01 1.461236000e+00
63100000.0 -7.414420000e-01 1.457426000e+00
64000000.0 -7.640970000e-01 1.451232000e+00
64900000.0 -7.868950000e-01 1.444896000e+00
65800000.0 -8.126680000e-01 1.436409000e+00
66700000.0 -8.357010000e-01 1.427183000e+00
67600000.0 -8.611040000e-01 1.418771000e+00
68500000.0 -8.846730000e-01 1.407789000e+00
69400000.0 -9.061660000e-01 1.398327000e+00
70300000.0 -9.304000000e-01 1.386341000e+00
71200000.0 -9.541260000e-01 1.376437000e+00
72100000.0 -9.752450000e-01 1.362876000e+00
73000000.0 -9.985270000e-01 1.348551000e+00
73900000.0 -1.018413000e+00 1.335919000e+00
74800000.0 -1.038644000e+00 1.320049000e+00
75700000.0 -1.060886000e+00 1.304761000e+00
76600000.0 -1.080891000e+00 1.288686000e+00
77500000.0 -1.101327000e+00 1.272463000e+00
78400000.0 -1.119956000e+00 1.254960000e+00
79300000.0 -1.139889000e+00 1.238043000e+00
80200000.0 -1.157885000e+00 1.219972000e+00
81100000.0 -1.175415000e+00 1.199782000e+00
82000000.0 -1.192704000e+00 1.180936000e+00
82900000.0 -1.207334000e+00 1.162262000e+00
83800000.0 -1.226191000e+00 1.142603000e+00
84700000.0 -1.241390000e+00 1.122216000e+00
85600000.0 -1.255089000e+00 1.100828000e+00
86500000.0 -1.268208000e+00 1.080360000e+00
87400000.0 -1.281711000e+00 1.057381000e+00
88300000.0 -1.294166000e+00 1.036573000e+00
89200000.0 -1.308078000e+00 1.014594000e+00
90100000.0 -1.319021000e+00 9.898550000e-01
91000000.0 -1.328031000e+00 9.684100000e-01
91900000.0 -1.316622000e+00 9.656150000e-01
92800000.0 -1.367578000e+00 9.024410000e-01
93700000.0 -1.335050000e+00 9.194510000e-01
94600000.0 -1.363057000e+00 8.773470000e-01
95500000.0 -1.349545000e+00 8.748640000e-01
96400000.0 -1.393813000e+00 8.094320000e-01
97300000.0 -1.361018000e+00 8.289780000e-01
98200000.0 -1.402316000e+00 7.624040000e-01
99100000.0 -1.370712000e+00 7.828380000e-01
100000000.0 -1.426497000e+00 6.952590000e-01
109000000.0 -1.385462000e+00 5.197420000e-01
118000000.0 -1.331387000e+00 3.398600000e-01
127000000.0 -1.249646000e+00 2.002480000e-01
136000000.0 -1.134149000e+00 1.007550000e-01
145000000.0 -1.046408000e+00 2.989200000e-02
154000000.0 -1.000821000e+00 -1.149000000e-03
163000000.0 -1.001941000e+00 -3.016000000e-03
172000000.0 -1.004038000e+00 -5.408000000e-03
181000000.0 -1.006189000e+00 -8.903000000e-03
190000000.0 -1.007745000e+00 -9.757000000e-03
199000000.0 -1.008716000e+00 -1.019600000e-02
208000000.0 -1.009629000e+00 -1.104700000e-02
217000000.0 -1.010354000e+00 -1.219200000e-02
226000000.0 -1.011469000e+00 -1.023600000e-02
235000000.0 -1.010369000e+00 -1.111500000e-02
244000000.0 -1.009771000e+00 -1.148700000e-02
253000000.0 -1.008493000e+00 -1.054400000e-02
262000000.0 -1.008177000e+00 -9.186000000e-03
271000000.0 -1.006909000e+00 -7.881000000e-03
280000000.0 -1.004365000e+00 -4.629000000e-03
289000000.0 -1.003040000e+00 -4.239000000e-03
298000000.0 -9.997720000e-01 -1.910000000e-04
307000000.0 -1.003932000e+00 -7.420000000e-04
316000000.0 -1.005778000e+00 -2.350000000e-04
325000000.0 -1.008070000e+00 -1.732000000e-03
334000000.0 -1.009387000e+00 -1.446000000e-03
343000000.0 -1.012626000e+00 -3.168000000e-03
352000000.0 -1.013732000e+00 -1.104000000e-03
361000000.0 -1.016732000e+00 -2.048900000e-02
370000000.0 -1.020676000e+00 -2.058300000e-02
379000000.0 -1.016757000e+00 -2.141000000e-02
388000000.0 -1.011294000e+00 1.237000000e-02
397000000.0 -1.012851000e+00 -1.904000000e-03
406000000.0 -1.020194000e+00 -3.836200000e-02
415000000.0 -1.016497000e+00 -3.764200000e-02
424000000.0 -1.008142000e+00 -2.736000000e-03
433000000.0 -1.007365000e+00 -1.742000000e-03
442000000.0 -1.003813000e+00 -1.288000000e-03
451000000.0 -1.002198000e+00 -1.632000000e-03
460000000.0 -1.004749000e+00 7.690000000e-04
469000000.0 -1.006696000e+00 1.196000000e-03
478000000.0 -1.010518000e+00 8.140000000e-04
487000000.0 -1.011950000e+00 3.403000000e-03
496000000.0 -1.015076000e+00 4.711000000e-03
505000000.0 -1.015201000e+00 3.359000000e-03
514000000.0 -1.016733000e+00 2.019000000e-03
523000000.0 -1.017067000e+00 3.906000000e-03
532000000.0 -1.016564000e+00 1.969000000e-03
541000000.0 -1.016037000e+00 4.781000000e-03
550000000.0 -1.014573000e+00 -4.020000000e-04
559000000.0 -1.012614000e+00 4.672000000e-03
568000000.0 -1.009978000e+00 2.345000000e-03
577000000.0 -1.010413000e+00 3.361000000e-03
586000000.0 -1.004730000e+00 -2.970000000e-04
595000000.0 -1.002170000e+00 1.203000000e-03
604000000.0 -1.000562000e+00 3.323000000e-03
613000000.0 -1.005432000e+00 3.471000000e-03
622000000.0 -1.004250000e+00 5.741000000e-03
631000000.0 -1.005650000e+00 6.408000000e-03
640000000.0 -1.008015000e+00 1.109100000e-02
649000000.0 -1.007611000e+00 1.176500000e-02
658000000.0 -1.013241000e+00 9.138000000e-03
667000000.0 -1.011227000e+00 1.490400000e-02
676000000.0 -1.012517000e+00 8.703000000e-03
685000000.0 -1.009424000e+00 1.000600000e-02
694000000.0 -1.007731000e+00 1.221100000e-02
703000000.0 -1.009535000e+00 1.104600000e-02
712000000.0 -1.011724000e+00 1.283800000e-02
721000000.0 -1.002500000e+00 7.492000000e-03
730000000.0 -1.006371000e+00 7.852000000e-03
739000000.0 -1.003018000e+00 2.646000000e-03
748000000.0 -9.989570000e-01 -1.400000000e-04
757000000.0 -9.976320000e-01 2.231000000e-03
766000000.0 -9.980890000e-01 2.799000000e-03
775000000.0 -9.989170000e-01 6.102000000e-03
784000000.0 -1.001816000e+00 2.411000000e-03
793000000.0 -1.000806000e+00 6.579000000e-03
802000000.0 -9.989430000e-01 1.185200000e-02
811000000.0 -9.974290000e-01 7.825000000e-03
820000000.0 -9.977540000e-01 6.491000000e-03
829000000.0 -9.993720000e-01 7.626000000e-03
838000000.0 -9.970120000e-01 1.775000000e-03
847000000.0 -9.990600000e-01 1.647000000e-03
856000000.0 -9.967710000e-01 1.057000000e-03
865000000.0 -1.000115000e+00 2.533000000e-03
874000000.0 -9.981830000e-01 3.626000000e-03
883000000.0 -9.979910000e-01 2.282000000e-03
892000000.0 -9.997960000e-01 -4.061000000e-03
901000000.0 -9.946980000e-01 -6.410000000e-04
910000000.0 -1.002800000e+00 -6.222000000e-03
919000000.0 -1.001184000e+00 -6.808000000e-03
928000000.0 -9.993970000e-01 -3.459000000e-03
937000000.0 -1.000727000e+00 -6.630000000e-03
946000000.0 -9.997370000e-01 -7.867000000e-03
955000000.0 -1.003489000e+00 -6.383000000e-03
964000000.0 -1.001114000e+00 -6.575000000e-03
973000000.0 -1.001556000e+00 -4.521000000e-03
982000000.0 -1.004714000e+00 -8.537000000e-03
991000000.0 -1.001307000e+00 -3.778000000e-03
1000000000.0 -1.001847000e+00 -7.102000000e-03
1004500000.0 -1.002092000e+00 -9.320000000e-03
1009000000.0 -1.003215000e+00 -8.513000000e-03
1013500000.0 -1.002921000e+00 -4.473000000e-03
1018000000.0 -1.002290000e+00 -7.190000000e-03
1022500000.0 -1.003831000e+00 -5.883000000e-03
1027000000.0 -1.000538000e+00 -1.111600000e-02
1031500000.0 -9.997880000e-01 -3.866000000e-03
1036000000.0 -1.003153000e+00 -6.880000000e-03
1040500000.0 -9.987310000e-01 -3.664000000e-03
1045000000.0 -9.966090000e-01 -2.071000000e-03
1049500000.0 -1.001055000e+00 -4.876000000e-03
1054000000.0 -1.001759000e+00 -3.663000000e-03
1058500000.0 -1.001989000e+00 -2.430000000e-04
1063000000.0 -1.000899000e+00 -5.766000000e-03
1067500000.0 -1.005188000e+00 -8.231000000e-03
1072000000.0 -1.001608000e+00 -7.529000000e-03
1076500000.0 -1.006069000e+00 -7.812000000e-03
1081000000.0 -1.002807000e+00 -9.497000000e-03
1085500000.0 -1.007818000e+00 -9.390000000e-03
1090000000.0 -1.006041000e+00 -4.331000000e-03
1094500000.0 -1.006231000e+00 -1.038300000e-02
1099000000.0 -1.009571000e+00 -1.518100000e-02
1103500000.0 -1.006416000e+00 -1.281300000e-02
1108000000.0 -1.008017000e+00 -8.954000000e-03
1112500000.0 -1.008255000e+00 -5.367000000e-03
1117000000.0 -1.003873000e+00 -1.658000000e-03
1121500000.0 -1.010170000e+00 -7.085000000e-03
1126000000.0 -1.095849000e+00 -1.012170000e-01
1130500000.0 -1.002562000e+00 -1.448000000e-02
1135000000.0 -1.004971000e+00 -1.035900000e-02
1139500000.0 -1.005089000e+00 -7.696000000e-03
1144000000.0 -1.006680000e+00 -1.030200000e-02
1148500000.0 -1.010231000e+00 -6.660000000e-04
1153000000.0 -9.974930000e-01 2.793200000e-02
1157500000.0 -1.003098000e+00 -9.162000000e-03
1162000000.0 -1.006525000e+00 -5.257000000e-03
1166500000.0 -1.003070000e+00 -4.889000000e-03
1171000000.0 -1.004963000e+00 -1.467200000e-02
1175500000.0 -1.001976000e+00 -5.848000000e-03
1180000000.0 -9.967800000e-01 -7.593000000e-03
1184500000.0 -1.000478000e+00 -7.094000000e-03
1189000000.0 -1.003208000e+00 1.988000000e-03
1193500000.0 -9.988210000e-01 1.500000000e-03
1198000000.0 -9.968810000e-01 -5.174000000e-03
1202500000.0 -1.001110000e+00 -7.149000000e-03
1207000000.0 -1.000936000e+00 -2.026000000e-03
1211500000.0 -9.956670000e-01 2.561000000e-03
1216000000.0 -1.002084000e+00 -8.613000000e-03
1220500000.0 -1.003638000e+00 -6.049000000e-03
1225000000.0 -1.001934000e+00 -1.396000000e-03
1229500000.0 -9.998550000e-01 -1.117400000e-02
1234000000.0 -1.003291000e+00 -9.293000000e-03
1238500000.0 -9.985410000e-01 -5.558000000e-03
1243000000.0 -1.004979000e+00 -4.588000000e-03
1247500000.0 -1.007182000e+00 -8.850000000e-04
1252000000.0 -1.004367000e+00 -2.318000000e-03
1256500000.0 -1.000568000e+00 -7.685000000e-03
1261000000.0 -1.006603000e+00 -1.884800000e-02
1265500000.0 -1.003781000e+00 -3.284000000e-03
1270000000.0 -1.009032000e+00 -5.504000000e-03
1274500000.0 -1.003699000e+00 -8.380000000e-03
1279000000.0 -1.004709000e+00 -9.572000000e-03
1283500000.0 -1.004319000e+00 -3.638000000e-03
1288000000.0 -1.000084000e+00 -7.822000000e-03
1292500000.0 -1.005430000e+00 3.640000000e-04
1297000000.0 -1.001394000e+00 1.580000000e-04
1301500000.0 -1.001313000e+00 -9.656000000e-03
1306000000.0 -9.995600000e-01 1.195900000e-02
1310500000.0 -9.996880000e-01 -1.024500000e-02
1315000000.0 -1.000795000e+00 -8.708000000e-03
1319500000.0 -1.006251000e+00 -8.036000000e-03
1324000000.0 -9.980570000e-01 -7.311000000e-03
1328500000.0 -9.955980000e-01 -2.944000000e-03
1333000000.0 -9.950090000e-01 6.460000000e-04
1337500000.0 -1.001478000e+00 -3.793000000e-03
1342000000.0 -9.918700000e-01 -7.102000000e-03
1346500000.0 -9.929930000e-01 -1.692000000e-03
1351000000.0 -9.925400000e-01 -6.976000000e-03
1355500000.0 -9.933330000e-01 4.446000000e-03
1360000000.0 -9.964020000e-01 -5.681000000e-03
1364500000.0 -9.978210000e-01 2.945000000e-03
1369000000.0 -1.001981000e+00 -1.278800000e-02
1373500000.0 -9.970490000e-01 -4.172000000e-03
1378000000.0 -1.005645000e+00 -1.249000000e-03
1382500000.0 -1.006346000e+00 -2.600000000e-05
1387000000.0 -1.002368000e+00 -6.032000000e-03
1391500000.0 -1.005548000e+00 -4.369000000e-03
1396000000.0 -1.006248000e+00 -4.562000000e-03
1400500000.0 -1.008245000e+00 -1.709000000e-03
1405000000.0 -1.011203000e+00 -1.059500000e-02
1409500000.0 -1.008716000e+00 -4.775000000e-03
1414000000.0 -1.003781000e+00 -4.691000000e-03
1418500000.0 -1.013107000e+00 -5.133000000e-03
1423000000.0 -1.017185000e+00 1.928000000e-03
1427500000.0 -1.015144000e+00 -1.114700000e-02
1432000000.0 -1.011967000e+00 -8.724000000e-03
1436500000.0 -1.010527000e+00 -8.426000000e-03
1441000000.0 -1.008309000e+00 -1.896000000e-03
1445500000.0 -1.010351000e+00 -3.246000000e-03
1450000000.0 -1.009945000e+00 -4.423000000e-03
