! piloto_deriva / sol_abierto / r02
# HZ S RI R 50
50000.0 1.007003000e+00 -7.048200000e-02
59500.0 1.003247000e+00 -5.653800000e-02
69000.0 1.002845000e+00 -4.083700000e-02
78500.0 1.002498000e+00 -2.888400000e-02
88000.0 1.002984000e+00 1.429000000e-03
97500.0 9.983960000e-01 -2.221300000e-02
107000.0 1.001163000e+00 2.574100000e-02
116500.0 9.984140000e-01 2.402000000e-03
126000.0 9.990580000e-01 5.243700000e-02
135500.0 9.997920000e-01 2.709200000e-02
145000.0 1.001391000e+00 7.566200000e-02
154500.0 1.000834000e+00 5.112100000e-02
164000.0 1.002843000e+00 9.955000000e-02
173500.0 1.002377000e+00 7.556400000e-02
183000.0 1.002737000e+00 1.047430000e-01
192500.0 1.003981000e+00 1.170450000e-01
202000.0 1.004031000e+00 1.281110000e-01
211500.0 1.003712000e+00 1.396850000e-01
221000.0 1.003988000e+00 1.511980000e-01
230500.0 1.004426000e+00 1.629670000e-01
240000.0 1.005355000e+00 1.743810000e-01
249500.0 1.005164000e+00 1.850150000e-01
259000.0 1.004638000e+00 1.968600000e-01
268500.0 1.005251000e+00 2.081520000e-01
278000.0 1.005662000e+00 2.187500000e-01
287500.0 1.005482000e+00 2.308590000e-01
297000.0 1.005430000e+00 2.411230000e-01
306500.0 1.006013000e+00 2.522330000e-01
316000.0 1.007501000e+00 2.631260000e-01
325500.0 1.006667000e+00 2.737470000e-01
335000.0 1.007385000e+00 2.838810000e-01
344500.0 1.006964000e+00 2.951930000e-01
354000.0 1.006913000e+00 3.060850000e-01
363500.0 1.007918000e+00 3.161460000e-01
373000.0 1.007882000e+00 3.266850000e-01
382500.0 1.008230000e+00 3.375400000e-01
392000.0 1.008074000e+00 3.481720000e-01
401500.0 1.008820000e+00 3.586800000e-01
411000.0 1.008891000e+00 3.687970000e-01
420500.0 1.008286000e+00 3.791650000e-01
430000.0 1.009566000e+00 3.894620000e-01
439500.0 1.009993000e+00 4.001020000e-01
449000.0 1.009487000e+00 4.097490000e-01
458500.0 1.009858000e+00 4.209820000e-01
468000.0 1.011626000e+00 4.302140000e-01
477500.0 1.009625000e+00 4.404500000e-01
487000.0 1.010996000e+00 4.499600000e-01
496500.0 1.011323000e+00 4.607510000e-01
506000.0 1.011517000e+00 4.713370000e-01
515500.0 1.012702000e+00 4.800430000e-01
525000.0 1.012821000e+00 4.903350000e-01
534500.0 1.012404000e+00 5.008240000e-01
544000.0 1.013115000e+00 5.103290000e-01
553500.0 1.013179000e+00 5.202570000e-01
563000.0 1.014606000e+00 5.294330000e-01
572500.0 1.014407000e+00 5.400200000e-01
582000.0 1.016351000e+00 5.495840000e-01
591500.0 1.016452000e+00 5.594010000e-01
601000.0 1.017116000e+00 5.685940000e-01
610500.0 1.016689000e+00 5.792630000e-01
620000.0 1.017580000e+00 5.878560000e-01
629500.0 1.018028000e+00 5.980050000e-01
639000.0 1.018458000e+00 6.084290000e-01
648500.0 1.019131000e+00 6.176480000e-01
658000.0 1.020384000e+00 6.264570000e-01
667500.0 1.021046000e+00 6.362870000e-01
677000.0 1.021420000e+00 6.453170000e-01
686500.0 1.021095000e+00 6.554090000e-01
696000.0 1.023421000e+00 6.650610000e-01
705500.0 1.023843000e+00 6.746850000e-01
715000.0 1.025311000e+00 6.831110000e-01
724500.0 1.026777000e+00 6.939520000e-01
734000.0 1.026884000e+00 7.029110000e-01
743500.0 1.028391000e+00 7.126830000e-01
753000.0 1.028700000e+00 7.203040000e-01
762500.0 1.030370000e+00 7.302110000e-01
772000.0 1.031777000e+00 7.395060000e-01
781500.0 1.032399000e+00 7.487180000e-01
791000.0 1.034551000e+00 7.580270000e-01
800500.0 1.034784000e+00 7.670210000e-01
810000.0 1.036429000e+00 7.767710000e-01
819500.0 1.039162000e+00 7.870510000e-01
829000.0 1.039347000e+00 7.951500000e-01
838500.0 1.040536000e+00 8.048660000e-01
848000.0 1.043338000e+00 8.133090000e-01
857500.0 1.045067000e+00 8.230620000e-01
867000.0 1.046352000e+00 8.312250000e-01
876500.0 1.048393000e+00 8.397560000e-01
886000.0 1.049739000e+00 8.498540000e-01
895500.0 1.053604000e+00 8.588060000e-01
905000.0 1.054662000e+00 8.666770000e-01
914500.0 1.056832000e+00 8.777010000e-01
924000.0 1.059028000e+00 8.845710000e-01
933500.0 1.060754000e+00 8.958040000e-01
943000.0 1.063887000e+00 9.032330000e-01
952500.0 1.064831000e+00 9.120300000e-01
962000.0 1.067733000e+00 9.206670000e-01
971500.0 1.071804000e+00 9.290790000e-01
981000.0 1.072661000e+00 9.377400000e-01
990500.0 1.076508000e+00 9.466520000e-01
1000000.0 1.078447000e+00 9.544690000e-01
1090000.0 1.105852000e+00 1.033727000e+00
1180000.0 1.145156000e+00 1.110113000e+00
1270000.0 1.196039000e+00 1.182114000e+00
1360000.0 1.255036000e+00 1.245491000e+00
1450000.0 1.322735000e+00 1.293943000e+00
1540000.0 1.402375000e+00 1.332756000e+00
1630000.0 1.489881000e+00 1.355322000e+00
1720000.0 1.579649000e+00 1.356363000e+00
1810000.0 1.671104000e+00 1.338360000e+00
1900000.0 1.755818000e+00 1.297659000e+00
1990000.0 1.827943000e+00 1.238635000e+00
2080000.0 1.888736000e+00 1.166363000e+00
2170000.0 1.932636000e+00 1.082296000e+00
2260000.0 1.962386000e+00 9.936140000e-01
2350000.0 1.967279000e+00 9.022100000e-01
2440000.0 1.959088000e+00 8.175710000e-01
2530000.0 1.940526000e+00 7.359750000e-01
2620000.0 1.913733000e+00 6.620770000e-01
2710000.0 1.881385000e+00 5.981220000e-01
2800000.0 1.843260000e+00 5.421320000e-01
2890000.0 1.804209000e+00 4.920670000e-01
2980000.0 1.766983000e+00 4.473580000e-01
3070000.0 1.727005000e+00 4.082960000e-01
3160000.0 1.689013000e+00 3.758950000e-01
3250000.0 1.653806000e+00 3.467300000e-01
3340000.0 1.620052000e+00 3.191480000e-01
3430000.0 1.586056000e+00 2.950810000e-01
3520000.0 1.556982000e+00 2.721770000e-01
3610000.0 1.530780000e+00 2.219610000e-01
3700000.0 1.500838000e+00 2.593870000e-01
3790000.0 1.478281000e+00 2.142560000e-01
3880000.0 1.454099000e+00 2.227640000e-01
3970000.0 1.434618000e+00 1.559830000e-01
4060000.0 1.414061000e+00 1.918800000e-01
4150000.0 1.396453000e+00 1.249900000e-01
4240000.0 1.379230000e+00 1.612520000e-01
4330000.0 1.365787000e+00 9.730900000e-02
4420000.0 1.351616000e+00 1.320880000e-01
4510000.0 1.336693000e+00 7.270200000e-02
4600000.0 1.327240000e+00 8.242900000e-02
4690000.0 1.316803000e+00 6.766300000e-02
4780000.0 1.307189000e+00 5.474000000e-02
4870000.0 1.299051000e+00 4.291900000e-02
4960000.0 1.292043000e+00 2.954600000e-02
5050000.0 1.278284000e+00 1.711500000e-02
5140000.0 1.271858000e+00 5.402000000e-03
5230000.0 1.266818000e+00 -6.980000000e-03
5320000.0 1.262591000e+00 -1.982800000e-02
5410000.0 1.259070000e+00 -3.231800000e-02
5500000.0 1.255785000e+00 -4.305500000e-02
5590000.0 1.251461000e+00 -5.438400000e-02
5680000.0 1.247959000e+00 -6.620400000e-02
5770000.0 1.245445000e+00 -7.769500000e-02
5860000.0 1.242933000e+00 -8.675800000e-02
5950000.0 1.239430000e+00 -9.693600000e-02
6040000.0 1.236875000e+00 -1.081040000e-01
6130000.0 1.234083000e+00 -1.172870000e-01
6220000.0 1.232754000e+00 -1.268910000e-01
6310000.0 1.230758000e+00 -1.352150000e-01
6400000.0 1.229901000e+00 -1.434010000e-01
6490000.0 1.226898000e+00 -1.513090000e-01
6580000.0 1.224609000e+00 -1.597390000e-01
6670000.0 1.224190000e+00 -1.653720000e-01
6760000.0 1.222662000e+00 -1.717370000e-01
6850000.0 1.221748000e+00 -1.765020000e-01
6940000.0 1.221582000e+00 -1.809180000e-01
7030000.0 1.219543000e+00 -1.850290000e-01
7120000.0 1.219007000e+00 -1.893360000e-01
7210000.0 1.218522000e+00 -1.914380000e-01
7300000.0 1.218569000e+00 -1.934540000e-01
7390000.0 1.219139000e+00 -1.934350000e-01
7480000.0 1.220138000e+00 -1.932640000e-01
7570000.0 -2.429810000e-01 -1.259137000e+00
7660000.0 -2.423910000e-01 -1.258889000e+00
7750000.0 -2.417920000e-01 -1.259952000e+00
7840000.0 -2.403610000e-01 -1.259220000e+00
7930000.0 -2.400560000e-01 -1.259668000e+00
8020000.0 -2.392200000e-01 -1.260173000e+00
8110000.0 -2.392340000e-01 -1.261593000e+00
8200000.0 -2.378180000e-01 -1.262733000e+00
8290000.0 -2.357900000e-01 -1.261897000e+00
8380000.0 -2.362540000e-01 -1.261742000e+00
8470000.0 -2.366940000e-01 -1.262455000e+00
8560000.0 -2.351350000e-01 -1.263921000e+00
8650000.0 -2.346440000e-01 -1.265778000e+00
8740000.0 -2.325350000e-01 -1.264170000e+00
8830000.0 -2.330480000e-01 -1.265401000e+00
8920000.0 -2.329190000e-01 -1.267030000e+00
9010000.0 -2.313110000e-01 -1.268310000e+00
9100000.0 -2.322510000e-01 -1.268568000e+00
9190000.0 -2.303250000e-01 -1.268447000e+00
9280000.0 -2.293910000e-01 -1.269303000e+00
9370000.0 -2.301160000e-01 -1.270072000e+00
9460000.0 -2.284050000e-01 -1.271385000e+00
9550000.0 -2.279000000e-01 -1.272352000e+00
9640000.0 -2.271560000e-01 -1.273155000e+00
9730000.0 -2.264380000e-01 -1.273707000e+00
9820000.0 -2.260140000e-01 -1.273867000e+00
9910000.0 -2.240260000e-01 -1.274460000e+00
10000000.0 -2.253080000e-01 -1.275979000e+00
10900000.0 -2.189780000e-01 -1.284356000e+00
11800000.0 -2.126070000e-01 -1.294135000e+00
12700000.0 -2.069180000e-01 -1.304448000e+00
13600000.0 -2.013470000e-01 -1.314467000e+00
14500000.0 -1.945820000e-01 -1.325554000e+00
15400000.0 -1.884160000e-01 -1.337958000e+00
16300000.0 -1.825370000e-01 -1.349076000e+00
17200000.0 -1.750330000e-01 -1.359430000e+00
18100000.0 -1.688420000e-01 -1.372459000e+00
19000000.0 -1.606570000e-01 -1.384188000e+00
19900000.0 -1.531810000e-01 -1.397978000e+00
20800000.0 -1.449610000e-01 -1.409739000e+00
21700000.0 -1.355620000e-01 -1.423262000e+00
22600000.0 -1.278140000e-01 -1.435024000e+00
23500000.0 -1.176720000e-01 -1.450985000e+00
24400000.0 -1.079460000e-01 -1.462851000e+00
25300000.0 -9.879900000e-02 -1.477398000e+00
26200000.0 -8.591200000e-02 -1.489280000e+00
27100000.0 -7.584700000e-02 -1.504720000e+00
28000000.0 -6.397100000e-02 -1.520044000e+00
28900000.0 -5.193300000e-02 -1.532299000e+00
29800000.0 -1.453750000e-01 -1.472713000e+00
30700000.0 -2.536300000e-02 -1.562215000e+00
31600000.0 -1.114700000e-02 -1.575730000e+00
32500000.0 2.352000000e-03 -1.590818000e+00
33400000.0 1.873500000e-02 -1.605496000e+00
34300000.0 3.356200000e-02 -1.620715000e+00
35200000.0 5.211900000e-02 -1.635300000e+00
36100000.0 6.837200000e-02 -1.649969000e+00
37000000.0 8.759400000e-02 -1.664961000e+00
37900000.0 1.051030000e-01 -1.678036000e+00
38800000.0 1.251800000e-01 -1.693384000e+00
39700000.0 1.458480000e-01 -1.707873000e+00
40600000.0 1.676140000e-01 -1.722284000e+00
41500000.0 1.895710000e-01 -1.736709000e+00
42400000.0 2.105800000e-01 -1.748194000e+00
43300000.0 2.353180000e-01 -1.761258000e+00
44200000.0 2.602870000e-01 -1.775727000e+00
45100000.0 2.856810000e-01 -1.789197000e+00
46000000.0 3.119970000e-01 -1.801337000e+00
46900000.0 3.392940000e-01 -1.812279000e+00
47800000.0 3.680660000e-01 -1.824205000e+00
48700000.0 3.970950000e-01 -1.834053000e+00
49600000.0 4.251310000e-01 -1.842704000e+00
50500000.0 4.579690000e-01 -1.851782000e+00
51400000.0 4.898130000e-01 -1.859423000e+00
52300000.0 5.229910000e-01 -1.867073000e+00
53200000.0 5.557360000e-01 -1.873976000e+00
54100000.0 5.900500000e-01 -1.879817000e+00
55000000.0 6.254230000e-01 -1.881877000e+00
55900000.0 6.627250000e-01 -1.885131000e+00
56800000.0 6.956770000e-01 -1.885617000e+00
57700000.0 7.346720000e-01 -1.884347000e+00
58600000.0 7.736080000e-01 -1.884770000e+00
59500000.0 8.108840000e-01 -1.880765000e+00
60400000.0 8.490020000e-01 -1.875860000e+00
61300000.0 8.518240000e-01 -1.885757000e+00
62200000.0 9.632650000e-01 -1.845041000e+00
63100000.0 9.291260000e-01 -1.869203000e+00
64000000.0 1.042292000e+00 -1.823500000e+00
64900000.0 1.045169000e+00 -1.827004000e+00
65800000.0 1.119381000e+00 -1.791860000e+00
66700000.0 1.085196000e+00 -1.816794000e+00
67600000.0 1.195902000e+00 -1.757285000e+00
68500000.0 1.162574000e+00 -1.778719000e+00
69400000.0 1.232028000e+00 -1.734298000e+00
70300000.0 1.268556000e+00 -1.710181000e+00
71200000.0 1.302634000e+00 -1.684415000e+00
72100000.0 1.337042000e+00 -1.655885000e+00
73000000.0 1.367499000e+00 -1.626649000e+00
73900000.0 1.399968000e+00 -1.598826000e+00
74800000.0 1.425028000e+00 -1.568140000e+00
75700000.0 1.454904000e+00 -1.534442000e+00
76600000.0 1.480710000e+00 -1.500702000e+00
77500000.0 1.505267000e+00 -1.465559000e+00
78400000.0 1.529645000e+00 -1.430033000e+00
79300000.0 1.546109000e+00 -1.396867000e+00
80200000.0 1.567073000e+00 -1.358320000e+00
81100000.0 1.584595000e+00 -1.322631000e+00
82000000.0 1.599261000e+00 -1.283645000e+00
82900000.0 1.613863000e+00 -1.249855000e+00
83800000.0 1.624133000e+00 -1.210516000e+00
84700000.0 1.636380000e+00 -1.174003000e+00
85600000.0 1.642838000e+00 -1.136386000e+00
86500000.0 1.650387000e+00 -1.098035000e+00
87400000.0 1.657197000e+00 -1.062481000e+00
88300000.0 1.659185000e+00 -1.026270000e+00
89200000.0 1.663086000e+00 -9.901070000e-01
90100000.0 1.664254000e+00 -9.555530000e-01
91000000.0 1.663857000e+00 -9.234830000e-01
91900000.0 1.662528000e+00 -8.875950000e-01
92800000.0 1.659288000e+00 -8.541260000e-01
93700000.0 1.657235000e+00 -8.232510000e-01
94600000.0 1.652348000e+00 -7.916490000e-01
95500000.0 1.648841000e+00 -7.602810000e-01
96400000.0 1.640432000e+00 -7.301510000e-01
97300000.0 1.636775000e+00 -7.007520000e-01
98200000.0 1.627988000e+00 -6.745610000e-01
99100000.0 1.619558000e+00 -6.461560000e-01
100000000.0 1.608671000e+00 -6.197220000e-01
109000000.0 1.508831000e+00 -3.715680000e-01
118000000.0 1.377492000e+00 -2.432800000e-01
127000000.0 1.260054000e+00 -1.159050000e-01
136000000.0 1.147430000e+00 -6.842300000e-02
145000000.0 1.049873000e+00 -1.936600000e-02
154000000.0 1.000568000e+00 -4.950000000e-04
163000000.0 1.001927000e+00 -3.050000000e-04
172000000.0 1.002289000e+00 -4.510000000e-04
181000000.0 1.004084000e+00 -6.490000000e-04
190000000.0 1.004642000e+00 -1.290000000e-03
199000000.0 1.004714000e+00 -1.926000000e-03
208000000.0 1.006431000e+00 -1.761000000e-03
217000000.0 1.006450000e+00 -2.091000000e-03
226000000.0 1.006162000e+00 -8.220000000e-04
235000000.0 1.006446000e+00 1.200000000e-04
244000000.0 1.005380000e+00 -1.651000000e-03
253000000.0 1.005746000e+00 -4.360000000e-04
262000000.0 1.005395000e+00 -8.980000000e-04
271000000.0 1.004795000e+00 -8.300000000e-04
280000000.0 1.003951000e+00 -5.560000000e-04
289000000.0 1.001810000e+00 -2.890000000e-04
298000000.0 1.002248000e+00 3.270000000e-04
307000000.0 1.001380000e+00 -8.130000000e-04
316000000.0 1.002134000e+00 -1.629000000e-03
325000000.0 1.004615000e+00 -4.320000000e-04
334000000.0 1.004384000e+00 -4.400000000e-04
343000000.0 1.006818000e+00 9.260000000e-04
352000000.0 1.006601000e+00 -1.870000000e-04
361000000.0 1.006476000e+00 -1.162000000e-03
370000000.0 1.006111000e+00 2.659000000e-03
379000000.0 1.006121000e+00 3.900000000e-04
388000000.0 1.005909000e+00 1.217000000e-03
397000000.0 1.005980000e+00 4.370000000e-04
406000000.0 1.005237000e+00 1.044000000e-03
415000000.0 1.005172000e+00 1.326000000e-03
424000000.0 1.001584000e+00 -1.683700000e-02
433000000.0 1.001909000e+00 1.598000000e-03
442000000.0 9.996440000e-01 8.040000000e-04
451000000.0 9.993780000e-01 3.030000000e-03
460000000.0 1.000965000e+00 1.938000000e-03
469000000.0 1.002872000e+00 2.415000000e-03
478000000.0 1.004787000e+00 5.473000000e-03
487000000.0 1.005610000e+00 3.236000000e-03
496000000.0 1.007274000e+00 2.499000000e-03
505000000.0 1.007744000e+00 7.234000000e-03
514000000.0 1.007854000e+00 6.680000000e-03
523000000.0 1.009310000e+00 7.575000000e-03
532000000.0 1.009213000e+00 7.235000000e-03
541000000.0 1.008349000e+00 6.133000000e-03
550000000.0 1.008527000e+00 9.605000000e-03
559000000.0 1.006275000e+00 8.083000000e-03
568000000.0 1.006452000e+00 7.574000000e-03
577000000.0 1.005323000e+00 8.076000000e-03
586000000.0 1.004625000e+00 7.974000000e-03
595000000.0 1.001787000e+00 9.611000000e-03
604000000.0 1.004479000e+00 7.095000000e-03
613000000.0 1.005117000e+00 9.635000000e-03
622000000.0 1.011006000e+00 4.644000000e-03
631000000.0 1.007335000e+00 1.038000000e-02
640000000.0 1.013815000e+00 9.336000000e-03
649000000.0 1.014514000e+00 7.099000000e-03
658000000.0 1.016408000e+00 1.148300000e-02
667000000.0 1.016971000e+00 3.311000000e-03
676000000.0 1.018008000e+00 6.752000000e-03
685000000.0 1.014915000e+00 9.207000000e-03
694000000.0 1.014444000e+00 6.639000000e-03
703000000.0 1.016350000e+00 6.302000000e-03
712000000.0 1.021549000e+00 3.879000000e-02
721000000.0 1.009575000e+00 6.069000000e-03
730000000.0 1.008244000e+00 4.735000000e-03
739000000.0 1.005769000e+00 4.827000000e-03
748000000.0 1.000761000e+00 2.674000000e-03
757000000.0 1.002189000e+00 -3.550000000e-04
766000000.0 1.006218000e+00 -3.369000000e-03
775000000.0 1.011424000e+00 -1.978000000e-03
784000000.0 1.015572000e+00 -5.944000000e-03
793000000.0 1.013546000e+00 -4.445000000e-03
802000000.0 1.015919000e+00 -2.809000000e-03
811000000.0 1.017412000e+00 -1.577000000e-03
820000000.0 1.018006000e+00 -5.404000000e-03
829000000.0 1.018928000e+00 -4.511000000e-03
838000000.0 1.020294000e+00 -5.350000000e-03
847000000.0 1.016293000e+00 -2.532000000e-03
856000000.0 1.010719000e+00 -4.098000000e-03
865000000.0 1.015382000e+00 -3.943000000e-03
874000000.0 1.008233000e+00 -5.953000000e-03
883000000.0 1.007620000e+00 2.841000000e-03
892000000.0 1.003376000e+00 -3.975000000e-03
901000000.0 1.003069000e+00 3.223000000e-03
910000000.0 9.988940000e-01 -2.400000000e-03
919000000.0 1.004162000e+00 9.240000000e-04
928000000.0 1.001996000e+00 -2.906000000e-03
937000000.0 1.002146000e+00 -8.877000000e-03
946000000.0 1.004382000e+00 -5.274000000e-03
955000000.0 1.006602000e+00 -8.679000000e-03
964000000.0 1.004674000e+00 -7.868000000e-03
973000000.0 1.006413000e+00 -9.178000000e-03
982000000.0 1.004960000e+00 -1.080600000e-02
991000000.0 1.004699000e+00 -5.799000000e-03
1000000000.0 1.005057000e+00 -5.960000000e-03
1004500000.0 1.003272000e+00 -9.596000000e-03
1009000000.0 1.004133000e+00 -7.295000000e-03
1013500000.0 1.003979000e+00 -7.725000000e-03
1018000000.0 1.003218000e+00 -1.012100000e-02
1022500000.0 1.002531000e+00 -1.910000000e-04
1027000000.0 1.004342000e+00 -5.258000000e-03
1031500000.0 1.001832000e+00 -4.398000000e-03
1036000000.0 1.001125000e+00 -5.960000000e-03
1040500000.0 9.997490000e-01 2.560000000e-03
1045000000.0 1.001405000e+00 -1.782000000e-03
1049500000.0 9.988790000e-01 2.496000000e-03
1054000000.0 9.983020000e-01 -3.995000000e-03
1058500000.0 9.978950000e-01 -2.507000000e-03
1063000000.0 1.002358000e+00 3.510000000e-04
1067500000.0 1.001174000e+00 -2.404000000e-03
1072000000.0 9.998900000e-01 -6.790000000e-03
1076500000.0 1.000713000e+00 -4.172000000e-03
1081000000.0 1.003518000e+00 7.390000000e-04
1085500000.0 1.005026000e+00 -3.856000000e-03
1090000000.0 1.004679000e+00 -3.171000000e-03
1094500000.0 1.002221000e+00 -5.797000000e-03
1099000000.0 1.001110000e+00 -6.669000000e-03
1103500000.0 1.006356000e+00 -4.390000000e-03
1108000000.0 1.004465000e+00 -3.191000000e-03
1112500000.0 1.003764000e+00 -8.900000000e-03
1117000000.0 1.001606000e+00 4.898000000e-03
1121500000.0 1.006082000e+00 -4.894000000e-03
1126000000.0 1.001540000e+00 5.699400000e-02
1130500000.0 1.008213000e+00 -4.285000000e-03
1135000000.0 1.004320000e+00 -7.100000000e-05
1139500000.0 1.007139000e+00 -6.990000000e-04
1144000000.0 1.005071000e+00 -1.272000000e-03
1148500000.0 1.010472000e+00 -8.404000000e-03
1153000000.0 1.001626000e+00 -2.804000000e-03
1157500000.0 1.004743000e+00 -3.062000000e-03
1162000000.0 1.001668000e+00 -3.794900000e-02
1166500000.0 1.005806000e+00 -7.540000000e-03
1171000000.0 1.007665000e+00 -3.070000000e-03
1175500000.0 1.002670000e+00 -1.477000000e-03
1180000000.0 1.003247000e+00 -2.288000000e-03
1184500000.0 1.004832000e+00 -2.441000000e-03
1189000000.0 1.010888000e+00 -6.104000000e-03
1193500000.0 1.004190000e+00 -7.490000000e-03
1198000000.0 1.000819000e+00 3.705000000e-03
1202500000.0 1.005980000e+00 -9.851000000e-03
1207000000.0 1.002550000e+00 1.350000000e-03
1211500000.0 1.007245000e+00 -4.486000000e-03
1216000000.0 1.002552000e+00 -1.070700000e-02
1220500000.0 1.000824000e+00 -5.190000000e-03
1225000000.0 1.005119000e+00 -1.583600000e-02
1229500000.0 1.004441000e+00 -6.770000000e-03
1234000000.0 1.005874000e+00 -3.478000000e-03
1238500000.0 1.004400000e+00 -4.386000000e-03
1243000000.0 1.007769000e+00 4.363000000e-03
1247500000.0 1.004320000e+00 -1.413000000e-03
1252000000.0 1.007878000e+00 -5.730000000e-04
1256500000.0 1.007735000e+00 -5.708000000e-03
1261000000.0 9.968710000e-01 -5.360000000e-04
1265500000.0 1.009397000e+00 -2.769000000e-03
1270000000.0 1.004886000e+00 -2.528000000e-03
1274500000.0 1.009259000e+00 -4.429000000e-03
1279000000.0 1.001768000e+00 5.774000000e-03
1283500000.0 1.007154000e+00 7.700000000e-04
1288000000.0 9.998910000e-01 2.036000000e-03
1292500000.0 1.009384000e+00 2.249000000e-03
1297000000.0 1.013016000e+00 -5.956000000e-03
1301500000.0 1.003845000e+00 -1.801000000e-03
1306000000.0 1.002236000e+00 6.714000000e-03
1310500000.0 1.000534000e+00 -4.866000000e-03
1315000000.0 9.977550000e-01 3.789000000e-03
1319500000.0 1.003353000e+00 -1.843000000e-03
1324000000.0 1.002249000e+00 1.251000000e-03
1328500000.0 1.000893000e+00 -4.845000000e-03
1333000000.0 9.992450000e-01 4.860000000e-04
1337500000.0 1.004996000e+00 7.569000000e-03
1342000000.0 1.005889000e+00 1.204300000e-02
1346500000.0 1.006305000e+00 -8.833000000e-03
1351000000.0 1.008057000e+00 3.873000000e-03
1355500000.0 1.004347000e+00 7.065000000e-03
1360000000.0 1.004884000e+00 -1.676000000e-03
1364500000.0 9.994120000e-01 1.055300000e-02
1369000000.0 1.002627000e+00 4.263000000e-03
1373500000.0 1.008509000e+00 1.352600000e-02
1378000000.0 1.001913000e+00 1.148800000e-02
1382500000.0 1.005874000e+00 6.339000000e-03
1387000000.0 1.004081000e+00 1.624300000e-02
1391500000.0 1.003928000e+00 1.579800000e-02
1396000000.0 1.005326000e+00 1.603900000e-02
1400500000.0 1.005682000e+00 8.229000000e-03
1405000000.0 1.001075000e+00 1.804900000e-02
1409500000.0 9.987260000e-01 5.850000000e-03
1414000000.0 1.004002000e+00 1.648000000e-02
1418500000.0 1.004339000e+00 1.908300000e-02
1423000000.0 1.007917000e+00 1.712200000e-02
1427500000.0 1.012528000e+00 1.366900000e-02
1432000000.0 1.002666000e+00 1.839200000e-02
1436500000.0 1.001244000e+00 1.090000000e-02
1441000000.0 1.002418000e+00 1.144200000e-02
1445500000.0 9.999870000e-01 1.262100000e-02
1450000000.0 1.004924000e+00 9.170000000e-03
