! prueba_sol / sol_carga / r04
# HZ S RI R 50
50000.0 -4.588000000e-03 -2.653300000e-02
59500.0 -2.493000000e-03 -1.697300000e-02
69000.0 1.890000000e-04 -1.261700000e-02
78500.0 -9.590000000e-04 -7.767000000e-03
88000.0 -8.950000000e-04 -3.440000000e-03
97500.0 -7.240000000e-04 -8.410000000e-04
107000.0 -3.800000000e-04 1.672000000e-03
116500.0 2.210000000e-04 3.376000000e-03
126000.0 -2.520000000e-04 5.652000000e-03
135500.0 -2.420000000e-04 6.097000000e-03
145000.0 8.250000000e-04 8.316000000e-03
154500.0 1.011000000e-03 9.225000000e-03
164000.0 7.170000000e-04 9.938000000e-03
173500.0 1.122000000e-03 1.104700000e-02
183000.0 8.560000000e-04 1.165600000e-02
192500.0 1.935000000e-03 1.312500000e-02
202000.0 -5.951000000e-03 -3.981000000e-03
211500.0 1.914000000e-03 1.450100000e-02
221000.0 2.185000000e-03 1.438100000e-02
230500.0 -1.849800000e-02 -1.755400000e-02
240000.0 2.200000000e-03 1.570400000e-02
249500.0 2.197000000e-03 1.649400000e-02
259000.0 1.845000000e-03 1.714100000e-02
268500.0 2.116000000e-03 1.753000000e-02
278000.0 2.730000000e-03 1.757600000e-02
287500.0 2.673000000e-03 1.769900000e-02
297000.0 1.137700000e-02 3.587000000e-02
306500.0 3.070000000e-03 1.803800000e-02
316000.0 3.075000000e-03 1.884100000e-02
325500.0 3.029000000e-03 1.930100000e-02
335000.0 2.718000000e-03 1.935200000e-02
344500.0 3.665000000e-03 1.995100000e-02
354000.0 3.867000000e-03 1.989500000e-02
363500.0 3.750000000e-03 1.998900000e-02
373000.0 3.031000000e-03 2.023600000e-02
382500.0 3.590000000e-03 2.051700000e-02
392000.0 4.114000000e-03 2.115600000e-02
401500.0 3.579000000e-03 2.078500000e-02
411000.0 3.539000000e-03 2.135500000e-02
420500.0 4.228000000e-03 2.231200000e-02
430000.0 3.521000000e-03 2.165300000e-02
439500.0 4.190000000e-03 2.217000000e-02
449000.0 4.475000000e-03 2.248500000e-02
458500.0 3.817000000e-03 2.210300000e-02
468000.0 4.574000000e-03 2.228700000e-02
477500.0 4.733000000e-03 2.327500000e-02
487000.0 5.149000000e-03 2.242000000e-02
496500.0 5.705000000e-03 2.383000000e-02
506000.0 4.364000000e-03 2.332200000e-02
515500.0 5.164000000e-03 2.361100000e-02
525000.0 4.982000000e-03 2.387600000e-02
534500.0 4.847000000e-03 2.338900000e-02
544000.0 4.640000000e-03 2.443200000e-02
553500.0 5.007000000e-03 2.364500000e-02
563000.0 4.849000000e-03 2.438500000e-02
572500.0 5.305000000e-03 2.409100000e-02
582000.0 5.166000000e-03 2.435500000e-02
591500.0 5.540000000e-03 2.355000000e-02
601000.0 5.530000000e-03 2.362500000e-02
610500.0 5.089000000e-03 2.497700000e-02
620000.0 5.742000000e-03 2.512300000e-02
629500.0 5.479000000e-03 2.573600000e-02
639000.0 5.864000000e-03 2.579800000e-02
648500.0 6.162000000e-03 2.483600000e-02
658000.0 6.078000000e-03 2.495900000e-02
667500.0 7.052000000e-03 2.623100000e-02
677000.0 6.381000000e-03 2.645000000e-02
686500.0 6.235000000e-03 2.528400000e-02
696000.0 6.615000000e-03 2.674200000e-02
705500.0 6.925000000e-03 2.566300000e-02
715000.0 6.197000000e-03 2.677200000e-02
724500.0 5.672000000e-03 2.494100000e-02
734000.0 7.142000000e-03 2.628800000e-02
743500.0 6.379000000e-03 2.589100000e-02
753000.0 6.775000000e-03 2.657100000e-02
762500.0 6.792000000e-03 2.678100000e-02
772000.0 5.986000000e-03 2.570800000e-02
781500.0 6.453000000e-03 2.784800000e-02
791000.0 8.173000000e-03 2.586200000e-02
800500.0 7.536000000e-03 2.603200000e-02
810000.0 7.978000000e-03 2.648200000e-02
819500.0 7.850000000e-03 2.674300000e-02
829000.0 8.489000000e-03 2.643900000e-02
838500.0 6.850000000e-03 2.695300000e-02
848000.0 7.435000000e-03 2.726700000e-02
857500.0 7.252000000e-03 2.745300000e-02
867000.0 8.410000000e-03 2.738800000e-02
876500.0 8.702000000e-03 2.821500000e-02
886000.0 7.219000000e-03 2.704200000e-02
895500.0 7.779000000e-03 2.649900000e-02
905000.0 8.505000000e-03 2.657800000e-02
914500.0 9.777000000e-03 2.719300000e-02
924000.0 8.874000000e-03 2.614700000e-02
933500.0 9.860000000e-03 2.755400000e-02
943000.0 9.085000000e-03 2.718500000e-02
952500.0 8.761000000e-03 2.778400000e-02
962000.0 9.140000000e-03 2.660000000e-02
971500.0 8.579000000e-03 2.729100000e-02
981000.0 8.551000000e-03 2.827400000e-02
990500.0 9.054000000e-03 2.777400000e-02
1000000.0 8.876000000e-03 2.722800000e-02
1090000.0 1.048600000e-02 2.903100000e-02
1180000.0 1.195300000e-02 2.888600000e-02
1270000.0 1.331300000e-02 2.834500000e-02
1360000.0 1.413800000e-02 2.560700000e-02
1450000.0 1.586500000e-02 2.796300000e-02
1540000.0 1.381200000e-02 2.605800000e-02
1630000.0 1.667300000e-02 2.456200000e-02
1720000.0 1.913300000e-02 2.489800000e-02
1810000.0 2.080100000e-02 2.364900000e-02
1900000.0 1.864600000e-02 2.039700000e-02
1990000.0 1.922100000e-02 1.834200000e-02
2080000.0 1.735700000e-02 1.612000000e-02
2170000.0 1.641000000e-02 1.291400000e-02
2260000.0 1.749400000e-02 1.246100000e-02
2350000.0 1.641500000e-02 1.202000000e-02
2440000.0 1.547400000e-02 1.116900000e-02
2530000.0 1.377200000e-02 8.383000000e-03
2620000.0 9.479000000e-03 8.613000000e-03
2710000.0 9.961000000e-03 8.605000000e-03
2800000.0 3.227000000e-03 2.662700000e-02
2890000.0 6.410000000e-03 8.712000000e-03
2980000.0 5.681000000e-03 8.794000000e-03
3070000.0 5.975000000e-03 8.900000000e-03
3160000.0 4.330000000e-03 8.723000000e-03
3250000.0 3.812000000e-03 8.346000000e-03
3340000.0 2.592000000e-03 9.361000000e-03
3430000.0 1.393000000e-03 9.662000000e-03
3520000.0 1.360000000e-03 9.597000000e-03
3610000.0 2.889000000e-03 7.926000000e-03
3700000.0 5.500000000e-04 9.191000000e-03
3790000.0 5.100000000e-05 8.615000000e-03
3880000.0 -5.340000000e-04 9.541000000e-03
3970000.0 6.300000000e-04 1.075100000e-02
4060000.0 -9.100000000e-05 9.227000000e-03
4150000.0 -4.300000000e-04 1.034800000e-02
4240000.0 -1.901000000e-03 9.436000000e-03
4330000.0 -1.166000000e-03 9.616000000e-03
4420000.0 -1.509000000e-03 8.906000000e-03
4510000.0 -1.978000000e-03 1.008400000e-02
4600000.0 -1.033000000e-03 9.972000000e-03
4690000.0 -1.261000000e-03 1.000400000e-02
4780000.0 -3.066000000e-03 9.320000000e-03
4870000.0 -1.051000000e-03 1.263000000e-02
4960000.0 -2.014000000e-03 9.375000000e-03
5050000.0 -2.215000000e-03 8.992000000e-03
5140000.0 -2.451000000e-03 9.234000000e-03
5230000.0 -2.722000000e-03 8.822000000e-03
5320000.0 -2.834000000e-03 8.584000000e-03
5410000.0 -2.142000000e-03 8.701000000e-03
5500000.0 -2.368000000e-03 9.495000000e-03
5590000.0 -2.545000000e-03 8.963000000e-03
5680000.0 -2.348000000e-03 9.499000000e-03
5770000.0 -2.699000000e-03 9.529000000e-03
5860000.0 -2.535000000e-03 9.483000000e-03
5950000.0 -3.115000000e-03 9.427000000e-03
6040000.0 -3.460000000e-03 8.499000000e-03
6130000.0 -3.104000000e-03 8.218000000e-03
6220000.0 -2.715000000e-03 8.510000000e-03
6310000.0 -2.913000000e-03 8.423000000e-03
6400000.0 -2.655000000e-03 8.172000000e-03
6490000.0 -2.713000000e-03 8.394000000e-03
6580000.0 -3.601000000e-03 9.741000000e-03
6670000.0 -4.119000000e-03 7.940000000e-03
6760000.0 -2.885000000e-03 8.732000000e-03
6850000.0 -3.553000000e-03 8.352000000e-03
6940000.0 -3.175000000e-03 8.259000000e-03
7030000.0 -3.818000000e-03 7.861000000e-03
7120000.0 -2.721000000e-03 8.710000000e-03
7210000.0 -3.165000000e-03 8.641000000e-03
7300000.0 -2.851000000e-03 7.978000000e-03
7390000.0 -3.317000000e-03 7.349000000e-03
7480000.0 -3.370000000e-03 8.747000000e-03
7570000.0 -1.864600000e-02 -6.000000000e-05
7660000.0 -1.981700000e-02 9.640000000e-04
7750000.0 -1.896000000e-02 9.180000000e-04
7840000.0 -1.889900000e-02 9.450000000e-04
7930000.0 -1.845900000e-02 2.190000000e-04
8020000.0 -1.858600000e-02 5.540000000e-04
8110000.0 -1.850200000e-02 9.690000000e-04
8200000.0 -1.849600000e-02 9.460000000e-04
8290000.0 -1.847800000e-02 3.180000000e-04
8380000.0 -1.888500000e-02 4.860000000e-04
8470000.0 -1.867900000e-02 1.022000000e-03
8560000.0 -1.877800000e-02 3.080000000e-04
8650000.0 -1.877000000e-02 1.216000000e-03
8740000.0 -1.840900000e-02 1.752000000e-03
8830000.0 -1.936900000e-02 1.087000000e-03
8920000.0 -1.959100000e-02 1.166000000e-03
9010000.0 -1.886200000e-02 7.500000000e-04
9100000.0 -1.829000000e-02 1.264000000e-03
9190000.0 -1.818600000e-02 6.050000000e-04
9280000.0 -1.794300000e-02 1.800000000e-04
9370000.0 -1.959000000e-02 7.420000000e-04
9460000.0 -1.762800000e-02 -3.100000000e-04
9550000.0 -1.905400000e-02 2.840000000e-04
9640000.0 -1.813900000e-02 5.370000000e-04
9730000.0 -1.791500000e-02 5.210000000e-04
9820000.0 -1.842200000e-02 1.301000000e-03
9910000.0 -1.837300000e-02 8.210000000e-04
10000000.0 -1.815900000e-02 5.740000000e-04
10900000.0 -1.889800000e-02 7.230000000e-04
11800000.0 -1.882500000e-02 1.425000000e-03
12700000.0 -1.849200000e-02 6.420000000e-04
13600000.0 -1.934000000e-02 2.740000000e-04
14500000.0 -1.804500000e-02 -7.620000000e-04
15400000.0 -1.860700000e-02 -9.200000000e-05
16300000.0 -1.879600000e-02 -4.830000000e-04
17200000.0 -1.840400000e-02 -1.119000000e-03
18100000.0 -1.814100000e-02 -9.440000000e-04
19000000.0 -1.966700000e-02 -1.172000000e-03
19900000.0 -1.868800000e-02 -2.530000000e-04
20800000.0 -1.860600000e-02 -1.676000000e-03
21700000.0 -1.945400000e-02 -8.220000000e-04
22600000.0 -1.801700000e-02 -9.970000000e-04
23500000.0 -1.827800000e-02 -2.262000000e-03
24400000.0 -1.778100000e-02 -1.503000000e-03
25300000.0 -1.836000000e-02 -2.250000000e-03
26200000.0 -1.890800000e-02 -1.920000000e-03
27100000.0 -1.805200000e-02 -2.084000000e-03
28000000.0 -1.874400000e-02 -1.951000000e-03
28900000.0 -1.774400000e-02 -2.539000000e-03
29800000.0 -1.949100000e-02 -2.224000000e-03
30700000.0 -1.812500000e-02 -2.576000000e-03
31600000.0 -1.971500000e-02 -3.133000000e-03
32500000.0 -1.840300000e-02 -2.720000000e-03
33400000.0 -1.874900000e-02 -3.623000000e-03
34300000.0 -1.839000000e-02 -3.891000000e-03
35200000.0 -1.837900000e-02 -4.616000000e-03
36100000.0 -1.839700000e-02 -4.352000000e-03
37000000.0 -1.945300000e-02 -3.433000000e-03
37900000.0 -1.850300000e-02 -4.978000000e-03
38800000.0 -1.777000000e-02 -4.731000000e-03
39700000.0 -1.779200000e-02 -5.142000000e-03
40600000.0 -1.813400000e-02 -4.312000000e-03
41500000.0 -1.743600000e-02 -5.833000000e-03
42400000.0 -1.740700000e-02 -5.031000000e-03
43300000.0 -1.908300000e-02 -5.811000000e-03
44200000.0 -1.938000000e-02 -6.118000000e-03
45100000.0 -1.693800000e-02 -5.558000000e-03
46000000.0 -1.885500000e-02 -5.627000000e-03
46900000.0 -1.752700000e-02 -6.158000000e-03
47800000.0 -1.609400000e-02 -7.192000000e-03
48700000.0 -1.713400000e-02 -7.209000000e-03
49600000.0 -1.686200000e-02 -7.327000000e-03
50500000.0 -1.654800000e-02 -8.158000000e-03
51400000.0 -1.850100000e-02 -7.215000000e-03
52300000.0 -1.498200000e-02 -8.085000000e-03
53200000.0 -1.612800000e-02 -8.353000000e-03
54100000.0 -1.582400000e-02 -8.274000000e-03
55000000.0 -1.658000000e-02 -8.730000000e-03
55900000.0 -1.594900000e-02 -7.556000000e-03
56800000.0 -1.511200000e-02 -8.090000000e-03
57700000.0 -1.550100000e-02 -9.995000000e-03
58600000.0 -1.496600000e-02 -1.008900000e-02
59500000.0 -1.578600000e-02 -1.038400000e-02
60400000.0 -1.507800000e-02 -1.023400000e-02
61300000.0 -1.445200000e-02 -1.061600000e-02
62200000.0 -1.530800000e-02 -1.010000000e-02
63100000.0 -1.360800000e-02 -1.033500000e-02
64000000.0 -1.320600000e-02 -1.171200000e-02
64900000.0 -1.384900000e-02 -1.142200000e-02
65800000.0 -1.267900000e-02 -1.066400000e-02
66700000.0 -1.153300000e-02 -1.223700000e-02
67600000.0 -1.324100000e-02 -1.155800000e-02
68500000.0 -1.284500000e-02 -1.197000000e-02
69400000.0 -1.170500000e-02 -1.184600000e-02
70300000.0 -1.058300000e-02 -1.239800000e-02
71200000.0 -1.015900000e-02 -1.137500000e-02
72100000.0 -1.093900000e-02 -1.195700000e-02
73000000.0 -1.066800000e-02 -1.223600000e-02
73900000.0 -1.037400000e-02 -1.224000000e-02
74800000.0 -9.636000000e-03 -1.260400000e-02
75700000.0 -9.983000000e-03 -1.129500000e-02
76600000.0 -1.029000000e-02 -1.216700000e-02
77500000.0 -1.030400000e-02 -1.317700000e-02
78400000.0 -8.207000000e-03 -1.223500000e-02
79300000.0 -8.380000000e-03 -1.324900000e-02
80200000.0 -7.795000000e-03 -1.227800000e-02
81100000.0 -5.791000000e-03 -1.162900000e-02
82000000.0 -6.008000000e-03 -1.223000000e-02
82900000.0 -6.689000000e-03 -1.111300000e-02
83800000.0 -6.559000000e-03 -1.051500000e-02
84700000.0 -6.603000000e-03 -1.125600000e-02
85600000.0 -7.319000000e-03 -1.103900000e-02
86500000.0 -5.257000000e-03 -1.032400000e-02
87400000.0 -4.974000000e-03 -1.085500000e-02
88300000.0 -4.881000000e-03 -1.055500000e-02
89200000.0 -4.710000000e-03 -1.089100000e-02
90100000.0 -2.829000000e-03 -1.147500000e-02
91000000.0 -2.006000000e-03 -9.576000000e-03
91900000.0 -3.705000000e-03 -9.875000000e-03
92800000.0 -3.432000000e-03 -1.001300000e-02
93700000.0 -3.727000000e-03 -9.277000000e-03
94600000.0 -4.736000000e-03 -9.949000000e-03
95500000.0 -3.549000000e-03 -8.592000000e-03
96400000.0 -3.641000000e-03 -8.105000000e-03
97300000.0 -1.190000000e-03 -9.010000000e-03
98200000.0 -2.220000000e-03 -8.777000000e-03
99100000.0 -2.178000000e-03 -7.825000000e-03
100000000.0 -2.386000000e-03 -7.370000000e-03
109000000.0 -1.500000000e-03 -7.152000000e-03
118000000.0 -1.051000000e-03 -4.427000000e-03
127000000.0 1.480000000e-04 -2.743000000e-03
136000000.0 -3.200000000e-04 -1.945000000e-03
145000000.0 -1.400000000e-04 -8.310000000e-04
154000000.0 -1.540000000e-04 -1.750000000e-04
163000000.0 -5.610000000e-04 3.900000000e-05
172000000.0 -3.690000000e-04 2.770000000e-04
181000000.0 -5.850000000e-04 -7.700000000e-05
190000000.0 -1.630000000e-04 -6.650000000e-04
199000000.0 -3.530000000e-04 -5.730000000e-04
208000000.0 1.480000000e-04 7.720000000e-04
217000000.0 -6.280000000e-04 -1.390000000e-04
226000000.0 -2.660000000e-04 2.320000000e-04
235000000.0 -5.000000000e-05 1.000000000e-04
244000000.0 -4.270000000e-04 1.550000000e-04
253000000.0 -2.380000000e-04 2.930000000e-04
262000000.0 -1.260000000e-04 -1.000000000e-05
271000000.0 -1.990000000e-04 7.000000000e-06
280000000.0 -5.460000000e-04 3.910000000e-04
289000000.0 -8.390000000e-04 4.040000000e-04
298000000.0 -8.370000000e-04 1.850000000e-04
307000000.0 -7.270000000e-04 8.640000000e-04
316000000.0 -3.240000000e-04 1.470000000e-04
325000000.0 -2.150000000e-04 -1.620000000e-04
334000000.0 -1.208000000e-03 4.170000000e-04
343000000.0 -1.105000000e-03 5.200000000e-04
352000000.0 -5.450000000e-04 4.550000000e-04
361000000.0 -4.840000000e-04 4.360000000e-04
370000000.0 -1.122000000e-03 2.700000000e-05
379000000.0 -8.780000000e-04 2.320000000e-04
388000000.0 -1.141000000e-03 7.020000000e-04
397000000.0 -6.880000000e-04 2.370000000e-04
406000000.0 -1.248000000e-03 4.560000000e-04
415000000.0 -7.570000000e-04 5.170000000e-04
424000000.0 -4.660000000e-04 8.890000000e-04
433000000.0 -1.213000000e-03 7.250000000e-04
442000000.0 -5.340000000e-04 5.430000000e-04
451000000.0 -6.100000000e-04 2.590000000e-04
460000000.0 -1.096000000e-03 3.690000000e-04
469000000.0 -1.085000000e-03 5.860000000e-04
478000000.0 -6.520000000e-04 6.830000000e-04
487000000.0 -1.398000000e-03 -1.900000000e-05
496000000.0 -1.747000000e-03 1.337000000e-03
505000000.0 -8.280000000e-04 6.900000000e-04
514000000.0 -9.940000000e-04 1.910000000e-04
523000000.0 -1.362000000e-03 1.570000000e-04
532000000.0 -6.220000000e-04 2.570000000e-04
541000000.0 -1.040000000e-03 3.300000000e-05
550000000.0 -1.264000000e-03 5.560000000e-04
559000000.0 -7.620000000e-04 -2.900000000e-05
568000000.0 -9.900000000e-04 8.000000000e-05
577000000.0 -9.150000000e-04 -1.870000000e-04
586000000.0 -1.213000000e-03 1.910000000e-04
595000000.0 -1.594000000e-03 -3.450000000e-04
604000000.0 -1.487000000e-03 -5.750000000e-04
613000000.0 -1.325000000e-03 -5.880000000e-04
622000000.0 -1.319000000e-03 1.390000000e-04
631000000.0 -7.420000000e-04 -8.090000000e-04
640000000.0 -5.460000000e-04 -4.320000000e-04
649000000.0 -1.184000000e-03 -4.620000000e-04
658000000.0 -1.096000000e-03 -2.710000000e-04
667000000.0 -1.049000000e-03 -2.410000000e-04
676000000.0 -8.180000000e-04 -2.460000000e-04
685000000.0 -7.950000000e-04 -2.760000000e-04
694000000.0 -6.020000000e-04 -9.000000000e-05
703000000.0 -7.700000000e-04 -2.960000000e-04
712000000.0 -5.380000000e-04 -3.540000000e-04
721000000.0 -6.810000000e-04 1.600000000e-05
730000000.0 -7.830000000e-04 4.900000000e-05
739000000.0 -8.740000000e-04 6.600000000e-05
748000000.0 -3.930000000e-04 8.400000000e-04
757000000.0 -6.550000000e-04 4.520000000e-04
766000000.0 -7.400000000e-04 7.700000000e-05
775000000.0 -5.160000000e-04 5.920000000e-04
784000000.0 -5.630000000e-04 -2.900000000e-05
793000000.0 -7.240000000e-04 4.330000000e-04
802000000.0 -1.095000000e-03 1.425000000e-03
811000000.0 -2.090000000e-04 6.780000000e-04
820000000.0 -1.530000000e-04 3.020000000e-04
829000000.0 -4.960000000e-04 6.520000000e-04
838000000.0 -6.980000000e-04 1.950000000e-04
847000000.0 -3.600000000e-04 9.500000000e-04
856000000.0 -6.930000000e-04 3.430000000e-04
865000000.0 -7.650000000e-04 5.880000000e-04
874000000.0 -5.670000000e-04 -4.000000000e-06
883000000.0 -1.399000000e-03 5.020000000e-04
892000000.0 -3.920000000e-04 7.800000000e-04
901000000.0 -1.707000000e-03 1.251000000e-03
910000000.0 -1.739000000e-03 4.010000000e-04
919000000.0 -1.633000000e-03 9.490000000e-04
928000000.0 -9.790000000e-04 8.900000000e-04
937000000.0 -1.239000000e-03 5.610000000e-04
946000000.0 -1.055000000e-03 5.000000000e-04
955000000.0 -1.201000000e-03 8.200000000e-04
964000000.0 -1.084000000e-03 5.670000000e-04
973000000.0 -1.177000000e-03 7.260000000e-04
982000000.0 -1.394000000e-03 7.080000000e-04
991000000.0 -1.779000000e-03 4.690000000e-04
1000000000.0 -1.217000000e-03 3.540000000e-04
1004500000.0 -1.077000000e-03 1.018000000e-03
1009000000.0 -9.900000000e-04 3.720000000e-04
1013500000.0 -1.418000000e-03 4.400000000e-04
1018000000.0 -1.059000000e-03 1.026000000e-03
1022500000.0 -1.009000000e-03 9.610000000e-04
1027000000.0 -1.233000000e-03 1.761000000e-03
1031500000.0 -5.450000000e-04 1.027000000e-03
1036000000.0 -8.400000000e-04 1.117000000e-03
1040500000.0 -1.406000000e-03 1.801000000e-03
1045000000.0 -1.185000000e-03 1.180000000e-03
1049500000.0 -3.870000000e-04 9.290000000e-04
1054000000.0 -1.155000000e-03 1.021000000e-03
1058500000.0 -1.640000000e-03 1.247000000e-03
1063000000.0 -7.440000000e-04 9.120000000e-04
1067500000.0 -1.907000000e-03 2.050000000e-04
1072000000.0 -1.492000000e-03 8.830000000e-04
1076500000.0 -1.011000000e-03 1.243000000e-03
1081000000.0 -8.090000000e-04 7.090000000e-04
1085500000.0 -1.340000000e-03 9.160000000e-04
1090000000.0 -6.000000000e-04 1.087000000e-03
1094500000.0 -8.320000000e-04 1.117000000e-03
1099000000.0 -9.800000000e-04 1.527000000e-03
1103500000.0 -9.470000000e-04 1.141000000e-03
1108000000.0 -8.230000000e-04 1.008000000e-03
1112500000.0 -1.221000000e-03 9.920000000e-04
1117000000.0 -1.460000000e-03 1.307000000e-03
1121500000.0 -8.710000000e-04 1.219000000e-03
1126000000.0 -1.668000000e-03 1.377000000e-03
1130500000.0 -7.810000000e-04 7.860000000e-04
1135000000.0 -6.480000000e-04 1.336000000e-03
1139500000.0 -1.194000000e-03 6.590000000e-04
1144000000.0 -4.398000000e-03 -1.032000000e-03
1148500000.0 -7.760000000e-04 5.950000000e-04
1153000000.0 -3.843000000e-03 4.870000000e-04
1157500000.0 -5.480000000e-04 1.785000000e-03
1162000000.0 -2.680000000e-04 1.661000000e-03
1166500000.0 -2.044000000e-03 7.500000000e-04
1171000000.0 -6.920000000e-04 1.270000000e-03
1175500000.0 -8.620000000e-04 8.320000000e-04
1180000000.0 -5.300000000e-04 1.573000000e-03
1184500000.0 -8.390000000e-04 1.605000000e-03
1189000000.0 -6.730000000e-04 8.490000000e-04
1193500000.0 -9.190000000e-04 1.831000000e-03
1198000000.0 -1.385000000e-03 1.290000000e-03
1202500000.0 -1.856000000e-03 7.850000000e-04
1207000000.0 -1.294000000e-03 1.517000000e-03
1211500000.0 -1.228000000e-03 1.106000000e-03
1216000000.0 -5.760000000e-04 8.110000000e-04
1220500000.0 -1.608000000e-03 1.307000000e-03
1225000000.0 -1.246000000e-03 1.548000000e-03
1229500000.0 -7.260000000e-04 9.570000000e-04
1234000000.0 -8.410000000e-04 1.341000000e-03
1238500000.0 -9.290000000e-04 7.130000000e-04
1243000000.0 -1.025000000e-03 1.167000000e-03
1247500000.0 -1.771000000e-03 1.066000000e-03
1252000000.0 -1.129000000e-03 6.020000000e-04
1256500000.0 -1.116000000e-03 1.433000000e-03
1261000000.0 -1.227000000e-03 7.170000000e-04
1265500000.0 -1.312000000e-03 7.460000000e-04
1270000000.0 -1.399000000e-03 1.078000000e-03
1274500000.0 -1.361000000e-03 1.506000000e-03
1279000000.0 -1.021000000e-03 7.690000000e-04
1283500000.0 -1.177000000e-03 2.880000000e-04
1288000000.0 -1.627000000e-03 -2.090000000e-04
1292500000.0 -1.225000000e-03 3.440000000e-04
1297000000.0 -1.566000000e-03 -8.800000000e-05
1301500000.0 -8.500000000e-04 3.630000000e-04
1306000000.0 -1.930000000e-03 3.740000000e-04
1310500000.0 -1.608000000e-03 3.220000000e-04
1315000000.0 -1.722000000e-03 7.390000000e-04
1319500000.0 -9.440000000e-04 1.084000000e-03
1324000000.0 -1.764000000e-03 6.560000000e-04
1328500000.0 -1.479000000e-03 2.630000000e-04
1333000000.0 -1.068000000e-03 4.130000000e-04
1337500000.0 -1.678000000e-03 -4.700000000e-05
1342000000.0 -1.148000000e-03 4.900000000e-05
1346500000.0 -1.654000000e-03 -7.410000000e-04
1351000000.0 -2.008000000e-03 -1.940000000e-04
1355500000.0 -2.206000000e-03 -2.820000000e-04
1360000000.0 -1.104000000e-03 8.050000000e-04
1364500000.0 -1.221000000e-03 -1.090000000e-03
1369000000.0 -1.990000000e-03 -2.790000000e-04
1373500000.0 -1.354000000e-03 1.101000000e-03
1378000000.0 -1.857000000e-03 2.840000000e-04
1382500000.0 -1.124000000e-03 1.262000000e-03
1387000000.0 -1.104000000e-03 2.900000000e-05
1391500000.0 -7.680000000e-04 -5.980000000e-04
1396000000.0 -1.250000000e-03 -3.500000000e-05
1400500000.0 -1.111000000e-03 -6.000000000e-06
1405000000.0 -1.722000000e-03 -5.440000000e-04
1409500000.0 -6.330000000e-04 -8.740000000e-04
1414000000.0 -1.587000000e-03 -6.600000000e-05
1418500000.0 -1.720000000e-03 -3.210000000e-04
1423000000.0 -1.970000000e-03 -3.570000000e-04
1427500000.0 -2.164000000e-03 -9.230000000e-04
1432000000.0 -1.334000000e-03 -9.720000000e-04
1436500000.0 -7.740000000e-04 5.070000000e-04
1441000000.0 -1.809000000e-03 1.457000000e-03
1445500000.0 -1.634000000e-03 6.180000000e-04
1450000000.0 -1.438000000e-03 5.100000000e-04
