! prueba_sol / sol_abierto / r03
# HZ S RI R 50
50000.0 1.005027000e+00 -7.001100000e-02
59500.0 1.007353000e+00 -5.697500000e-02
69000.0 1.003578000e+00 -4.160800000e-02
78500.0 1.002963000e+00 -3.018500000e-02
88000.0 1.000699000e+00 -1.688100000e-02
97500.0 1.000994000e+00 -4.702000000e-03
107000.0 9.997470000e-01 7.785000000e-03
116500.0 1.000643000e+00 1.982600000e-02
126000.0 9.998750000e-01 3.083400000e-02
135500.0 1.000254000e+00 4.559400000e-02
145000.0 1.001074000e+00 5.621500000e-02
154500.0 1.000661000e+00 6.902900000e-02
164000.0 1.002541000e+00 8.081200000e-02
173500.0 1.002238000e+00 9.328100000e-02
183000.0 1.003071000e+00 1.050810000e-01
192500.0 1.002646000e+00 1.159060000e-01
202000.0 1.003182000e+00 1.278630000e-01
211500.0 1.003637000e+00 1.388100000e-01
221000.0 1.004262000e+00 1.509320000e-01
230500.0 1.004244000e+00 1.621810000e-01
240000.0 8.825300000e-01 -7.723000000e-02
249500.0 1.004447000e+00 1.848590000e-01
259000.0 1.005395000e+00 1.962640000e-01
268500.0 1.005267000e+00 2.076180000e-01
278000.0 1.005027000e+00 2.178240000e-01
287500.0 1.004913000e+00 2.288660000e-01
297000.0 1.005760000e+00 2.407420000e-01
306500.0 1.006449000e+00 2.518490000e-01
316000.0 1.006339000e+00 2.621190000e-01
325500.0 1.006519000e+00 2.723170000e-01
335000.0 1.006907000e+00 2.833890000e-01
344500.0 1.006672000e+00 2.947530000e-01
354000.0 1.006882000e+00 3.049860000e-01
363500.0 1.006993000e+00 3.156740000e-01
373000.0 1.007477000e+00 3.254490000e-01
382500.0 1.007203000e+00 3.369790000e-01
392000.0 1.008070000e+00 3.472720000e-01
401500.0 1.007813000e+00 3.570980000e-01
411000.0 1.008462000e+00 3.676950000e-01
420500.0 1.008070000e+00 3.783030000e-01
430000.0 1.009516000e+00 3.892120000e-01
439500.0 1.009801000e+00 3.990920000e-01
449000.0 1.010327000e+00 4.096600000e-01
458500.0 1.010105000e+00 4.187450000e-01
468000.0 1.009767000e+00 4.293430000e-01
477500.0 1.010773000e+00 4.389630000e-01
487000.0 1.010889000e+00 4.492920000e-01
496500.0 1.011129000e+00 4.591170000e-01
506000.0 1.011129000e+00 4.695370000e-01
515500.0 1.012135000e+00 4.791200000e-01
525000.0 1.012243000e+00 4.892070000e-01
534500.0 1.012222000e+00 4.991440000e-01
544000.0 1.012925000e+00 5.093310000e-01
553500.0 1.013542000e+00 5.183420000e-01
563000.0 1.014131000e+00 5.284660000e-01
572500.0 1.013611000e+00 5.382890000e-01
582000.0 1.014631000e+00 5.479650000e-01
591500.0 1.014532000e+00 5.591850000e-01
601000.0 1.016273000e+00 5.675980000e-01
610500.0 1.016352000e+00 5.779120000e-01
620000.0 1.017635000e+00 5.863200000e-01
629500.0 1.016524000e+00 5.963490000e-01
639000.0 1.017910000e+00 6.060040000e-01
648500.0 1.018499000e+00 6.152350000e-01
658000.0 1.019473000e+00 6.256650000e-01
667500.0 1.019939000e+00 6.343730000e-01
677000.0 1.020136000e+00 6.446500000e-01
686500.0 1.022398000e+00 6.536240000e-01
696000.0 1.022340000e+00 6.635140000e-01
705500.0 1.023831000e+00 6.730340000e-01
715000.0 1.024801000e+00 6.830430000e-01
724500.0 1.024983000e+00 6.919360000e-01
734000.0 1.026036000e+00 7.007900000e-01
743500.0 1.026847000e+00 7.101510000e-01
753000.0 1.038661000e+00 6.994730000e-01
762500.0 1.029384000e+00 7.295540000e-01
772000.0 1.041449000e+00 7.186280000e-01
781500.0 1.019303000e+00 7.667480000e-01
791000.0 1.044996000e+00 7.378060000e-01
800500.0 1.022114000e+00 7.861330000e-01
810000.0 1.046593000e+00 7.551730000e-01
819500.0 1.024762000e+00 8.042740000e-01
829000.0 1.050506000e+00 7.736560000e-01
838500.0 1.028401000e+00 8.226120000e-01
848000.0 1.054536000e+00 7.914450000e-01
857500.0 1.043279000e+00 8.202520000e-01
867000.0 1.045562000e+00 8.299470000e-01
876500.0 1.046528000e+00 8.384730000e-01
886000.0 1.049971000e+00 8.473960000e-01
895500.0 1.051431000e+00 8.559090000e-01
905000.0 1.052523000e+00 8.662990000e-01
914500.0 1.055637000e+00 8.746110000e-01
924000.0 1.057067000e+00 8.844180000e-01
933500.0 1.058686000e+00 8.923990000e-01
943000.0 1.061596000e+00 9.002670000e-01
952500.0 1.064852000e+00 9.101300000e-01
962000.0 1.066158000e+00 9.194650000e-01
971500.0 1.068493000e+00 9.275590000e-01
981000.0 1.070382000e+00 9.374410000e-01
990500.0 1.074935000e+00 9.440780000e-01
1000000.0 1.077600000e+00 9.532660000e-01
1090000.0 1.104082000e+00 1.034105000e+00
1180000.0 1.141849000e+00 1.108110000e+00
1270000.0 1.192948000e+00 1.176903000e+00
1360000.0 1.250566000e+00 1.241870000e+00
1450000.0 1.318041000e+00 1.294719000e+00
1540000.0 1.398923000e+00 1.330964000e+00
1630000.0 1.481415000e+00 1.352832000e+00
1720000.0 1.573175000e+00 1.354859000e+00
1810000.0 1.664610000e+00 1.338639000e+00
1900000.0 1.749340000e+00 1.299999000e+00
1990000.0 1.824102000e+00 1.244050000e+00
2080000.0 1.883353000e+00 1.171906000e+00
2170000.0 1.928858000e+00 1.085307000e+00
2260000.0 1.955869000e+00 9.975080000e-01
2350000.0 1.967385000e+00 9.032340000e-01
2440000.0 1.961143000e+00 8.230300000e-01
2530000.0 1.940609000e+00 7.440030000e-01
2620000.0 1.916122000e+00 6.694920000e-01
2710000.0 1.881663000e+00 6.025040000e-01
2800000.0 1.846676000e+00 5.435210000e-01
2890000.0 1.808166000e+00 4.939630000e-01
2980000.0 1.768693000e+00 4.502420000e-01
3070000.0 1.728734000e+00 4.125730000e-01
3160000.0 1.692324000e+00 3.755120000e-01
3250000.0 1.656226000e+00 3.469690000e-01
3340000.0 1.620937000e+00 3.191490000e-01
3430000.0 1.589109000e+00 2.958140000e-01
3520000.0 1.559460000e+00 2.730870000e-01
3610000.0 1.531278000e+00 2.503700000e-01
3700000.0 1.504454000e+00 2.323250000e-01
3790000.0 1.479778000e+00 2.136990000e-01
3880000.0 1.456915000e+00 1.974840000e-01
3970000.0 1.436239000e+00 1.818480000e-01
4060000.0 1.417163000e+00 1.660470000e-01
4150000.0 1.398132000e+00 1.516850000e-01
4240000.0 1.382537000e+00 1.351670000e-01
4330000.0 1.365795000e+00 1.233370000e-01
4420000.0 1.351834000e+00 1.080160000e-01
4510000.0 1.337498000e+00 9.353600000e-02
4600000.0 1.327645000e+00 8.085900000e-02
4690000.0 1.317471000e+00 6.881300000e-02
4780000.0 1.307405000e+00 5.548900000e-02
4870000.0 1.300040000e+00 4.213800000e-02
4960000.0 1.291542000e+00 2.860100000e-02
5050000.0 1.277519000e+00 1.662100000e-02
5140000.0 1.272657000e+00 4.636000000e-03
5230000.0 1.267902000e+00 -6.693000000e-03
5320000.0 1.263070000e+00 -1.976900000e-02
5410000.0 1.259092000e+00 -3.317100000e-02
5500000.0 1.256907000e+00 -4.294800000e-02
5590000.0 1.251766000e+00 -5.432300000e-02
5680000.0 1.248855000e+00 -6.607500000e-02
5770000.0 1.246410000e+00 -7.696800000e-02
5860000.0 1.243022000e+00 -8.822800000e-02
5950000.0 1.239293000e+00 -9.730700000e-02
6040000.0 1.236882000e+00 -1.079080000e-01
6130000.0 1.235061000e+00 -1.178600000e-01
6220000.0 1.231851000e+00 -1.271610000e-01
6310000.0 1.230743000e+00 -1.358520000e-01
6400000.0 1.227957000e+00 -1.434960000e-01
6490000.0 1.227156000e+00 -1.522530000e-01
6580000.0 1.224531000e+00 -1.600550000e-01
6670000.0 1.223801000e+00 -1.654250000e-01
6760000.0 1.222852000e+00 -1.722400000e-01
6850000.0 1.222620000e+00 -1.764130000e-01
6940000.0 1.222588000e+00 -1.819130000e-01
7030000.0 1.220554000e+00 -1.850600000e-01
7120000.0 1.219268000e+00 -1.896570000e-01
7210000.0 1.220672000e+00 -1.920430000e-01
7300000.0 1.219299000e+00 -1.946840000e-01
7390000.0 1.219625000e+00 -1.941430000e-01
7480000.0 1.219856000e+00 -1.936490000e-01
7570000.0 -2.420270000e-01 -1.258951000e+00
7660000.0 -2.419310000e-01 -1.259341000e+00
7750000.0 -2.415980000e-01 -1.259745000e+00
7840000.0 -2.408730000e-01 -1.260934000e+00
7930000.0 -2.396940000e-01 -1.260479000e+00
8020000.0 -2.387330000e-01 -1.260816000e+00
8110000.0 -2.394330000e-01 -1.261604000e+00
8200000.0 -2.379110000e-01 -1.263090000e+00
8290000.0 -2.375480000e-01 -1.262101000e+00
8380000.0 -2.368040000e-01 -1.263200000e+00
8470000.0 -2.368060000e-01 -1.264693000e+00
8560000.0 -2.358040000e-01 -1.264003000e+00
8650000.0 -2.338580000e-01 -1.265096000e+00
8740000.0 -2.342220000e-01 -1.264552000e+00
8830000.0 -2.325800000e-01 -1.266440000e+00
8920000.0 -2.323660000e-01 -1.267200000e+00
9010000.0 -2.318740000e-01 -1.268276000e+00
9100000.0 -2.308940000e-01 -1.268520000e+00
9190000.0 -2.306690000e-01 -1.268888000e+00
9280000.0 -2.300910000e-01 -1.269816000e+00
9370000.0 -2.298690000e-01 -1.271721000e+00
9460000.0 -2.285100000e-01 -1.271192000e+00
9550000.0 -2.287220000e-01 -1.270454000e+00
9640000.0 -2.263910000e-01 -1.273354000e+00
9730000.0 -2.260520000e-01 -1.273467000e+00
9820000.0 -2.254020000e-01 -1.274543000e+00
9910000.0 -2.266400000e-01 -1.275243000e+00
10000000.0 -2.246750000e-01 -1.276188000e+00
10900000.0 -2.182730000e-01 -1.284926000e+00
11800000.0 -2.133870000e-01 -1.294597000e+00
12700000.0 -2.076200000e-01 -1.303523000e+00
13600000.0 -2.004520000e-01 -1.314923000e+00
14500000.0 -1.952190000e-01 -1.325956000e+00
15400000.0 -1.890690000e-01 -1.337497000e+00
16300000.0 -1.832530000e-01 -1.349423000e+00
17200000.0 -1.744620000e-01 -1.359891000e+00
18100000.0 -1.678470000e-01 -1.373542000e+00
19000000.0 -1.608680000e-01 -1.385897000e+00
19900000.0 -1.535820000e-01 -1.397208000e+00
20800000.0 -1.458490000e-01 -1.410564000e+00
21700000.0 -1.375460000e-01 -1.423603000e+00
22600000.0 -1.281530000e-01 -1.436535000e+00
23500000.0 -1.188240000e-01 -1.451109000e+00
24400000.0 -1.090200000e-01 -1.463940000e+00
25300000.0 -9.821400000e-02 -1.477153000e+00
26200000.0 -8.716700000e-02 -1.490028000e+00
27100000.0 -7.634000000e-02 -1.505620000e+00
28000000.0 -6.369000000e-02 -1.519093000e+00
28900000.0 -5.169300000e-02 -1.532744000e+00
29800000.0 -1.202970000e-01 -1.532293000e+00
30700000.0 -2.530900000e-02 -1.562959000e+00
31600000.0 -1.156000000e-02 -1.577122000e+00
32500000.0 4.245000000e-03 -1.592525000e+00
33400000.0 1.738300000e-02 -1.606036000e+00
34300000.0 3.420900000e-02 -1.621161000e+00
35200000.0 5.029200000e-02 -1.636146000e+00
36100000.0 6.841600000e-02 -1.651476000e+00
37000000.0 8.557200000e-02 -1.664916000e+00
37900000.0 1.062440000e-01 -1.678639000e+00
38800000.0 1.235560000e-01 -1.694154000e+00
39700000.0 1.450640000e-01 -1.709058000e+00
40600000.0 1.675540000e-01 -1.721941000e+00
41500000.0 1.887930000e-01 -1.736283000e+00
42400000.0 2.115160000e-01 -1.749977000e+00
43300000.0 2.371660000e-01 -1.764432000e+00
44200000.0 2.606120000e-01 -1.775981000e+00
45100000.0 2.844270000e-01 -1.788737000e+00
46000000.0 3.118000000e-01 -1.800804000e+00
46900000.0 3.388970000e-01 -1.812105000e+00
47800000.0 3.666750000e-01 -1.824088000e+00
48700000.0 3.958780000e-01 -1.833412000e+00
49600000.0 4.263670000e-01 -1.843555000e+00
50500000.0 4.565850000e-01 -1.851692000e+00
51400000.0 4.901300000e-01 -1.858448000e+00
52300000.0 5.196650000e-01 -1.866318000e+00
53200000.0 5.545270000e-01 -1.873379000e+00
54100000.0 5.896460000e-01 -1.879372000e+00
55000000.0 6.253270000e-01 -1.882424000e+00
55900000.0 6.587560000e-01 -1.885677000e+00
56800000.0 6.969340000e-01 -1.884857000e+00
57700000.0 7.351800000e-01 -1.887050000e+00
58600000.0 7.719660000e-01 -1.885594000e+00
59500000.0 8.099400000e-01 -1.882522000e+00
60400000.0 8.493820000e-01 -1.878270000e+00
61300000.0 8.893710000e-01 -1.871481000e+00
62200000.0 9.262200000e-01 -1.863349000e+00
63100000.0 9.664590000e-01 -1.852263000e+00
64000000.0 1.005962000e+00 -1.841445000e+00
64900000.0 1.044285000e+00 -1.826239000e+00
65800000.0 1.082854000e+00 -1.812074000e+00
66700000.0 1.121833000e+00 -1.796064000e+00
67600000.0 1.161120000e+00 -1.776499000e+00
68500000.0 1.197008000e+00 -1.755527000e+00
69400000.0 1.234614000e+00 -1.733416000e+00
70300000.0 1.267571000e+00 -1.710242000e+00
71200000.0 1.301326000e+00 -1.685067000e+00
72100000.0 1.336180000e+00 -1.657684000e+00
73000000.0 1.367416000e+00 -1.628670000e+00
73900000.0 1.399011000e+00 -1.598129000e+00
74800000.0 1.428215000e+00 -1.567895000e+00
75700000.0 1.457121000e+00 -1.534237000e+00
76600000.0 1.481003000e+00 -1.501795000e+00
77500000.0 1.504895000e+00 -1.467377000e+00
78400000.0 1.529819000e+00 -1.430696000e+00
79300000.0 1.550728000e+00 -1.395425000e+00
80200000.0 1.567166000e+00 -1.359665000e+00
81100000.0 1.585086000e+00 -1.322099000e+00
82000000.0 1.599837000e+00 -1.284797000e+00
82900000.0 1.613042000e+00 -1.248929000e+00
83800000.0 1.624265000e+00 -1.212599000e+00
84700000.0 1.635575000e+00 -1.172822000e+00
85600000.0 1.643547000e+00 -1.135462000e+00
86500000.0 1.650389000e+00 -1.102172000e+00
87400000.0 1.655010000e+00 -1.060628000e+00
88300000.0 1.660858000e+00 -1.026949000e+00
89200000.0 1.662392000e+00 -9.907620000e-01
90100000.0 1.663351000e+00 -9.553070000e-01
91000000.0 1.664679000e+00 -9.223700000e-01
91900000.0 1.662103000e+00 -8.871460000e-01
92800000.0 1.661321000e+00 -8.558480000e-01
93700000.0 1.656130000e+00 -8.217940000e-01
94600000.0 1.652244000e+00 -7.913790000e-01
95500000.0 1.647585000e+00 -7.621350000e-01
96400000.0 1.641496000e+00 -7.317030000e-01
97300000.0 1.634904000e+00 -7.016300000e-01
98200000.0 1.626654000e+00 -6.737870000e-01
99100000.0 1.618447000e+00 -6.473520000e-01
100000000.0 1.610901000e+00 -6.205700000e-01
109000000.0 1.501193000e+00 -4.003500000e-01
118000000.0 1.375545000e+00 -2.441390000e-01
127000000.0 1.256558000e+00 -1.387890000e-01
136000000.0 1.148406000e+00 -6.948200000e-02
145000000.0 1.049887000e+00 -1.932700000e-02
154000000.0 1.000396000e+00 1.090000000e-03
163000000.0 1.001714000e+00 -4.700000000e-05
172000000.0 1.002830000e+00 -1.067000000e-03
181000000.0 1.004177000e+00 -5.840000000e-04
190000000.0 1.005011000e+00 -1.004000000e-03
199000000.0 1.005791000e+00 -2.602000000e-03
208000000.0 1.005755000e+00 -1.404000000e-03
217000000.0 1.006082000e+00 -1.920000000e-03
226000000.0 1.006224000e+00 -2.703000000e-03
235000000.0 1.005855000e+00 -1.450000000e-03
244000000.0 1.005792000e+00 -1.258000000e-03
253000000.0 1.006025000e+00 -2.074000000e-03
262000000.0 1.005244000e+00 -7.950000000e-04
271000000.0 1.003837000e+00 -1.241000000e-03
280000000.0 1.003837000e+00 3.560000000e-04
289000000.0 1.002795000e+00 -4.220000000e-04
298000000.0 1.001134000e+00 -6.820000000e-04
307000000.0 1.002477000e+00 -9.200000000e-05
316000000.0 1.003547000e+00 -1.044000000e-03
325000000.0 1.002462000e+00 -3.920000000e-04
334000000.0 1.004308000e+00 -4.520000000e-04
343000000.0 1.006986000e+00 1.467000000e-03
352000000.0 1.005943000e+00 6.210000000e-04
361000000.0 9.962730000e-01 -5.341100000e-02
370000000.0 1.005403000e+00 9.950000000e-04
379000000.0 1.005851000e+00 4.710000000e-04
388000000.0 1.005352000e+00 5.260000000e-04
397000000.0 1.007400000e+00 2.069200000e-02
406000000.0 9.868370000e-01 -5.016700000e-02
415000000.0 1.006005000e+00 1.941700000e-02
424000000.0 1.003344000e+00 9.300000000e-04
433000000.0 1.003463000e+00 1.760000000e-04
442000000.0 9.999810000e-01 -9.000000000e-06
451000000.0 9.985320000e-01 4.440000000e-04
460000000.0 1.001032000e+00 2.379000000e-03
469000000.0 1.002086000e+00 3.122000000e-03
478000000.0 1.004434000e+00 5.891000000e-03
487000000.0 1.004483000e+00 2.012000000e-03
496000000.0 1.005818000e+00 4.925000000e-03
505000000.0 1.007481000e+00 6.530000000e-03
514000000.0 1.007326000e+00 8.387000000e-03
523000000.0 1.008432000e+00 6.478000000e-03
532000000.0 1.008608000e+00 8.454000000e-03
541000000.0 1.008123000e+00 9.674000000e-03
550000000.0 1.007468000e+00 1.090400000e-02
559000000.0 1.006977000e+00 6.278000000e-03
568000000.0 1.007116000e+00 7.571000000e-03
577000000.0 1.006909000e+00 1.122300000e-02
586000000.0 1.004997000e+00 8.471000000e-03
595000000.0 1.005018000e+00 7.309000000e-03
604000000.0 1.005185000e+00 3.996000000e-03
613000000.0 1.008015000e+00 9.780000000e-03
622000000.0 1.008767000e+00 8.351000000e-03
631000000.0 1.010302000e+00 9.918000000e-03
640000000.0 1.015223000e+00 1.158600000e-02
649000000.0 1.014080000e+00 9.990000000e-03
658000000.0 1.016823000e+00 -8.934000000e-03
667000000.0 1.018882000e+00 8.773000000e-03
676000000.0 1.015364000e+00 2.597300000e-02
685000000.0 1.015842000e+00 5.605000000e-03
694000000.0 1.012957000e+00 -1.161300000e-02
703000000.0 1.012604000e+00 3.536000000e-03
712000000.0 1.012130000e+00 1.118100000e-02
721000000.0 1.011841000e+00 5.633000000e-03
730000000.0 1.007082000e+00 -1.419100000e-02
739000000.0 1.004809000e+00 4.187000000e-03
748000000.0 1.002161000e+00 1.402000000e-03
757000000.0 1.004572000e+00 3.900000000e-04
766000000.0 1.007279000e+00 9.130000000e-04
775000000.0 1.007225000e+00 -3.663000000e-03
784000000.0 1.013769000e+00 -5.347000000e-03
793000000.0 1.014555000e+00 -3.544000000e-03
802000000.0 1.014775000e+00 -4.755000000e-03
811000000.0 1.014881000e+00 -4.580000000e-03
820000000.0 1.015396000e+00 -4.490000000e-03
829000000.0 1.018322000e+00 -5.008000000e-03
838000000.0 1.018342000e+00 -3.009000000e-03
847000000.0 1.016534000e+00 -7.181000000e-03
856000000.0 1.015480000e+00 -2.191000000e-03
865000000.0 1.013272000e+00 -5.006000000e-03
874000000.0 1.012974000e+00 1.143000000e-03
883000000.0 1.008986000e+00 -1.499000000e-03
892000000.0 1.001410000e+00 -4.652000000e-03
901000000.0 9.980680000e-01 -3.048000000e-03
910000000.0 1.002311000e+00 -2.720000000e-03
919000000.0 1.000839000e+00 -3.274000000e-03
928000000.0 1.004181000e+00 -7.900000000e-03
937000000.0 1.002432000e+00 -5.844000000e-03
946000000.0 1.003702000e+00 -7.702000000e-03
955000000.0 1.005200000e+00 -1.186600000e-02
964000000.0 1.004960000e+00 -9.002000000e-03
973000000.0 1.004327000e+00 -8.125000000e-03
982000000.0 1.005234000e+00 -7.726000000e-03
991000000.0 1.005354000e+00 -8.511000000e-03
1000000000.0 1.004083000e+00 -4.593000000e-03
1004500000.0 1.003706000e+00 -7.945000000e-03
1009000000.0 1.004238000e+00 -1.223800000e-02
1013500000.0 1.002392000e+00 -2.280000000e-03
1018000000.0 1.000117000e+00 -4.052000000e-03
1022500000.0 1.004632000e+00 -1.032400000e-02
1027000000.0 1.002817000e+00 -6.480000000e-03
1031500000.0 1.001649000e+00 -7.804000000e-03
1036000000.0 1.001226000e+00 -2.904000000e-03
1040500000.0 9.996590000e-01 -6.218000000e-03
1045000000.0 9.992790000e-01 1.252400000e-02
1049500000.0 9.995070000e-01 -1.484000000e-03
1054000000.0 9.986180000e-01 -3.231000000e-03
1058500000.0 1.001258000e+00 -4.690000000e-04
1063000000.0 1.000114000e+00 -1.234000000e-03
1067500000.0 1.001385000e+00 -8.800000000e-05
1072000000.0 1.001202000e+00 -2.160000000e-04
1076500000.0 1.002367000e+00 -1.666000000e-03
1081000000.0 1.001790000e+00 -5.333000000e-03
1085500000.0 1.001215000e+00 -1.877000000e-03
1090000000.0 1.001536000e+00 5.245000000e-03
1094500000.0 1.007334000e+00 -2.240000000e-04
1099000000.0 1.003407000e+00 -6.220000000e-03
1103500000.0 1.003822000e+00 -8.390000000e-04
1108000000.0 1.001715000e+00 -6.480000000e-03
1112500000.0 1.003264000e+00 -4.180000000e-03
1117000000.0 1.001576000e+00 -5.664000000e-03
1121500000.0 1.008427000e+00 -3.714000000e-03
1126000000.0 1.002932000e+00 -3.782700000e-02
1130500000.0 9.825810000e-01 -5.411500000e-02
1135000000.0 1.006258000e+00 -8.298000000e-03
1139500000.0 1.005537000e+00 -6.053000000e-03
1144000000.0 1.007537000e+00 -5.598000000e-03
1148500000.0 1.004223000e+00 -6.817000000e-03
1153000000.0 1.008526000e+00 -7.599000000e-03
1157500000.0 1.006641000e+00 -2.019000000e-03
1162000000.0 1.005730000e+00 9.440000000e-04
1166500000.0 1.006741000e+00 -8.867000000e-03
1171000000.0 1.005188000e+00 -6.251000000e-03
1175500000.0 1.003838000e+00 -3.745000000e-03
1180000000.0 1.003794000e+00 -6.033000000e-03
1184500000.0 1.002079000e+00 -6.476000000e-03
1189000000.0 1.003173000e+00 -2.550000000e-04
1193500000.0 1.001296000e+00 -8.595000000e-03
1198000000.0 1.002293000e+00 -6.192000000e-03
1202500000.0 1.009265000e+00 -6.267000000e-03
1207000000.0 1.003190000e+00 -2.856000000e-03
1211500000.0 1.005616000e+00 -3.995000000e-03
1216000000.0 1.001385000e+00 -6.490000000e-04
1220500000.0 1.002082000e+00 2.991000000e-03
1225000000.0 1.009425000e+00 -4.341000000e-03
1229500000.0 9.971240000e-01 -8.990000000e-03
1234000000.0 1.000905000e+00 -4.357000000e-03
1238500000.0 1.002261000e+00 -5.534000000e-03
1243000000.0 1.008301000e+00 -2.764000000e-03
1247500000.0 1.007643000e+00 -2.874000000e-03
1252000000.0 1.006026000e+00 -1.168000000e-03
1256500000.0 1.000591000e+00 -4.142000000e-03
1261000000.0 9.976830000e-01 -4.490000000e-03
1265500000.0 1.000572000e+00 1.521000000e-03
1270000000.0 1.003519000e+00 -3.074000000e-03
1274500000.0 1.002649000e+00 -7.359000000e-03
1279000000.0 1.003662000e+00 -5.621000000e-03
1283500000.0 1.005987000e+00 -6.500000000e-05
1288000000.0 1.003129000e+00 2.095000000e-03
1292500000.0 1.002257000e+00 -4.038000000e-03
1297000000.0 1.006013000e+00 -2.922000000e-03
1301500000.0 1.004441000e+00 2.345000000e-03
1306000000.0 1.006225000e+00 -6.190000000e-03
1310500000.0 1.003804000e+00 2.996000000e-03
1315000000.0 1.004924000e+00 -1.997000000e-03
1319500000.0 1.000060000e+00 5.529000000e-03
1324000000.0 1.000605000e+00 -2.340000000e-04
1328500000.0 9.958530000e-01 -2.585000000e-03
1333000000.0 1.000920000e+00 6.341000000e-03
1337500000.0 1.000200000e+00 2.676000000e-03
1342000000.0 1.008513000e+00 -1.663000000e-03
1346500000.0 1.005911000e+00 4.763000000e-03
1351000000.0 1.002759000e+00 4.260000000e-04
1355500000.0 1.001745000e+00 -1.778000000e-03
1360000000.0 1.003331000e+00 7.342000000e-03
1364500000.0 1.003177000e+00 9.237000000e-03
1369000000.0 1.000853000e+00 9.483000000e-03
1373500000.0 1.002916000e+00 7.799000000e-03
1378000000.0 1.000555000e+00 5.733000000e-03
1382500000.0 1.003099000e+00 1.760000000e-03
1387000000.0 1.004299000e+00 1.243900000e-02
1391500000.0 1.007026000e+00 8.343000000e-03
1396000000.0 1.002205000e+00 2.040000000e-04
1400500000.0 1.005258000e+00 8.738000000e-03
1405000000.0 9.972690000e-01 1.810500000e-02
1409500000.0 1.000059000e+00 1.143100000e-02
1414000000.0 1.009743000e+00 1.482800000e-02
1418500000.0 1.010194000e+00 1.139700000e-02
1423000000.0 1.000631000e+00 8.778000000e-03
1427500000.0 9.974280000e-01 1.486600000e-02
1432000000.0 1.001615000e+00 1.212100000e-02
1436500000.0 1.000578000e+00 1.265100000e-02
1441000000.0 1.002508000e+00 1.178500000e-02
1445500000.0 1.002127000e+00 2.071600000e-02
1450000000.0 1.004678000e+00 1.248600000e-02
