! prueba_sol / sol_carga / r01
# HZ S RI R 50
50000.0 -2.565000000e-03 -2.571500000e-02
59500.0 -2.872000000e-03 -1.712800000e-02
69000.0 -5.610000000e-04 -1.303400000e-02
78500.0 -2.419000000e-03 -7.335000000e-03
88000.0 -1.521000000e-03 -2.940000000e-03
97500.0 -7.750000000e-04 -7.540000000e-04
107000.0 -3.510000000e-04 1.798000000e-03
116500.0 1.450000000e-04 3.966000000e-03
126000.0 7.230000000e-04 5.715000000e-03
135500.0 6.890000000e-04 7.900000000e-03
145000.0 5.920000000e-04 8.577000000e-03
154500.0 7.510000000e-04 9.288000000e-03
164000.0 1.467000000e-03 1.034100000e-02
173500.0 9.730000000e-04 1.128700000e-02
183000.0 1.244000000e-03 1.126800000e-02
192500.0 1.511000000e-03 1.278700000e-02
202000.0 2.028000000e-03 1.296600000e-02
211500.0 1.772000000e-03 1.484700000e-02
221000.0 2.213800000e-02 4.552900000e-02
230500.0 1.901000000e-03 1.599100000e-02
240000.0 2.363000000e-02 4.717400000e-02
249500.0 2.784000000e-03 1.613800000e-02
259000.0 3.051000000e-03 1.682500000e-02
268500.0 2.936000000e-03 1.704200000e-02
278000.0 3.042000000e-03 1.759500000e-02
287500.0 2.771000000e-03 1.877800000e-02
297000.0 3.346000000e-03 1.825900000e-02
306500.0 3.227000000e-03 1.906100000e-02
316000.0 3.316000000e-03 1.891900000e-02
325500.0 3.100000000e-03 1.947000000e-02
335000.0 2.644000000e-03 1.941600000e-02
344500.0 3.242000000e-03 1.987300000e-02
354000.0 3.877000000e-03 2.046400000e-02
363500.0 3.673000000e-03 2.008200000e-02
373000.0 3.151000000e-03 2.075600000e-02
382500.0 4.079000000e-03 2.013300000e-02
392000.0 3.922000000e-03 2.116500000e-02
401500.0 4.274000000e-03 2.139500000e-02
411000.0 3.705000000e-03 2.107700000e-02
420500.0 4.159000000e-03 2.199500000e-02
430000.0 4.369000000e-03 2.202300000e-02
439500.0 4.815000000e-03 2.260200000e-02
449000.0 4.592000000e-03 2.152300000e-02
458500.0 4.078000000e-03 2.189100000e-02
468000.0 4.277000000e-03 2.210800000e-02
477500.0 4.316000000e-03 2.250400000e-02
487000.0 4.241000000e-03 2.227400000e-02
496500.0 4.612000000e-03 2.302300000e-02
506000.0 5.291000000e-03 2.320700000e-02
515500.0 4.572000000e-03 2.397600000e-02
525000.0 4.596000000e-03 2.283600000e-02
534500.0 4.836000000e-03 2.362100000e-02
544000.0 4.796000000e-03 2.387500000e-02
553500.0 5.365000000e-03 2.375700000e-02
563000.0 5.186000000e-03 2.418600000e-02
572500.0 6.163000000e-03 2.507200000e-02
582000.0 5.605000000e-03 2.457300000e-02
591500.0 5.816000000e-03 2.444800000e-02
601000.0 5.918000000e-03 2.478700000e-02
610500.0 6.087000000e-03 2.404100000e-02
620000.0 6.928000000e-03 2.504000000e-02
629500.0 5.228000000e-03 2.522300000e-02
639000.0 4.877000000e-03 2.568500000e-02
648500.0 5.726000000e-03 2.589100000e-02
658000.0 6.865000000e-03 2.503100000e-02
667500.0 6.006000000e-03 2.511900000e-02
677000.0 5.660000000e-03 2.566400000e-02
686500.0 6.797000000e-03 2.538700000e-02
696000.0 6.908000000e-03 2.607900000e-02
705500.0 6.698000000e-03 2.518300000e-02
715000.0 7.445000000e-03 2.595000000e-02
724500.0 6.864000000e-03 2.595500000e-02
734000.0 7.634000000e-03 2.559500000e-02
743500.0 7.082000000e-03 2.539800000e-02
753000.0 6.289000000e-03 2.705400000e-02
762500.0 6.963000000e-03 2.663500000e-02
772000.0 5.779000000e-03 2.683900000e-02
781500.0 7.134000000e-03 2.720300000e-02
791000.0 8.286000000e-03 2.654100000e-02
800500.0 6.417000000e-03 2.738300000e-02
810000.0 7.537000000e-03 2.663500000e-02
819500.0 8.554000000e-03 2.611600000e-02
829000.0 8.405000000e-03 2.727400000e-02
838500.0 8.702000000e-03 2.716700000e-02
848000.0 8.561000000e-03 2.695800000e-02
857500.0 7.378000000e-03 2.654200000e-02
867000.0 8.948000000e-03 2.601300000e-02
876500.0 9.492000000e-03 2.735500000e-02
886000.0 7.367000000e-03 2.767400000e-02
895500.0 8.697000000e-03 2.732800000e-02
905000.0 8.523000000e-03 2.695300000e-02
914500.0 8.203000000e-03 2.752000000e-02
924000.0 8.796000000e-03 2.769300000e-02
933500.0 9.612000000e-03 2.819600000e-02
943000.0 7.872000000e-03 2.894900000e-02
952500.0 8.645000000e-03 2.822200000e-02
962000.0 9.287000000e-03 2.771600000e-02
971500.0 9.179000000e-03 2.810700000e-02
981000.0 8.810000000e-03 2.760900000e-02
990500.0 9.341000000e-03 2.849600000e-02
1000000.0 9.943000000e-03 2.751000000e-02
1090000.0 1.015000000e-02 2.799400000e-02
1180000.0 1.198300000e-02 2.785000000e-02
1270000.0 1.279600000e-02 2.761800000e-02
1360000.0 1.371600000e-02 2.918000000e-02
1450000.0 1.601700000e-02 2.592800000e-02
1540000.0 1.554500000e-02 2.648000000e-02
1630000.0 1.660000000e-02 2.386800000e-02
1720000.0 1.856400000e-02 2.311900000e-02
1810000.0 1.825900000e-02 2.171900000e-02
1900000.0 1.793300000e-02 2.087600000e-02
1990000.0 1.974500000e-02 1.649100000e-02
2080000.0 1.773400000e-02 1.633000000e-02
2170000.0 1.838400000e-02 1.289500000e-02
2260000.0 1.638900000e-02 1.070000000e-02
2350000.0 1.263500000e-02 1.110400000e-02
2440000.0 1.371300000e-02 9.199000000e-03
2530000.0 1.204200000e-02 9.828000000e-03
2620000.0 1.154900000e-02 1.036200000e-02
2710000.0 8.036000000e-03 8.722000000e-03
2800000.0 9.201000000e-03 8.137000000e-03
2890000.0 7.631000000e-03 8.047000000e-03
2980000.0 5.722000000e-03 8.034000000e-03
3070000.0 5.110000000e-03 8.275000000e-03
3160000.0 4.929000000e-03 9.111000000e-03
3250000.0 3.076000000e-03 9.740000000e-03
3340000.0 3.301000000e-03 7.998000000e-03
3430000.0 2.725000000e-03 7.618000000e-03
3520000.0 2.333000000e-03 9.429000000e-03
3610000.0 2.289000000e-03 8.768000000e-03
3700000.0 1.106000000e-03 8.715000000e-03
3790000.0 3.740000000e-04 9.986000000e-03
3880000.0 -1.010000000e-04 1.010700000e-02
3970000.0 -9.000000000e-05 8.832000000e-03
4060000.0 -3.910000000e-04 9.493000000e-03
4150000.0 -1.132000000e-03 9.267000000e-03
4240000.0 -9.940000000e-04 9.402000000e-03
4330000.0 -1.257000000e-03 9.891000000e-03
4420000.0 -2.039000000e-03 8.749000000e-03
4510000.0 -8.170000000e-04 9.805000000e-03
4600000.0 -1.522000000e-03 9.717000000e-03
4690000.0 -1.151000000e-03 9.796000000e-03
4780000.0 -2.283000000e-03 1.004700000e-02
4870000.0 -6.670000000e-04 1.088600000e-02
4960000.0 -1.973000000e-03 9.098000000e-03
5050000.0 -2.261000000e-03 8.803000000e-03
5140000.0 -2.397000000e-03 1.013800000e-02
5230000.0 -2.528000000e-03 9.018000000e-03
5320000.0 -2.207000000e-03 1.016600000e-02
5410000.0 -2.926000000e-03 9.148000000e-03
5500000.0 -2.186000000e-03 9.344000000e-03
5590000.0 -3.036000000e-03 9.081000000e-03
5680000.0 -2.718000000e-03 9.094000000e-03
5770000.0 -3.338000000e-03 9.093000000e-03
5860000.0 -2.661000000e-03 8.532000000e-03
5950000.0 -3.479000000e-03 8.857000000e-03
6040000.0 -3.238000000e-03 9.160000000e-03
6130000.0 -2.974000000e-03 8.116000000e-03
6220000.0 -3.093000000e-03 8.671000000e-03
6310000.0 -3.301000000e-03 8.213000000e-03
6400000.0 -2.832000000e-03 9.296000000e-03
6490000.0 -3.073000000e-03 8.279000000e-03
6580000.0 -3.841000000e-03 8.336000000e-03
6670000.0 -3.404000000e-03 8.545000000e-03
6760000.0 -3.985000000e-03 9.136000000e-03
6850000.0 -2.992000000e-03 7.970000000e-03
6940000.0 -2.710000000e-03 8.979000000e-03
7030000.0 -2.534000000e-03 8.349000000e-03
7120000.0 -3.540000000e-03 8.900000000e-03
7210000.0 -3.366000000e-03 8.316000000e-03
7300000.0 -3.519000000e-03 9.291000000e-03
7390000.0 -2.808000000e-03 8.320000000e-03
7480000.0 -3.241000000e-03 9.018000000e-03
7570000.0 -1.953700000e-02 1.468000000e-03
7660000.0 -1.942200000e-02 1.530000000e-03
7750000.0 -1.859000000e-02 1.367000000e-03
7840000.0 -1.919100000e-02 1.149000000e-03
7930000.0 -1.869200000e-02 1.520000000e-03
8020000.0 -1.911600000e-02 2.330000000e-04
8110000.0 -1.878000000e-02 7.010000000e-04
8200000.0 -1.877100000e-02 1.135000000e-03
8290000.0 -1.978700000e-02 1.821000000e-03
8380000.0 -1.843000000e-02 7.910000000e-04
8470000.0 -1.821800000e-02 2.140000000e-04
8560000.0 -1.842400000e-02 7.110000000e-04
8650000.0 -1.911100000e-02 1.375000000e-03
8740000.0 -1.790400000e-02 1.230000000e-04
8830000.0 -1.858800000e-02 6.590000000e-04
8920000.0 -1.857800000e-02 5.110000000e-04
9010000.0 -1.876500000e-02 1.091000000e-03
9100000.0 -1.968000000e-02 3.380000000e-04
9190000.0 -1.876900000e-02 1.126000000e-03
9280000.0 -1.822100000e-02 6.550000000e-04
9370000.0 -1.855200000e-02 1.440000000e-04
9460000.0 -1.838400000e-02 8.640000000e-04
9550000.0 -1.882600000e-02 1.432000000e-03
9640000.0 -1.911900000e-02 1.397000000e-03
9730000.0 -1.803100000e-02 9.980000000e-04
9820000.0 -1.780300000e-02 1.020000000e-03
9910000.0 -1.903900000e-02 7.310000000e-04
10000000.0 -1.874200000e-02 7.490000000e-04
10900000.0 -1.868400000e-02 -1.030000000e-04
11800000.0 -1.875100000e-02 3.350000000e-04
12700000.0 -1.756600000e-02 1.520000000e-04
13600000.0 -1.864600000e-02 -9.500000000e-05
14500000.0 -1.791600000e-02 9.500000000e-05
15400000.0 -1.912800000e-02 -7.850000000e-04
16300000.0 -1.877200000e-02 -3.770000000e-04
17200000.0 -1.811200000e-02 -2.780000000e-04
18100000.0 -1.844100000e-02 -7.880000000e-04
19000000.0 -1.858900000e-02 -3.810000000e-04
19900000.0 -1.910700000e-02 -2.740000000e-04
20800000.0 -1.762500000e-02 -1.011000000e-03
21700000.0 -1.892200000e-02 -7.500000000e-04
22600000.0 -1.825200000e-02 -8.480000000e-04
23500000.0 -1.840900000e-02 -2.482000000e-03
24400000.0 -1.851900000e-02 -1.434000000e-03
25300000.0 -1.906800000e-02 -1.864000000e-03
26200000.0 -1.883900000e-02 -2.281000000e-03
27100000.0 -1.894900000e-02 -1.913000000e-03
28000000.0 -1.818100000e-02 -2.017000000e-03
28900000.0 -1.858300000e-02 -2.430000000e-03
29800000.0 -1.722600000e-02 -2.928000000e-03
30700000.0 -1.965100000e-02 -3.048000000e-03
31600000.0 -1.778600000e-02 -2.569000000e-03
32500000.0 -1.921400000e-02 -2.145000000e-03
33400000.0 -1.805300000e-02 -3.366000000e-03
34300000.0 -1.911700000e-02 -3.332000000e-03
35200000.0 -1.777800000e-02 -3.125000000e-03
36100000.0 -1.890900000e-02 -3.980000000e-03
37000000.0 -1.847700000e-02 -4.946000000e-03
37900000.0 -1.881300000e-02 -5.680000000e-03
38800000.0 -1.812600000e-02 -4.450000000e-03
39700000.0 -1.857000000e-02 -4.356000000e-03
40600000.0 -1.858300000e-02 -5.439000000e-03
41500000.0 -1.763100000e-02 -5.832000000e-03
42400000.0 -1.828900000e-02 -6.482000000e-03
43300000.0 -1.828800000e-02 -5.245000000e-03
44200000.0 -1.889000000e-02 -6.285000000e-03
45100000.0 -1.843400000e-02 -6.996000000e-03
46000000.0 -1.825200000e-02 -6.445000000e-03
46900000.0 -1.749400000e-02 -7.079000000e-03
47800000.0 -1.774200000e-02 -6.664000000e-03
48700000.0 -1.690100000e-02 -7.165000000e-03
49600000.0 -1.781500000e-02 -7.455000000e-03
50500000.0 -1.713700000e-02 -7.982000000e-03
51400000.0 -1.694600000e-02 -7.994000000e-03
52300000.0 -1.660700000e-02 -8.735000000e-03
53200000.0 -1.794100000e-02 -9.923000000e-03
54100000.0 -1.610800000e-02 -8.398000000e-03
55000000.0 -1.510900000e-02 -8.373000000e-03
55900000.0 -1.606600000e-02 -9.687000000e-03
56800000.0 -1.542500000e-02 -9.928000000e-03
57700000.0 -1.604800000e-02 -8.863000000e-03
58600000.0 -1.594900000e-02 -9.611000000e-03
59500000.0 -1.443600000e-02 -9.741000000e-03
60400000.0 -1.486700000e-02 -8.978000000e-03
61300000.0 -1.471200000e-02 -1.001700000e-02
62200000.0 -1.363300000e-02 -1.221000000e-02
63100000.0 -1.466100000e-02 -1.085300000e-02
64000000.0 -1.378400000e-02 -9.953000000e-03
64900000.0 -1.310100000e-02 -1.038800000e-02
65800000.0 -1.229400000e-02 -1.266600000e-02
66700000.0 -1.380800000e-02 -1.168700000e-02
67600000.0 -1.391000000e-02 -1.125400000e-02
68500000.0 -1.215700000e-02 -1.307700000e-02
69400000.0 -1.353800000e-02 -1.065000000e-02
70300000.0 -1.199500000e-02 -1.217500000e-02
71200000.0 -1.248300000e-02 -1.148800000e-02
72100000.0 -1.069600000e-02 -1.379700000e-02
73000000.0 -1.177700000e-02 -1.083200000e-02
73900000.0 -1.059300000e-02 -1.173700000e-02
74800000.0 -9.775000000e-03 -1.286000000e-02
75700000.0 -9.010000000e-03 -1.290700000e-02
76600000.0 -8.595000000e-03 -1.191300000e-02
77500000.0 -9.147000000e-03 -1.232700000e-02
78400000.0 -8.036000000e-03 -1.164100000e-02
79300000.0 -7.886000000e-03 -1.321300000e-02
80200000.0 -7.828000000e-03 -1.262200000e-02
81100000.0 -7.829000000e-03 -1.264100000e-02
82000000.0 -7.059000000e-03 -1.190000000e-02
82900000.0 -6.897000000e-03 -1.133400000e-02
83800000.0 -6.959000000e-03 -1.147600000e-02
84700000.0 -5.713000000e-03 -1.147200000e-02
85600000.0 -5.072000000e-03 -1.266200000e-02
86500000.0 -5.559000000e-03 -1.144600000e-02
87400000.0 -5.317000000e-03 -9.647000000e-03
88300000.0 -5.099000000e-03 -1.039500000e-02
89200000.0 -6.662000000e-03 -9.624000000e-03
90100000.0 -3.285000000e-03 -1.042900000e-02
91000000.0 -4.995000000e-03 -1.020300000e-02
91900000.0 -2.660000000e-03 -9.451000000e-03
92800000.0 -4.783000000e-03 -9.191000000e-03
93700000.0 -3.114000000e-03 -9.075000000e-03
94600000.0 -2.426000000e-03 -9.228000000e-03
95500000.0 -3.283000000e-03 -8.803000000e-03
96400000.0 -3.255000000e-03 -8.352000000e-03
97300000.0 -1.581000000e-03 -9.149000000e-03
98200000.0 -2.757000000e-03 -9.025000000e-03
99100000.0 -2.854000000e-03 -8.509000000e-03
100000000.0 -2.722000000e-03 -8.711000000e-03
109000000.0 -1.896000000e-03 -5.894000000e-03
118000000.0 -2.830000000e-04 -4.572000000e-03
127000000.0 -5.950000000e-04 -3.204000000e-03
136000000.0 -1.860000000e-04 -1.052000000e-03
145000000.0 -4.410000000e-04 -2.760000000e-04
154000000.0 -4.310000000e-04 2.260000000e-04
163000000.0 -9.720000000e-04 1.490000000e-04
172000000.0 -3.100000000e-05 7.800000000e-05
181000000.0 -5.870000000e-04 -4.270000000e-04
190000000.0 -2.500000000e-04 -1.770000000e-04
199000000.0 -4.060000000e-04 2.060000000e-04
208000000.0 -6.740000000e-04 1.310000000e-04
217000000.0 -4.680000000e-04 3.130000000e-04
226000000.0 -1.410000000e-04 7.180000000e-04
235000000.0 -4.810000000e-04 -5.200000000e-05
244000000.0 -2.070000000e-04 -1.590000000e-04
253000000.0 -1.420000000e-04 -8.800000000e-05
262000000.0 -3.370000000e-04 1.820000000e-04
271000000.0 -4.320000000e-04 4.860000000e-04
280000000.0 -1.051000000e-03 -8.600000000e-05
289000000.0 -6.010000000e-04 5.430000000e-04
298000000.0 -5.390000000e-04 2.720000000e-04
307000000.0 -1.032000000e-03 1.760000000e-04
316000000.0 -7.130000000e-04 -1.930000000e-04
325000000.0 -8.870000000e-04 4.340000000e-04
334000000.0 -3.330000000e-04 2.950000000e-04
343000000.0 -5.870000000e-04 2.830000000e-04
352000000.0 -8.640000000e-04 2.220000000e-04
361000000.0 -1.177000000e-03 8.720000000e-04
370000000.0 -6.630000000e-04 1.940000000e-04
379000000.0 -1.156000000e-03 5.650000000e-04
388000000.0 -5.830000000e-04 8.120000000e-04
397000000.0 -9.130000000e-04 2.430000000e-04
406000000.0 -7.960000000e-04 2.740000000e-04
415000000.0 -7.820000000e-04 7.760000000e-04
424000000.0 -1.086000000e-03 2.590000000e-04
433000000.0 -1.057000000e-03 6.130000000e-04
442000000.0 -9.090000000e-04 3.720000000e-04
451000000.0 -1.169000000e-03 6.100000000e-05
460000000.0 -9.520000000e-04 9.890000000e-04
469000000.0 -1.200000000e-03 9.660000000e-04
478000000.0 -4.820000000e-04 1.000000000e-06
487000000.0 -1.132000000e-03 1.830000000e-04
496000000.0 -1.481000000e-03 3.290000000e-04
505000000.0 -1.120000000e-03 3.360000000e-04
514000000.0 -1.110000000e-03 7.160000000e-04
523000000.0 -1.077000000e-03 -3.560000000e-04
532000000.0 -1.268000000e-03 9.800000000e-05
541000000.0 -7.990000000e-04 -4.160000000e-04
550000000.0 -1.109000000e-03 -1.800000000e-05
559000000.0 -9.330000000e-04 -7.200000000e-05
568000000.0 -1.129000000e-03 -4.990000000e-04
577000000.0 -1.157000000e-03 -9.740000000e-04
586000000.0 -1.251000000e-03 -1.420000000e-04
595000000.0 -1.330000000e-03 9.100000000e-05
604000000.0 -1.537000000e-03 2.460000000e-04
613000000.0 -1.698000000e-03 -4.390000000e-04
622000000.0 -9.290000000e-04 -4.260000000e-04
631000000.0 -1.492000000e-03 -3.580000000e-04
640000000.0 -7.660000000e-04 1.200000000e-05
649000000.0 -1.234000000e-03 -3.920000000e-04
658000000.0 -7.730000000e-04 1.900000000e-04
667000000.0 -1.411000000e-03 -2.190000000e-04
676000000.0 -1.303000000e-03 2.100000000e-05
685000000.0 -9.270000000e-04 -5.040000000e-04
694000000.0 -1.580000000e-04 -2.700000000e-05
703000000.0 -4.160000000e-04 -2.600000000e-05
712000000.0 -9.460000000e-04 -6.980000000e-04
721000000.0 -9.370000000e-04 -1.980000000e-04
730000000.0 -4.990000000e-04 5.050000000e-04
739000000.0 -1.028000000e-03 -9.700000000e-05
748000000.0 -7.000000000e-04 -5.200000000e-05
757000000.0 -5.720000000e-04 2.530000000e-04
766000000.0 -1.070000000e-03 -5.800000000e-05
775000000.0 -1.325000000e-03 3.670000000e-04
784000000.0 -7.250000000e-04 2.010000000e-04
793000000.0 -5.670000000e-04 3.320000000e-04
802000000.0 -7.030000000e-04 3.990000000e-04
811000000.0 -9.050000000e-04 2.580000000e-04
820000000.0 -9.940000000e-04 5.940000000e-04
829000000.0 -1.196000000e-03 1.003000000e-03
838000000.0 -5.060000000e-04 6.620000000e-04
847000000.0 -8.180000000e-04 8.810000000e-04
856000000.0 -7.210000000e-04 7.340000000e-04
865000000.0 -1.340000000e-03 3.610000000e-04
874000000.0 -1.620000000e-03 3.390000000e-04
883000000.0 -1.161000000e-03 2.080000000e-04
892000000.0 -1.920000000e-04 8.340000000e-04
901000000.0 -1.394000000e-03 4.200000000e-04
910000000.0 -1.310000000e-03 5.330000000e-04
919000000.0 -9.520000000e-04 4.910000000e-04
928000000.0 -1.790000000e-03 1.170000000e-04
937000000.0 -1.677000000e-03 5.870000000e-04
946000000.0 -1.256000000e-03 5.770000000e-04
955000000.0 -1.214000000e-03 3.660000000e-04
964000000.0 -1.684000000e-03 9.570000000e-04
973000000.0 -1.727000000e-03 7.130000000e-04
982000000.0 -1.342000000e-03 8.370000000e-04
991000000.0 -1.088000000e-03 4.200000000e-04
1000000000.0 3.050000000e-04 8.580000000e-04
1004500000.0 -1.191000000e-03 1.231000000e-03
1009000000.0 -5.480000000e-04 1.340000000e-03
1013500000.0 -5.000000000e-04 5.540000000e-04
1018000000.0 -7.290000000e-04 7.280000000e-04
1022500000.0 -9.580000000e-04 6.570000000e-04
1027000000.0 -1.153000000e-03 1.242000000e-03
1031500000.0 -1.497000000e-03 1.131000000e-03
1036000000.0 -1.152000000e-03 7.460000000e-04
1040500000.0 -8.870000000e-04 1.286000000e-03
1045000000.0 -1.562000000e-03 7.840000000e-04
1049500000.0 -1.466000000e-03 1.590000000e-03
1054000000.0 -9.160000000e-04 2.230000000e-04
1058500000.0 -1.154000000e-03 1.038000000e-03
1063000000.0 -1.795000000e-03 1.070000000e-03
1067500000.0 -1.351000000e-03 2.860000000e-04
1072000000.0 -1.114000000e-03 1.401000000e-03
1076500000.0 -5.180000000e-04 9.810000000e-04
1081000000.0 -1.382000000e-03 1.123000000e-03
1085500000.0 -1.504000000e-03 1.278000000e-03
1090000000.0 -1.011000000e-03 1.438000000e-03
1094500000.0 -1.297000000e-03 1.250000000e-03
1099000000.0 -1.162000000e-03 4.690000000e-04
1103500000.0 -1.779000000e-03 8.140000000e-04
1108000000.0 -1.176000000e-03 1.249000000e-03
1112500000.0 -1.107000000e-03 1.560000000e-04
1117000000.0 -5.740000000e-04 9.830000000e-04
1121500000.0 -6.430000000e-04 1.680000000e-03
1126000000.0 -6.690000000e-04 7.020000000e-04
1130500000.0 -7.920000000e-04 1.041000000e-03
1135000000.0 -1.184000000e-03 8.700000000e-04
1139500000.0 -1.453000000e-03 6.900000000e-04
1144000000.0 -1.269000000e-03 3.680000000e-04
1148500000.0 -1.019000000e-03 1.080000000e-03
1153000000.0 -1.171000000e-03 1.204000000e-03
1157500000.0 -2.896000000e-03 2.250000000e-04
1162000000.0 -1.542000000e-03 9.900000000e-04
1166500000.0 -1.417000000e-03 1.773000000e-03
1171000000.0 -1.526000000e-03 5.930000000e-04
1175500000.0 -1.124000000e-03 1.582000000e-03
1180000000.0 -8.090000000e-04 1.424000000e-03
1184500000.0 -1.152000000e-03 1.149000000e-03
1189000000.0 -3.780000000e-04 1.931000000e-03
1193500000.0 -1.687000000e-03 1.638000000e-03
1198000000.0 -7.330000000e-04 1.129000000e-03
1202500000.0 -7.240000000e-04 8.160000000e-04
1207000000.0 -9.460000000e-04 1.720000000e-03
1211500000.0 -1.165000000e-03 1.559000000e-03
1216000000.0 -1.149000000e-03 1.567000000e-03
1220500000.0 -1.533000000e-03 1.215000000e-03
1225000000.0 -5.980000000e-04 5.370000000e-04
1229500000.0 -9.430000000e-04 1.218000000e-03
1234000000.0 -4.750000000e-04 7.500000000e-04
1238500000.0 -1.680000000e-03 7.240000000e-04
1243000000.0 -1.324000000e-03 5.260000000e-04
1247500000.0 -9.570000000e-04 4.940000000e-04
1252000000.0 -6.980000000e-04 1.002000000e-03
1256500000.0 -1.956000000e-03 1.302000000e-03
1261000000.0 -1.416000000e-03 1.140000000e-03
1265500000.0 -1.899000000e-03 1.689000000e-03
1270000000.0 -1.559000000e-03 8.820000000e-04
1274500000.0 -1.556000000e-03 8.150000000e-04
1279000000.0 -1.253000000e-03 7.770000000e-04
1283500000.0 -1.428000000e-03 5.970000000e-04
1288000000.0 -1.663000000e-03 4.030000000e-04
1292500000.0 -1.453000000e-03 5.110000000e-04
1297000000.0 -1.251000000e-03 8.550000000e-04
1301500000.0 -8.300000000e-04 -2.230000000e-04
1306000000.0 -1.246000000e-03 1.290000000e-04
1310500000.0 -1.641000000e-03 -1.040000000e-04
1315000000.0 -1.431000000e-03 3.110000000e-04
1319500000.0 -1.390000000e-03 8.910000000e-04
1324000000.0 -1.109000000e-03 6.900000000e-04
1328500000.0 -1.897000000e-03 3.880000000e-04
1333000000.0 -2.094000000e-03 -7.700000000e-05
1337500000.0 -8.340000000e-04 2.970000000e-04
1342000000.0 -1.328000000e-03 6.480000000e-04
1346500000.0 -9.150000000e-04 1.299000000e-03
1351000000.0 -1.854000000e-03 1.530000000e-04
1355500000.0 -1.688000000e-03 7.270000000e-04
1360000000.0 -1.648000000e-03 -1.060000000e-04
1364500000.0 -5.810000000e-04 6.000000000e-06
1369000000.0 -1.524000000e-03 1.010000000e-04
1373500000.0 -1.701000000e-03 -1.790000000e-04
1378000000.0 -9.310000000e-04 9.400000000e-05
1382500000.0 -1.204000000e-03 -6.200000000e-05
1387000000.0 -1.702000000e-03 5.110000000e-04
1391500000.0 -1.067000000e-03 3.890000000e-04
1396000000.0 -1.310000000e-03 -8.710000000e-04
1400500000.0 -1.346000000e-03 -9.600000000e-05
1405000000.0 -1.860000000e-03 -3.030000000e-04
1409500000.0 -1.368000000e-03 -2.100000000e-05
1414000000.0 -1.248000000e-03 -4.460000000e-04
1418500000.0 -1.584000000e-03 -6.700000000e-04
1423000000.0 -2.432000000e-03 -1.189000000e-03
1427500000.0 -1.314000000e-03 6.350000000e-04
1432000000.0 -1.307000000e-03 3.310000000e-04
1436500000.0 -1.476000000e-03 5.930000000e-04
1441000000.0 -1.453000000e-03 8.380000000e-04
1445500000.0 -1.482000000e-03 1.474000000e-03
1450000000.0 -1.580000000e-03 3.170000000e-04
