! prueba_sol / sol_corto / r04
# HZ S RI R 50
50000.0 -9.935200000e-01 -3.617900000e-02
59500.0 -9.995070000e-01 -1.707000000e-02
69000.0 -9.989120000e-01 -5.848000000e-03
78500.0 -9.987410000e-01 -1.069000000e-03
88000.0 -9.996400000e-01 2.880000000e-04
97500.0 -9.994450000e-01 4.840000000e-04
107000.0 -9.998740000e-01 -1.933000000e-03
116500.0 -1.000042000e+00 -5.970000000e-03
126000.0 -1.002116000e+00 -9.054000000e-03
135500.0 -9.997730000e-01 -1.496600000e-02
145000.0 -9.998890000e-01 -2.203800000e-02
154500.0 -1.000568000e+00 -2.908600000e-02
164000.0 -1.000068000e+00 -3.612500000e-02
173500.0 -1.000650000e+00 -4.345900000e-02
183000.0 -1.000732000e+00 -5.238900000e-02
192500.0 -9.998300000e-01 -5.989300000e-02
202000.0 -9.998760000e-01 -6.786400000e-02
211500.0 -1.000215000e+00 -7.688100000e-02
221000.0 -9.998000000e-01 -8.575700000e-02
230500.0 -1.001159000e+00 -9.480600000e-02
240000.0 -1.001483000e+00 -1.033650000e-01
249500.0 -1.000836000e+00 -1.118690000e-01
259000.0 -1.001165000e+00 -1.221000000e-01
268500.0 -1.001703000e+00 -1.307140000e-01
278000.0 -1.002020000e+00 -1.392670000e-01
287500.0 -1.002162000e+00 -1.488020000e-01
297000.0 -1.002199000e+00 -1.590720000e-01
306500.0 -1.001994000e+00 -1.684130000e-01
316000.0 -1.002822000e+00 -1.771620000e-01
325500.0 -1.002479000e+00 -1.865370000e-01
335000.0 -1.002453000e+00 -1.954230000e-01
344500.0 -1.003096000e+00 -2.051250000e-01
354000.0 -1.003923000e+00 -2.144420000e-01
363500.0 -1.003355000e+00 -2.238830000e-01
373000.0 -1.003766000e+00 -2.329080000e-01
382500.0 -1.003690000e+00 -2.420430000e-01
392000.0 -1.003926000e+00 -2.525220000e-01
401500.0 -1.004648000e+00 -2.613030000e-01
411000.0 -1.004498000e+00 -2.693460000e-01
420500.0 -1.004637000e+00 -2.804300000e-01
430000.0 -1.004603000e+00 -2.892940000e-01
439500.0 -1.005093000e+00 -2.977210000e-01
449000.0 -1.005056000e+00 -3.072320000e-01
458500.0 -1.005512000e+00 -3.168150000e-01
468000.0 -1.005995000e+00 -3.254340000e-01
477500.0 -1.005924000e+00 -3.351210000e-01
487000.0 -1.006192000e+00 -3.439690000e-01
496500.0 -1.005690000e+00 -3.544070000e-01
506000.0 -1.007315000e+00 -3.628030000e-01
515500.0 -1.006814000e+00 -3.724400000e-01
525000.0 -1.007252000e+00 -3.822610000e-01
534500.0 -1.007457000e+00 -3.905690000e-01
544000.0 -1.008069000e+00 -4.003670000e-01
553500.0 -1.009354000e+00 -4.094770000e-01
563000.0 -1.008729000e+00 -4.175110000e-01
572500.0 -1.008975000e+00 -4.271140000e-01
582000.0 -1.009469000e+00 -4.363410000e-01
591500.0 -1.009385000e+00 -4.462390000e-01
601000.0 -1.010281000e+00 -4.548790000e-01
610500.0 -1.010774000e+00 -4.640800000e-01
620000.0 -1.010542000e+00 -4.730300000e-01
629500.0 -1.011733000e+00 -4.826190000e-01
639000.0 -1.012856000e+00 -4.908910000e-01
648500.0 -1.013111000e+00 -4.995900000e-01
658000.0 -1.013039000e+00 -5.091570000e-01
667500.0 -1.014605000e+00 -5.177610000e-01
677000.0 -1.014930000e+00 -5.271410000e-01
686500.0 -1.015490000e+00 -5.367790000e-01
696000.0 -1.017160000e+00 -5.447280000e-01
705500.0 -1.017109000e+00 -5.539180000e-01
715000.0 -1.017934000e+00 -5.638100000e-01
724500.0 -1.018516000e+00 -5.714760000e-01
734000.0 -1.019867000e+00 -5.818460000e-01
743500.0 -1.020966000e+00 -5.905410000e-01
753000.0 -1.021661000e+00 -5.986600000e-01
762500.0 -1.021949000e+00 -6.075260000e-01
772000.0 -1.023715000e+00 -6.159390000e-01
781500.0 -1.025327000e+00 -6.250740000e-01
791000.0 -1.026024000e+00 -6.336970000e-01
800500.0 -1.026233000e+00 -6.426910000e-01
810000.0 -1.028350000e+00 -6.510550000e-01
819500.0 -1.029520000e+00 -6.607510000e-01
829000.0 -1.031864000e+00 -6.705190000e-01
838500.0 -1.032880000e+00 -6.785650000e-01
848000.0 -1.034108000e+00 -6.879020000e-01
857500.0 -1.035877000e+00 -6.968370000e-01
867000.0 -1.037883000e+00 -7.034420000e-01
876500.0 -1.038057000e+00 -7.128780000e-01
886000.0 -1.040333000e+00 -7.213530000e-01
895500.0 -1.041761000e+00 -7.300160000e-01
905000.0 -1.044770000e+00 -7.384890000e-01
914500.0 -1.045628000e+00 -7.476700000e-01
924000.0 -1.049538000e+00 -7.553350000e-01
933500.0 -1.050888000e+00 -7.646310000e-01
943000.0 -1.051107000e+00 -7.723700000e-01
952500.0 -1.053343000e+00 -7.813420000e-01
962000.0 -1.056522000e+00 -7.904630000e-01
971500.0 -1.057512000e+00 -7.990340000e-01
981000.0 -1.060544000e+00 -8.061670000e-01
990500.0 -1.063974000e+00 -8.140070000e-01
1000000.0 -1.066943000e+00 -8.235710000e-01
1090000.0 -1.094522000e+00 -9.004390000e-01
1180000.0 -1.133282000e+00 -9.738170000e-01
1270000.0 -1.178534000e+00 -1.042825000e+00
1360000.0 -1.236001000e+00 -1.104285000e+00
1450000.0 -1.304219000e+00 -1.152049000e+00
1540000.0 -1.380474000e+00 -1.191720000e+00
1630000.0 -1.462911000e+00 -1.212815000e+00
1720000.0 -1.554936000e+00 -1.212016000e+00
1810000.0 -1.645537000e+00 -1.193062000e+00
1900000.0 -1.728232000e+00 -1.149576000e+00
1990000.0 -1.801273000e+00 -1.084516000e+00
2080000.0 -1.857491000e+00 -1.007566000e+00
2170000.0 -1.895305000e+00 -9.207540000e-01
2260000.0 -1.913737000e+00 -8.239950000e-01
2350000.0 -1.915388000e+00 -7.355300000e-01
2440000.0 -1.901253000e+00 -6.503700000e-01
2530000.0 -1.875073000e+00 -5.736180000e-01
2620000.0 -1.841520000e+00 -5.021130000e-01
2710000.0 -1.802742000e+00 -4.455530000e-01
2800000.0 -1.760228000e+00 -3.891910000e-01
2890000.0 -1.718132000e+00 -3.453030000e-01
2980000.0 -1.678971000e+00 -3.054780000e-01
3070000.0 -1.637240000e+00 -2.714750000e-01
3160000.0 -1.595998000e+00 -2.421420000e-01
3250000.0 -1.557829000e+00 -2.157770000e-01
3340000.0 -1.522805000e+00 -1.935210000e-01
3430000.0 -1.489099000e+00 -1.737630000e-01
3520000.0 -1.458533000e+00 -1.535590000e-01
3610000.0 -1.431334000e+00 -1.387460000e-01
3700000.0 -1.403752000e+00 -1.220350000e-01
3790000.0 -1.379371000e+00 -1.060380000e-01
3880000.0 -1.355787000e+00 -9.292700000e-02
3970000.0 -1.333766000e+00 -7.916500000e-02
4060000.0 -1.315500000e+00 -6.764400000e-02
4150000.0 -1.296741000e+00 -5.438200000e-02
4240000.0 -1.279686000e+00 -4.090300000e-02
4330000.0 -1.265122000e+00 -2.943700000e-02
4420000.0 -1.249652000e+00 -1.776400000e-02
4510000.0 -1.236338000e+00 -7.285000000e-03
4600000.0 -1.225558000e+00 5.054000000e-03
4690000.0 -1.213666000e+00 1.636800000e-02
4780000.0 -1.204342000e+00 2.586400000e-02
4870000.0 -1.196338000e+00 3.728700000e-02
4960000.0 -1.187430000e+00 4.903100000e-02
5050000.0 -1.173756000e+00 5.848300000e-02
5140000.0 -1.167289000e+00 6.972600000e-02
5230000.0 -1.161843000e+00 8.036500000e-02
5320000.0 -1.157604000e+00 9.151600000e-02
5410000.0 -1.152991000e+00 1.006800000e-01
5500000.0 -1.147023000e+00 1.122630000e-01
5590000.0 -1.144295000e+00 1.221970000e-01
5680000.0 -1.140326000e+00 1.312460000e-01
5770000.0 -1.135912000e+00 1.414750000e-01
5860000.0 -1.136343000e+00 1.314250000e-01
5950000.0 -1.123865000e+00 1.814370000e-01
6040000.0 -1.131039000e+00 1.501370000e-01
6130000.0 -1.117340000e+00 1.964500000e-01
6220000.0 -1.120359000e+00 1.852510000e-01
6310000.0 -1.111278000e+00 2.131240000e-01
6400000.0 -1.121006000e+00 1.793960000e-01
6490000.0 -1.106923000e+00 2.266240000e-01
6580000.0 -1.116531000e+00 1.937570000e-01
6670000.0 -1.112127000e+00 2.162780000e-01
6760000.0 -1.108718000e+00 2.247960000e-01
6850000.0 -1.105837000e+00 2.281380000e-01
6940000.0 -1.104670000e+00 2.322650000e-01
7030000.0 -1.104469000e+00 2.364690000e-01
7120000.0 -1.102297000e+00 2.392130000e-01
7210000.0 -1.102985000e+00 2.406800000e-01
7300000.0 -1.103050000e+00 2.421570000e-01
7390000.0 -1.102863000e+00 2.423490000e-01
7480000.0 -1.102108000e+00 2.422880000e-01
7570000.0 1.962800000e-01 1.073603000e+00
7660000.0 1.950910000e-01 1.073452000e+00
7750000.0 1.945610000e-01 1.073890000e+00
7840000.0 1.931130000e-01 1.074780000e+00
7930000.0 1.931890000e-01 1.075808000e+00
8020000.0 1.918130000e-01 1.075103000e+00
8110000.0 1.918040000e-01 1.075427000e+00
8200000.0 1.907750000e-01 1.076877000e+00
8290000.0 1.900250000e-01 1.075996000e+00
8380000.0 1.887820000e-01 1.077706000e+00
8470000.0 1.880730000e-01 1.076801000e+00
8560000.0 1.880840000e-01 1.077608000e+00
8650000.0 1.861540000e-01 1.078565000e+00
8740000.0 1.852740000e-01 1.078333000e+00
8830000.0 1.848560000e-01 1.079585000e+00
8920000.0 1.847780000e-01 1.080197000e+00
9010000.0 1.835690000e-01 1.081027000e+00
9100000.0 1.841540000e-01 1.081480000e+00
9190000.0 1.829240000e-01 1.081378000e+00
9280000.0 1.816220000e-01 1.082166000e+00
9370000.0 1.813640000e-01 1.083110000e+00
9460000.0 1.802260000e-01 1.083594000e+00
9550000.0 1.795170000e-01 1.084567000e+00
9640000.0 1.789740000e-01 1.085542000e+00
9730000.0 1.783960000e-01 1.085199000e+00
9820000.0 1.767820000e-01 1.085461000e+00
9910000.0 1.769110000e-01 1.087136000e+00
10000000.0 1.766930000e-01 1.087503000e+00
10900000.0 1.698150000e-01 1.094625000e+00
11800000.0 1.641430000e-01 1.102007000e+00
12700000.0 1.568990000e-01 1.110841000e+00
13600000.0 1.510900000e-01 1.117984000e+00
14500000.0 1.449510000e-01 1.127358000e+00
15400000.0 1.380630000e-01 1.136731000e+00
16300000.0 1.317270000e-01 1.144573000e+00
17200000.0 1.242650000e-01 1.154468000e+00
18100000.0 1.160560000e-01 1.163974000e+00
19000000.0 1.096740000e-01 1.174251000e+00
19900000.0 1.024960000e-01 1.181558000e+00
20800000.0 9.393100000e-02 1.192548000e+00
21700000.0 8.430500000e-02 1.201260000e+00
22600000.0 7.556300000e-02 1.211941000e+00
23500000.0 6.609400000e-02 1.222007000e+00
24400000.0 5.687300000e-02 1.232039000e+00
25300000.0 4.702200000e-02 1.242284000e+00
26200000.0 3.622800000e-02 1.251534000e+00
27100000.0 2.618600000e-02 1.262340000e+00
28000000.0 1.451100000e-02 1.272286000e+00
28900000.0 2.945000000e-03 1.281899000e+00
29800000.0 -9.929000000e-03 1.292299000e+00
30700000.0 -2.582700000e-02 1.309268000e+00
31600000.0 -3.536500000e-02 1.312102000e+00
32500000.0 -4.819200000e-02 1.322766000e+00
33400000.0 -6.119600000e-02 1.331601000e+00
34300000.0 -7.705100000e-02 1.340955000e+00
35200000.0 -9.043900000e-02 1.351704000e+00
36100000.0 -1.048540000e-01 1.359583000e+00
37000000.0 -1.214370000e-01 1.369460000e+00
37900000.0 -1.381590000e-01 1.379609000e+00
38800000.0 -1.547310000e-01 1.387134000e+00
39700000.0 -1.713980000e-01 1.397075000e+00
40600000.0 -1.885160000e-01 1.404700000e+00
41500000.0 -2.064720000e-01 1.412979000e+00
42400000.0 -2.252740000e-01 1.421845000e+00
43300000.0 -2.433650000e-01 1.427356000e+00
44200000.0 -2.639380000e-01 1.435862000e+00
45100000.0 -2.829840000e-01 1.441509000e+00
46000000.0 -3.026550000e-01 1.448245000e+00
46900000.0 -3.221550000e-01 1.453306000e+00
47800000.0 -3.432330000e-01 1.459868000e+00
48700000.0 -3.641180000e-01 1.463979000e+00
49600000.0 -3.876810000e-01 1.468120000e+00
50500000.0 -4.082710000e-01 1.471981000e+00
51400000.0 -4.312640000e-01 1.475529000e+00
52300000.0 -4.547250000e-01 1.478499000e+00
53200000.0 -4.781590000e-01 1.480070000e+00
54100000.0 -5.003110000e-01 1.481238000e+00
55000000.0 -5.220490000e-01 1.482306000e+00
55900000.0 -5.474170000e-01 1.482829000e+00
56800000.0 -5.713530000e-01 1.481401000e+00
57700000.0 -5.946180000e-01 1.479842000e+00
58600000.0 -6.184550000e-01 1.477704000e+00
59500000.0 -6.427320000e-01 1.475235000e+00
60400000.0 -6.661760000e-01 1.470976000e+00
61300000.0 -6.918530000e-01 1.467917000e+00
62200000.0 -7.145150000e-01 1.462157000e+00
63100000.0 -7.393910000e-01 1.457846000e+00
64000000.0 -7.618250000e-01 1.451109000e+00
64900000.0 -7.893180000e-01 1.443171000e+00
65800000.0 -8.123420000e-01 1.434914000e+00
66700000.0 -8.359030000e-01 1.427751000e+00
67600000.0 -8.610860000e-01 1.418680000e+00
68500000.0 -8.829100000e-01 1.408652000e+00
69400000.0 -9.054720000e-01 1.396830000e+00
70300000.0 -9.301900000e-01 1.387103000e+00
71200000.0 -9.523460000e-01 1.374593000e+00
72100000.0 -9.764480000e-01 1.361188000e+00
73000000.0 -9.953630000e-01 1.349741000e+00
73900000.0 -1.018426000e+00 1.335537000e+00
74800000.0 -1.039773000e+00 1.319639000e+00
75700000.0 -1.060796000e+00 1.305276000e+00
76600000.0 -1.081387000e+00 1.287474000e+00
77500000.0 -1.101219000e+00 1.271514000e+00
78400000.0 -1.119462000e+00 1.255019000e+00
79300000.0 -1.114743000e+00 1.252470000e+00
80200000.0 -1.157323000e+00 1.220024000e+00
81100000.0 -1.174239000e+00 1.200238000e+00
82000000.0 -1.191404000e+00 1.181503000e+00
82900000.0 -1.208958000e+00 1.161837000e+00
83800000.0 -1.223777000e+00 1.142102000e+00
84700000.0 -1.240057000e+00 1.122028000e+00
85600000.0 -1.254873000e+00 1.099993000e+00
86500000.0 -1.293228000e+00 1.060833000e+00
87400000.0 -1.282183000e+00 1.057740000e+00
88300000.0 -1.294142000e+00 1.036021000e+00
89200000.0 -1.308630000e+00 1.012935000e+00
90100000.0 -1.317423000e+00 9.906810000e-01
91000000.0 -1.326835000e+00 9.688690000e-01
91900000.0 -1.337730000e+00 9.453310000e-01
92800000.0 -1.347615000e+00 9.245700000e-01
93700000.0 -1.354333000e+00 8.980700000e-01
94600000.0 -1.362215000e+00 8.767750000e-01
95500000.0 -1.370101000e+00 8.534440000e-01
96400000.0 -1.375338000e+00 8.313150000e-01
97300000.0 -1.379115000e+00 8.075910000e-01
98200000.0 -1.384783000e+00 7.834050000e-01
99100000.0 -1.388440000e+00 7.600600000e-01
100000000.0 -1.390448000e+00 7.376510000e-01
109000000.0 -1.385725000e+00 5.218890000e-01
118000000.0 -1.330317000e+00 3.398960000e-01
127000000.0 -1.249396000e+00 2.006670000e-01
136000000.0 -1.133985000e+00 1.002440000e-01
145000000.0 -1.046834000e+00 2.937600000e-02
154000000.0 -1.000438000e+00 -1.188000000e-03
163000000.0 -1.002101000e+00 -2.777000000e-03
172000000.0 -1.004510000e+00 -5.885000000e-03
181000000.0 -1.005933000e+00 -7.278000000e-03
190000000.0 -1.007681000e+00 -9.665000000e-03
199000000.0 -1.008576000e+00 -1.019000000e-02
208000000.0 -1.009991000e+00 -1.129500000e-02
217000000.0 -1.010631000e+00 -1.143300000e-02
226000000.0 -1.010216000e+00 -1.143700000e-02
235000000.0 -1.010088000e+00 -1.051900000e-02
244000000.0 -1.009847000e+00 -1.153900000e-02
253000000.0 -1.009165000e+00 -9.022000000e-03
262000000.0 -1.008548000e+00 -7.822000000e-03
271000000.0 -1.005560000e+00 -7.657000000e-03
280000000.0 -1.002945000e+00 -5.532000000e-03
289000000.0 -1.002161000e+00 -2.140000000e-03
298000000.0 -9.999700000e-01 -1.124000000e-03
307000000.0 -1.001564000e+00 -1.202000000e-03
316000000.0 -1.004960000e+00 -1.647000000e-03
325000000.0 -1.008545000e+00 -2.497000000e-03
334000000.0 -1.009785000e+00 -2.332000000e-03
343000000.0 -1.012156000e+00 -2.957000000e-03
352000000.0 -1.012918000e+00 -4.036000000e-03
361000000.0 -1.012368000e+00 1.259500000e-02
370000000.0 -1.015222000e+00 -4.517000000e-03
379000000.0 -1.012249000e+00 1.221500000e-02
388000000.0 -1.015062000e+00 -3.919000000e-03
397000000.0 -1.013980000e+00 -2.897000000e-03
406000000.0 -1.013797000e+00 -2.261000000e-03
415000000.0 -1.011803000e+00 -8.770000000e-04
424000000.0 -9.990000000e-01 3.204300000e-02
433000000.0 -1.006079000e+00 -1.356000000e-03
442000000.0 -1.004849000e+00 -2.317000000e-03
451000000.0 -9.994960000e-01 2.360000000e-04
460000000.0 -1.004040000e+00 4.490000000e-04
469000000.0 -1.007612000e+00 3.486000000e-03
478000000.0 -1.010666000e+00 2.730000000e-04
487000000.0 -1.011812000e+00 1.734000000e-03
496000000.0 -1.014319000e+00 3.554000000e-03
505000000.0 -1.016677000e+00 2.135000000e-03
514000000.0 -1.017106000e+00 2.900000000e-05
523000000.0 -1.017208000e+00 5.112000000e-03
532000000.0 -1.016589000e+00 3.305000000e-03
541000000.0 -1.014977000e+00 5.428000000e-03
550000000.0 -1.014202000e+00 2.716000000e-03
559000000.0 -1.012287000e+00 5.537000000e-03
568000000.0 -1.009808000e+00 3.117000000e-03
577000000.0 -1.007719000e+00 2.511000000e-03
586000000.0 -1.005880000e+00 8.310000000e-04
595000000.0 -1.002908000e+00 2.275000000e-03
604000000.0 -1.002369000e+00 1.844000000e-03
613000000.0 -1.003254000e+00 4.390000000e-03
622000000.0 -1.007307000e+00 8.349000000e-03
631000000.0 -1.009977000e+00 9.663000000e-03
640000000.0 -1.009897000e+00 5.256000000e-03
649000000.0 -1.012823000e+00 8.822000000e-03
658000000.0 -1.012706000e+00 1.163900000e-02
667000000.0 -1.012960000e+00 1.098800000e-02
676000000.0 -1.010592000e+00 1.147800000e-02
685000000.0 -1.007578000e+00 1.012700000e-02
694000000.0 -1.010762000e+00 1.062000000e-02
703000000.0 -1.009819000e+00 9.644000000e-03
712000000.0 -1.012356000e+00 7.743000000e-03
721000000.0 -1.004314000e+00 7.695000000e-03
730000000.0 -1.004409000e+00 2.835000000e-03
739000000.0 -1.003609000e+00 2.270000000e-03
748000000.0 -9.993600000e-01 7.470000000e-04
757000000.0 -9.973790000e-01 2.718000000e-03
766000000.0 -9.986080000e-01 2.749000000e-03
775000000.0 -9.981470000e-01 4.843000000e-03
784000000.0 -9.984940000e-01 5.846000000e-03
793000000.0 -9.973530000e-01 6.813000000e-03
802000000.0 -9.980580000e-01 8.327000000e-03
811000000.0 -9.958680000e-01 8.135000000e-03
820000000.0 -9.968820000e-01 9.775000000e-03
829000000.0 -9.984070000e-01 1.337400000e-02
838000000.0 -9.973140000e-01 1.956000000e-03
847000000.0 -9.962560000e-01 4.982000000e-03
856000000.0 -9.955070000e-01 7.527000000e-03
865000000.0 -9.978030000e-01 8.975000000e-03
874000000.0 -9.999800000e-01 4.445000000e-03
883000000.0 -9.995980000e-01 -8.920000000e-04
892000000.0 -9.997810000e-01 2.541000000e-03
901000000.0 -9.995530000e-01 4.160000000e-04
910000000.0 -9.947250000e-01 -3.810000000e-03
919000000.0 -1.002086000e+00 -8.142000000e-03
928000000.0 -9.990750000e-01 -1.024000000e-03
937000000.0 -1.000842000e+00 -7.597000000e-03
946000000.0 -1.002331000e+00 -9.815000000e-03
955000000.0 -1.002075000e+00 -9.316000000e-03
964000000.0 -1.004017000e+00 -9.301000000e-03
973000000.0 -9.991240000e-01 -8.116000000e-03
982000000.0 -1.001485000e+00 -6.136000000e-03
991000000.0 -1.000826000e+00 -8.947000000e-03
1000000000.0 -9.997300000e-01 -4.681000000e-03
1004500000.0 -1.000658000e+00 -4.053000000e-03
1009000000.0 -1.002407000e+00 -7.316000000e-03
1013500000.0 -1.001645000e+00 -6.673000000e-03
1018000000.0 -1.000486000e+00 -4.393000000e-03
1022500000.0 -1.000502000e+00 -5.359000000e-03
1027000000.0 -1.001777000e+00 -4.816000000e-03
1031500000.0 -9.998630000e-01 -4.743000000e-03
1036000000.0 -1.001530000e+00 -6.828000000e-03
1040500000.0 -1.001827000e+00 -3.851000000e-03
1045000000.0 -1.004201000e+00 -5.756000000e-03
1049500000.0 -9.987050000e-01 -3.895000000e-03
1054000000.0 -1.002584000e+00 -6.669000000e-03
1058500000.0 -1.003888000e+00 -2.732000000e-03
1063000000.0 -1.003025000e+00 -4.779000000e-03
1067500000.0 -1.004844000e+00 -6.077000000e-03
1072000000.0 -1.003213000e+00 -1.042000000e-02
1076500000.0 -1.005740000e+00 -9.208000000e-03
1081000000.0 -1.006737000e+00 -1.907800000e-02
1085500000.0 -1.004691000e+00 -1.164200000e-02
1090000000.0 -1.004889000e+00 -1.405800000e-02
1094500000.0 -1.010189000e+00 -8.749000000e-03
1099000000.0 -1.007285000e+00 -1.281200000e-02
1103500000.0 -1.009137000e+00 -1.395300000e-02
1108000000.0 -1.009429000e+00 -4.215000000e-03
1112500000.0 -1.009538000e+00 -8.086000000e-03
1117000000.0 -1.007394000e+00 -7.659000000e-03
1121500000.0 -1.011751000e+00 -4.211200000e-02
1126000000.0 -1.006368000e+00 -9.949000000e-03
1130500000.0 -1.010922000e+00 -1.453900000e-02
1135000000.0 -1.003761000e+00 -6.452000000e-03
1139500000.0 -1.008399000e+00 -1.105600000e-02
1144000000.0 -1.009272000e+00 -2.699700000e-02
1148500000.0 -1.006749000e+00 -7.234000000e-03
1153000000.0 -1.004377000e+00 -9.900000000e-03
1157500000.0 -1.005798000e+00 -1.064800000e-02
1162000000.0 -1.003059000e+00 -6.000000000e-03
1166500000.0 -1.006966000e+00 -1.131300000e-02
1171000000.0 -9.994510000e-01 3.851000000e-03
1175500000.0 -1.002030000e+00 -6.281000000e-03
1180000000.0 -1.004336000e+00 -8.838000000e-03
1184500000.0 -9.994380000e-01 -8.259000000e-03
1189000000.0 -1.002478000e+00 -5.596000000e-03
1193500000.0 -9.954320000e-01 -1.106500000e-02
1198000000.0 -9.975020000e-01 -3.330000000e-04
1202500000.0 -9.945840000e-01 -7.563000000e-03
1207000000.0 -9.989830000e-01 -1.931000000e-03
1211500000.0 -9.973150000e-01 4.516000000e-03
1216000000.0 -9.960940000e-01 -6.258000000e-03
1220500000.0 -1.001954000e+00 -7.426000000e-03
1225000000.0 -1.004971000e+00 1.908000000e-03
1229500000.0 -1.001008000e+00 -5.118000000e-03
1234000000.0 -1.002837000e+00 -6.068000000e-03
1238500000.0 -1.005319000e+00 7.250000000e-04
1243000000.0 -1.005475000e+00 -4.344000000e-03
1247500000.0 -1.002253000e+00 -3.025000000e-03
1252000000.0 -1.006511000e+00 -4.641000000e-03
1256500000.0 -1.002933000e+00 -6.179000000e-03
1261000000.0 -1.001695000e+00 -3.269000000e-03
1265500000.0 -1.012768000e+00 -2.654000000e-03
1270000000.0 -1.004966000e+00 -6.719000000e-03
1274500000.0 -1.002287000e+00 -1.119700000e-02
1279000000.0 -1.005059000e+00 -5.581000000e-03
1283500000.0 -1.002870000e+00 -1.041100000e-02
1288000000.0 -1.007647000e+00 -5.197000000e-03
1292500000.0 -1.002681000e+00 -8.023000000e-03
1297000000.0 -1.002080000e+00 7.970000000e-04
1301500000.0 -1.008877000e+00 -4.130000000e-04
1306000000.0 -1.002222000e+00 -7.342000000e-03
1310500000.0 -9.988090000e-01 -5.682000000e-03
1315000000.0 -1.005261000e+00 -5.920000000e-04
1319500000.0 -9.990340000e-01 -8.860000000e-04
1324000000.0 -1.000566000e+00 5.949000000e-03
1328500000.0 -9.992920000e-01 -6.269000000e-03
1333000000.0 -9.995300000e-01 -6.590000000e-03
1337500000.0 -9.950190000e-01 -7.489000000e-03
1342000000.0 -9.987410000e-01 1.184000000e-03
1346500000.0 -9.976300000e-01 6.495000000e-03
1351000000.0 -9.899690000e-01 1.996000000e-03
1355500000.0 -9.966330000e-01 1.382000000e-03
1360000000.0 -9.955580000e-01 2.569000000e-03
1364500000.0 -9.980400000e-01 -7.447000000e-03
1369000000.0 -9.980980000e-01 -7.187000000e-03
1373500000.0 -9.973700000e-01 7.378000000e-03
1378000000.0 -9.993750000e-01 -1.283000000e-03
1382500000.0 -1.004125000e+00 1.174300000e-02
1387000000.0 -1.000841000e+00 6.349000000e-03
1391500000.0 -1.004639000e+00 3.750000000e-04
1396000000.0 -1.007335000e+00 -1.690000000e-03
1400500000.0 -1.006611000e+00 -1.329000000e-03
1405000000.0 -1.011408000e+00 2.026000000e-03
1409500000.0 -1.011115000e+00 -9.500000000e-05
1414000000.0 -1.007286000e+00 3.086000000e-03
1418500000.0 -1.009736000e+00 -5.774000000e-03
1423000000.0 -1.012574000e+00 -3.853000000e-03
1427500000.0 -1.009060000e+00 -8.860000000e-03
1432000000.0 -1.011482000e+00 -7.870000000e-04
1436500000.0 -1.010353000e+00 6.751000000e-03
1441000000.0 -1.008336000e+00 -9.103000000e-03
1445500000.0 -1.011970000e+00 -3.721000000e-03
1450000000.0 -1.010924000e+00 -1.258000000e-03
