! prueba_sol / sol_abierto / r01
# HZ S RI R 50
50000.0 1.006531000e+00 -7.056300000e-02
59500.0 1.005783000e+00 -5.709400000e-02
69000.0 1.003325000e+00 -4.388000000e-02
78500.0 1.002184000e+00 -2.992200000e-02
88000.0 1.000793000e+00 -1.782000000e-02
97500.0 9.993940000e-01 -4.661000000e-03
107000.0 1.000073000e+00 7.742000000e-03
116500.0 9.999760000e-01 1.991400000e-02
126000.0 9.999920000e-01 3.488800000e-02
135500.0 1.019947000e+00 9.669700000e-02
145000.0 1.000095000e+00 3.875000000e-02
154500.0 1.003849000e+00 8.631300000e-02
164000.0 1.007947000e+00 8.044100000e-02
173500.0 1.002854000e+00 9.315300000e-02
183000.0 1.002169000e+00 1.046350000e-01
192500.0 1.004048000e+00 1.164800000e-01
202000.0 1.003710000e+00 1.291770000e-01
211500.0 1.003153000e+00 1.391570000e-01
221000.0 1.003794000e+00 1.509660000e-01
230500.0 1.005241000e+00 1.627450000e-01
240000.0 1.004095000e+00 1.734980000e-01
249500.0 1.004610000e+00 1.852920000e-01
259000.0 1.005244000e+00 1.962310000e-01
268500.0 1.005129000e+00 2.077960000e-01
278000.0 1.005695000e+00 2.185610000e-01
287500.0 1.006403000e+00 2.293340000e-01
297000.0 1.006311000e+00 2.402210000e-01
306500.0 1.006422000e+00 2.519570000e-01
316000.0 1.006079000e+00 2.623950000e-01
325500.0 1.006550000e+00 2.740660000e-01
335000.0 1.007424000e+00 2.843270000e-01
344500.0 1.007007000e+00 2.939180000e-01
354000.0 1.006767000e+00 3.053260000e-01
363500.0 1.007663000e+00 3.158360000e-01
373000.0 1.007716000e+00 3.262980000e-01
382500.0 1.007537000e+00 3.367670000e-01
392000.0 1.007938000e+00 3.475690000e-01
401500.0 1.008485000e+00 3.579120000e-01
411000.0 1.008157000e+00 3.689140000e-01
420500.0 1.009823000e+00 3.788970000e-01
430000.0 1.008731000e+00 3.889820000e-01
439500.0 1.009656000e+00 3.995430000e-01
449000.0 1.008978000e+00 4.101620000e-01
458500.0 1.010540000e+00 4.199690000e-01
468000.0 1.010774000e+00 4.297520000e-01
477500.0 1.010692000e+00 4.397660000e-01
487000.0 1.011534000e+00 4.501060000e-01
496500.0 1.011015000e+00 4.600660000e-01
506000.0 1.010911000e+00 4.693750000e-01
515500.0 1.012937000e+00 4.799930000e-01
525000.0 1.012308000e+00 4.898740000e-01
534500.0 1.012054000e+00 4.996830000e-01
544000.0 1.012971000e+00 5.097990000e-01
553500.0 1.013350000e+00 5.193680000e-01
563000.0 1.014065000e+00 5.293160000e-01
572500.0 1.013983000e+00 5.387370000e-01
582000.0 1.014830000e+00 5.489150000e-01
591500.0 1.015175000e+00 5.585870000e-01
601000.0 1.015172000e+00 5.680590000e-01
610500.0 1.016465000e+00 5.776550000e-01
620000.0 1.016564000e+00 5.877700000e-01
629500.0 1.018140000e+00 5.972970000e-01
639000.0 1.018305000e+00 6.063040000e-01
648500.0 1.018997000e+00 6.166920000e-01
658000.0 1.019009000e+00 6.255010000e-01
667500.0 1.020103000e+00 6.356990000e-01
677000.0 1.021036000e+00 6.450380000e-01
686500.0 1.022533000e+00 6.543230000e-01
696000.0 1.022774000e+00 6.639800000e-01
705500.0 1.023293000e+00 6.740960000e-01
715000.0 1.025315000e+00 6.832510000e-01
724500.0 1.025806000e+00 6.935300000e-01
734000.0 1.026176000e+00 7.010640000e-01
743500.0 1.027482000e+00 7.102050000e-01
753000.0 1.028170000e+00 7.203000000e-01
762500.0 1.029899000e+00 7.292980000e-01
772000.0 1.030185000e+00 7.379170000e-01
781500.0 1.032248000e+00 7.482000000e-01
791000.0 1.034089000e+00 7.585740000e-01
800500.0 1.034545000e+00 7.659260000e-01
810000.0 1.035694000e+00 7.758230000e-01
819500.0 1.038427000e+00 7.841790000e-01
829000.0 1.038958000e+00 7.947800000e-01
838500.0 1.041146000e+00 8.036180000e-01
848000.0 1.042456000e+00 8.117590000e-01
857500.0 1.043945000e+00 8.211270000e-01
867000.0 1.045313000e+00 8.305900000e-01
876500.0 1.048651000e+00 8.389060000e-01
886000.0 1.049663000e+00 8.484330000e-01
895500.0 1.051220000e+00 8.575700000e-01
905000.0 1.054444000e+00 8.674850000e-01
914500.0 1.056080000e+00 8.751750000e-01
924000.0 1.057900000e+00 8.833390000e-01
933500.0 1.060099000e+00 8.939150000e-01
943000.0 1.062976000e+00 9.014140000e-01
952500.0 1.065055000e+00 9.114530000e-01
962000.0 1.067380000e+00 9.214780000e-01
971500.0 1.069972000e+00 9.288480000e-01
981000.0 1.072232000e+00 9.362430000e-01
990500.0 1.074672000e+00 9.450390000e-01
1000000.0 1.078130000e+00 9.547970000e-01
1090000.0 1.104329000e+00 1.035448000e+00
1180000.0 1.142985000e+00 1.109953000e+00
1270000.0 1.193666000e+00 1.179737000e+00
1360000.0 1.250394000e+00 1.241808000e+00
1450000.0 1.320468000e+00 1.294556000e+00
1540000.0 1.398630000e+00 1.331959000e+00
1630000.0 1.485018000e+00 1.353062000e+00
1720000.0 1.577102000e+00 1.357313000e+00
1810000.0 1.667593000e+00 1.337724000e+00
1900000.0 1.753045000e+00 1.297981000e+00
1990000.0 1.829465000e+00 1.242036000e+00
2080000.0 1.889135000e+00 1.167171000e+00
2170000.0 1.930840000e+00 1.084783000e+00
2260000.0 1.954827000e+00 9.967910000e-01
2350000.0 1.967374000e+00 9.053130000e-01
2440000.0 1.959272000e+00 8.200840000e-01
2530000.0 1.944338000e+00 7.407790000e-01
2620000.0 1.913683000e+00 6.657890000e-01
2710000.0 1.879881000e+00 5.989800000e-01
2800000.0 1.838422000e+00 5.793920000e-01
2890000.0 1.805825000e+00 4.934650000e-01
2980000.0 1.767457000e+00 4.489470000e-01
3070000.0 1.728721000e+00 4.103610000e-01
3160000.0 1.691229000e+00 3.754050000e-01
3250000.0 1.655515000e+00 3.460950000e-01
3340000.0 1.622525000e+00 3.194970000e-01
3430000.0 1.589232000e+00 2.939290000e-01
3520000.0 1.559180000e+00 2.713610000e-01
3610000.0 1.531064000e+00 2.512370000e-01
3700000.0 1.504393000e+00 2.326440000e-01
3790000.0 1.478246000e+00 2.139650000e-01
3880000.0 1.457241000e+00 1.969560000e-01
3970000.0 1.434721000e+00 1.810410000e-01
4060000.0 1.415995000e+00 1.665460000e-01
4150000.0 1.397006000e+00 1.516740000e-01
4240000.0 1.380672000e+00 1.335590000e-01
4330000.0 1.365851000e+00 1.234890000e-01
4420000.0 1.351855000e+00 1.073200000e-01
4510000.0 1.337933000e+00 9.507900000e-02
4600000.0 1.326802000e+00 8.128800000e-02
4690000.0 1.316780000e+00 6.857600000e-02
4780000.0 1.308457000e+00 5.344400000e-02
4870000.0 1.299412000e+00 4.295400000e-02
4960000.0 1.292235000e+00 3.019000000e-02
5050000.0 1.277387000e+00 1.757200000e-02
5140000.0 1.271689000e+00 4.941000000e-03
5230000.0 1.267330000e+00 -5.727000000e-03
5320000.0 1.263260000e+00 -2.030800000e-02
5410000.0 1.258592000e+00 -3.179300000e-02
5500000.0 1.255912000e+00 -4.305400000e-02
5590000.0 1.252417000e+00 -5.498200000e-02
5680000.0 1.249097000e+00 -6.438700000e-02
5770000.0 1.245149000e+00 -7.667800000e-02
5860000.0 1.242704000e+00 -8.651700000e-02
5950000.0 1.239982000e+00 -9.742600000e-02
6040000.0 1.237304000e+00 -1.089190000e-01
6130000.0 1.234310000e+00 -1.181870000e-01
6220000.0 1.232324000e+00 -1.270370000e-01
6310000.0 1.230209000e+00 -1.350520000e-01
6400000.0 1.228259000e+00 -1.430390000e-01
6490000.0 1.226754000e+00 -1.512880000e-01
6580000.0 1.225413000e+00 -1.586130000e-01
6670000.0 1.223857000e+00 -1.668800000e-01
6760000.0 1.222989000e+00 -1.722480000e-01
6850000.0 1.222502000e+00 -1.779970000e-01
6940000.0 1.221778000e+00 -1.821930000e-01
7030000.0 1.219543000e+00 -1.861940000e-01
7120000.0 1.218547000e+00 -1.913620000e-01
7210000.0 1.220360000e+00 -1.919070000e-01
7300000.0 1.220402000e+00 -1.926920000e-01
7390000.0 1.220194000e+00 -1.952300000e-01
7480000.0 1.218445000e+00 -1.941080000e-01
7570000.0 -2.426910000e-01 -1.258933000e+00
7660000.0 -2.416090000e-01 -1.259263000e+00
7750000.0 -2.415670000e-01 -1.260663000e+00
7840000.0 -2.414940000e-01 -1.259251000e+00
7930000.0 -2.399540000e-01 -1.260303000e+00
8020000.0 -2.389120000e-01 -1.260949000e+00
8110000.0 -2.383600000e-01 -1.262147000e+00
8200000.0 -2.369660000e-01 -1.261648000e+00
8290000.0 -2.366310000e-01 -1.262552000e+00
8380000.0 -2.369790000e-01 -1.262573000e+00
8470000.0 -2.361400000e-01 -1.262477000e+00
8560000.0 -2.349500000e-01 -1.264351000e+00
8650000.0 -2.332710000e-01 -1.265244000e+00
8740000.0 -2.342240000e-01 -1.265686000e+00
8830000.0 -2.328440000e-01 -1.266598000e+00
8920000.0 -2.325220000e-01 -1.266800000e+00
9010000.0 -2.318270000e-01 -1.267469000e+00
9100000.0 -2.312390000e-01 -1.267971000e+00
9190000.0 -2.301890000e-01 -1.269073000e+00
9280000.0 -2.301360000e-01 -1.269044000e+00
9370000.0 -2.294890000e-01 -1.270316000e+00
9460000.0 -2.283860000e-01 -1.270634000e+00
9550000.0 -2.281460000e-01 -1.272359000e+00
9640000.0 -2.269600000e-01 -1.272213000e+00
9730000.0 -2.261990000e-01 -1.273422000e+00
9820000.0 -2.260250000e-01 -1.274319000e+00
9910000.0 -2.261910000e-01 -1.274711000e+00
10000000.0 -2.251580000e-01 -1.275948000e+00
10900000.0 -2.187360000e-01 -1.284296000e+00
11800000.0 -2.127300000e-01 -1.293483000e+00
12700000.0 -2.072450000e-01 -1.303440000e+00
13600000.0 -2.019570000e-01 -1.315256000e+00
14500000.0 -1.959610000e-01 -1.325955000e+00
15400000.0 -1.893460000e-01 -1.336932000e+00
16300000.0 -1.818360000e-01 -1.349913000e+00
17200000.0 -1.750050000e-01 -1.360877000e+00
18100000.0 -1.676970000e-01 -1.373358000e+00
19000000.0 -1.610970000e-01 -1.385021000e+00
19900000.0 -1.534740000e-01 -1.398069000e+00
20800000.0 -1.455510000e-01 -1.410594000e+00
21700000.0 -1.364150000e-01 -1.424137000e+00
22600000.0 -1.268810000e-01 -1.437591000e+00
23500000.0 -1.187650000e-01 -1.449655000e+00
24400000.0 -1.077890000e-01 -1.463357000e+00
25300000.0 -9.904100000e-02 -1.476301000e+00
26200000.0 -8.808900000e-02 -1.490042000e+00
27100000.0 -7.552200000e-02 -1.505155000e+00
28000000.0 -6.382100000e-02 -1.519576000e+00
28900000.0 6.710900000e-02 -1.608838000e+00
29800000.0 -3.814300000e-02 -1.548848000e+00
30700000.0 -2.502300000e-02 -1.562240000e+00
31600000.0 -1.116200000e-02 -1.577867000e+00
32500000.0 3.535000000e-03 -1.591962000e+00
33400000.0 1.902000000e-02 -1.606160000e+00
34300000.0 3.392500000e-02 -1.619613000e+00
35200000.0 5.197900000e-02 -1.636033000e+00
36100000.0 6.829800000e-02 -1.649934000e+00
37000000.0 8.748200000e-02 -1.664684000e+00
37900000.0 1.065210000e-01 -1.680862000e+00
38800000.0 1.251390000e-01 -1.693915000e+00
39700000.0 1.450290000e-01 -1.707939000e+00
40600000.0 1.685820000e-01 -1.721970000e+00
41500000.0 1.888530000e-01 -1.734599000e+00
42400000.0 2.115040000e-01 -1.748898000e+00
43300000.0 2.361120000e-01 -1.763748000e+00
44200000.0 2.597260000e-01 -1.776983000e+00
45100000.0 2.860540000e-01 -1.788834000e+00
46000000.0 3.105590000e-01 -1.799889000e+00
46900000.0 3.395750000e-01 -1.811045000e+00
47800000.0 3.679350000e-01 -1.824516000e+00
48700000.0 3.952050000e-01 -1.834171000e+00
49600000.0 4.269060000e-01 -1.842793000e+00
50500000.0 4.572020000e-01 -1.853207000e+00
51400000.0 4.888980000e-01 -1.861011000e+00
52300000.0 5.225240000e-01 -1.865823000e+00
53200000.0 5.557750000e-01 -1.873834000e+00
54100000.0 5.896670000e-01 -1.878543000e+00
55000000.0 6.247130000e-01 -1.880988000e+00
55900000.0 6.606330000e-01 -1.883738000e+00
56800000.0 6.989840000e-01 -1.883985000e+00
57700000.0 7.354490000e-01 -1.887195000e+00
58600000.0 7.724950000e-01 -1.885835000e+00
59500000.0 8.100800000e-01 -1.881265000e+00
60400000.0 8.487180000e-01 -1.877541000e+00
61300000.0 8.862590000e-01 -1.869475000e+00
62200000.0 9.259900000e-01 -1.863514000e+00
63100000.0 9.689490000e-01 -1.852625000e+00
64000000.0 1.004686000e+00 -1.840811000e+00
64900000.0 1.043618000e+00 -1.827480000e+00
65800000.0 1.085262000e+00 -1.811602000e+00
66700000.0 1.121983000e+00 -1.796636000e+00
67600000.0 1.158923000e+00 -1.777295000e+00
68500000.0 1.196730000e+00 -1.755860000e+00
69400000.0 1.234038000e+00 -1.734299000e+00
70300000.0 1.269343000e+00 -1.711166000e+00
71200000.0 1.304006000e+00 -1.683168000e+00
72100000.0 1.336923000e+00 -1.656947000e+00
73000000.0 1.367559000e+00 -1.627486000e+00
73900000.0 1.398447000e+00 -1.599292000e+00
74800000.0 1.426440000e+00 -1.567508000e+00
75700000.0 1.454110000e+00 -1.535775000e+00
76600000.0 1.479232000e+00 -1.501943000e+00
77500000.0 1.507658000e+00 -1.467835000e+00
78400000.0 1.528343000e+00 -1.432578000e+00
79300000.0 1.548913000e+00 -1.396632000e+00
80200000.0 1.567992000e+00 -1.358660000e+00
81100000.0 1.584779000e+00 -1.323018000e+00
82000000.0 1.600183000e+00 -1.284858000e+00
82900000.0 1.613051000e+00 -1.249526000e+00
83800000.0 1.625114000e+00 -1.209019000e+00
84700000.0 1.634404000e+00 -1.172916000e+00
85600000.0 1.643424000e+00 -1.135936000e+00
86500000.0 1.650397000e+00 -1.098787000e+00
87400000.0 1.656475000e+00 -1.062954000e+00
88300000.0 1.661315000e+00 -1.025942000e+00
89200000.0 1.662393000e+00 -9.925330000e-01
90100000.0 1.664544000e+00 -9.568540000e-01
91000000.0 1.663764000e+00 -9.219520000e-01
91900000.0 1.663815000e+00 -8.897290000e-01
92800000.0 1.660176000e+00 -8.540070000e-01
93700000.0 1.658379000e+00 -8.245200000e-01
94600000.0 1.652773000e+00 -7.922890000e-01
95500000.0 1.646743000e+00 -7.612530000e-01
96400000.0 1.642970000e+00 -7.307670000e-01
97300000.0 1.633893000e+00 -7.031620000e-01
98200000.0 1.628545000e+00 -6.751590000e-01
99100000.0 1.619984000e+00 -6.463520000e-01
100000000.0 1.608514000e+00 -6.194200000e-01
109000000.0 1.502883000e+00 -3.988190000e-01
118000000.0 1.376701000e+00 -2.444050000e-01
127000000.0 1.258022000e+00 -1.366430000e-01
136000000.0 1.148001000e+00 -6.724500000e-02
145000000.0 1.049694000e+00 -1.910500000e-02
154000000.0 1.000494000e+00 6.300000000e-04
163000000.0 1.001307000e+00 -1.230000000e-04
172000000.0 1.002504000e+00 2.940000000e-04
181000000.0 1.003919000e+00 -6.650000000e-04
190000000.0 1.004023000e+00 -1.927000000e-03
199000000.0 1.004882000e+00 -1.728000000e-03
208000000.0 1.005608000e+00 -2.487000000e-03
217000000.0 1.006263000e+00 -1.112000000e-03
226000000.0 1.005812000e+00 -7.570000000e-04
235000000.0 1.006830000e+00 -1.365000000e-03
244000000.0 1.005227000e+00 -5.900000000e-04
253000000.0 1.005589000e+00 -6.620000000e-04
262000000.0 1.006674000e+00 1.719900000e-02
271000000.0 1.005143000e+00 6.220000000e-04
280000000.0 1.003426000e+00 -1.726200000e-02
289000000.0 1.003056000e+00 -2.890000000e-04
298000000.0 1.002867000e+00 1.785400000e-02
307000000.0 1.002157000e+00 -6.940000000e-04
316000000.0 1.003272000e+00 -1.828200000e-02
325000000.0 1.005331000e+00 5.840000000e-04
334000000.0 1.004237000e+00 9.050000000e-04
343000000.0 1.004229000e+00 -8.570000000e-04
352000000.0 1.004740000e+00 9.400000000e-05
361000000.0 1.007697000e+00 1.815500000e-02
370000000.0 9.975260000e-01 -3.504100000e-02
379000000.0 1.006344000e+00 1.601000000e-03
388000000.0 1.004182000e+00 -1.867600000e-02
397000000.0 1.007915000e+00 1.857400000e-02
406000000.0 1.005435000e+00 1.298000000e-03
415000000.0 1.003980000e+00 2.344000000e-03
424000000.0 1.004550000e+00 2.033200000e-02
433000000.0 1.001787000e+00 1.738000000e-03
442000000.0 9.983700000e-01 -8.180000000e-04
451000000.0 9.981780000e-01 1.676000000e-03
460000000.0 1.001219000e+00 3.770000000e-03
469000000.0 1.002759000e+00 2.356000000e-03
478000000.0 1.004892000e+00 4.986000000e-03
487000000.0 1.006733000e+00 2.492000000e-03
496000000.0 1.005335000e+00 6.540000000e-03
505000000.0 1.008404000e+00 6.971000000e-03
514000000.0 1.008431000e+00 5.148000000e-03
523000000.0 1.008639000e+00 7.946000000e-03
532000000.0 1.008284000e+00 9.288000000e-03
541000000.0 1.010888000e+00 7.380000000e-03
550000000.0 1.009320000e+00 1.010700000e-02
559000000.0 1.009728000e+00 8.149000000e-03
568000000.0 1.007090000e+00 9.213000000e-03
577000000.0 1.008643000e+00 6.866000000e-03
586000000.0 1.005685000e+00 6.705000000e-03
595000000.0 1.004865000e+00 7.647000000e-03
604000000.0 1.004790000e+00 7.787000000e-03
613000000.0 1.006196000e+00 5.830000000e-03
622000000.0 1.007911000e+00 6.047000000e-03
631000000.0 1.013780000e+00 7.900000000e-03
640000000.0 1.013052000e+00 1.094700000e-02
649000000.0 1.013856000e+00 8.589000000e-03
658000000.0 1.016517000e+00 1.083600000e-02
667000000.0 1.019869000e+00 9.393000000e-03
676000000.0 1.016496000e+00 1.064100000e-02
685000000.0 1.015230000e+00 7.919000000e-03
694000000.0 1.016259000e+00 8.247000000e-03
703000000.0 1.015827000e+00 6.652000000e-03
712000000.0 1.016288000e+00 7.136000000e-03
721000000.0 1.013936000e+00 4.473000000e-03
730000000.0 1.009154000e+00 6.019000000e-03
739000000.0 1.004348000e+00 7.900000000e-04
748000000.0 1.000654000e+00 2.515000000e-03
757000000.0 1.004285000e+00 1.019000000e-03
766000000.0 1.007910000e+00 -5.086000000e-03
775000000.0 1.008292000e+00 -3.780000000e-04
784000000.0 1.014455000e+00 -4.920000000e-03
793000000.0 1.013850000e+00 -5.776000000e-03
802000000.0 1.018381000e+00 -6.484000000e-03
811000000.0 1.017812000e+00 -4.001000000e-03
820000000.0 1.018167000e+00 -8.450000000e-03
829000000.0 1.017351000e+00 -8.317000000e-03
838000000.0 1.016072000e+00 -7.978000000e-03
847000000.0 1.015402000e+00 -6.941000000e-03
856000000.0 1.012635000e+00 -7.025000000e-03
865000000.0 1.011013000e+00 -7.750000000e-03
874000000.0 1.010236000e+00 -7.335000000e-03
883000000.0 1.007421000e+00 -2.233000000e-03
892000000.0 1.001699000e+00 -7.720000000e-04
901000000.0 1.003522000e+00 2.723000000e-03
910000000.0 1.003411000e+00 -3.803000000e-03
919000000.0 1.004906000e+00 -5.009000000e-03
928000000.0 1.005441000e+00 -3.531000000e-03
937000000.0 1.002475000e+00 -4.774000000e-03
946000000.0 1.005552000e+00 -5.203000000e-03
955000000.0 1.003237000e+00 -5.930000000e-03
964000000.0 1.004465000e+00 -1.112000000e-02
973000000.0 1.005354000e+00 -1.232700000e-02
982000000.0 1.004903000e+00 -8.689000000e-03
991000000.0 1.003338000e+00 -6.812000000e-03
1000000000.0 1.004723000e+00 -7.110000000e-03
1004500000.0 1.002647000e+00 -7.868000000e-03
1009000000.0 1.004032000e+00 -1.114900000e-02
1013500000.0 1.005738000e+00 -8.513000000e-03
1018000000.0 1.003959000e+00 -7.650000000e-03
1022500000.0 1.002416000e+00 -3.693000000e-03
1027000000.0 1.002514000e+00 -3.931000000e-03
1031500000.0 1.001655000e+00 -6.715000000e-03
1036000000.0 9.990480000e-01 -1.722000000e-03
1040500000.0 1.000709000e+00 -5.535000000e-03
1045000000.0 1.002994000e+00 -1.621000000e-03
1049500000.0 9.990230000e-01 -5.131000000e-03
1054000000.0 9.971840000e-01 2.980000000e-03
1058500000.0 9.976870000e-01 -1.289000000e-03
1063000000.0 9.987480000e-01 -4.875000000e-03
1067500000.0 9.994350000e-01 2.930000000e-04
1072000000.0 9.989050000e-01 -6.159000000e-03
1076500000.0 1.000242000e+00 -1.770000000e-04
1081000000.0 1.000292000e+00 -4.061000000e-03
1085500000.0 1.005638000e+00 -9.041000000e-03
1090000000.0 1.005324000e+00 4.715000000e-03
1094500000.0 1.004594000e+00 -2.197000000e-03
1099000000.0 1.003425000e+00 1.445000000e-03
1103500000.0 1.001927000e+00 1.266000000e-03
1108000000.0 1.004660000e+00 -2.259000000e-03
1112500000.0 1.006249000e+00 -1.627000000e-03
1117000000.0 9.997250000e-01 1.098000000e-03
1121500000.0 1.002392000e+00 -6.633000000e-03
1126000000.0 1.139678000e+00 1.242270000e-01
1130500000.0 9.985600000e-01 -4.876000000e-03
1135000000.0 1.008900000e+00 -4.655000000e-03
1139500000.0 1.003969000e+00 -4.820000000e-03
1144000000.0 1.010167000e+00 2.771200000e-02
1148500000.0 1.010252000e+00 3.998000000e-03
1153000000.0 1.005021000e+00 -7.895000000e-03
1157500000.0 9.976820000e-01 -2.472800000e-02
1162000000.0 1.004746000e+00 -6.906000000e-03
1166500000.0 1.005932000e+00 3.040000000e-04
1171000000.0 1.004836000e+00 -1.542000000e-03
1175500000.0 1.006553000e+00 -1.410000000e-04
1180000000.0 9.988150000e-01 -9.100000000e-03
1184500000.0 1.004914000e+00 -2.611000000e-03
1189000000.0 1.008561000e+00 -6.693000000e-03
1193500000.0 1.004804000e+00 -4.940000000e-03
1198000000.0 1.003767000e+00 -1.800000000e-03
1202500000.0 1.003466000e+00 -7.219000000e-03
1207000000.0 1.003714000e+00 -6.435000000e-03
1211500000.0 1.003649000e+00 -3.590000000e-04
1216000000.0 1.003658000e+00 -4.766000000e-03
1220500000.0 1.000781000e+00 -7.882000000e-03
1225000000.0 9.986050000e-01 -1.634000000e-03
1229500000.0 1.002967000e+00 -5.153000000e-03
1234000000.0 1.002506000e+00 -2.063000000e-03
1238500000.0 1.002100000e+00 -6.562000000e-03
1243000000.0 1.008534000e+00 1.283000000e-03
1247500000.0 1.003606000e+00 -1.084000000e-03
1252000000.0 1.004640000e+00 -7.038000000e-03
1256500000.0 1.002391000e+00 -5.091000000e-03
1261000000.0 1.003677000e+00 4.868000000e-03
1265500000.0 1.002972000e+00 5.642000000e-03
1270000000.0 9.990020000e-01 -4.720000000e-04
1274500000.0 1.005317000e+00 -3.760000000e-04
1279000000.0 1.006965000e+00 -5.243000000e-03
1283500000.0 1.004892000e+00 -3.598000000e-03
1288000000.0 1.006070000e+00 -6.600000000e-04
1292500000.0 1.007851000e+00 -5.835000000e-03
1297000000.0 1.004405000e+00 -1.306000000e-02
1301500000.0 1.002894000e+00 8.380000000e-04
1306000000.0 1.003893000e+00 3.950000000e-03
1310500000.0 1.001521000e+00 9.280000000e-04
1315000000.0 1.002158000e+00 3.273000000e-03
1319500000.0 1.002744000e+00 7.172000000e-03
1324000000.0 1.004229000e+00 3.101000000e-03
1328500000.0 9.991420000e-01 -4.651000000e-03
1333000000.0 1.008578000e+00 1.364800000e-02
1337500000.0 1.000801000e+00 -3.806000000e-03
1342000000.0 1.002400000e+00 -2.489000000e-03
1346500000.0 1.001651000e+00 -5.558000000e-03
1351000000.0 9.956110000e-01 7.415000000e-03
1355500000.0 1.005594000e+00 9.978000000e-03
1360000000.0 1.007147000e+00 6.854000000e-03
1364500000.0 1.009375000e+00 7.658000000e-03
1369000000.0 1.006106000e+00 6.460000000e-03
1373500000.0 9.957390000e-01 5.097000000e-03
1378000000.0 1.005364000e+00 1.443000000e-03
1382500000.0 1.001103000e+00 4.048000000e-03
1387000000.0 1.005080000e+00 1.573600000e-02
1391500000.0 1.000054000e+00 6.324000000e-03
1396000000.0 1.000064000e+00 1.440400000e-02
1400500000.0 1.006156000e+00 7.626000000e-03
1405000000.0 1.005239000e+00 1.304800000e-02
1409500000.0 1.000212000e+00 8.599000000e-03
1414000000.0 1.004143000e+00 1.746000000e-02
1418500000.0 1.006583000e+00 1.371000000e-02
1423000000.0 1.001301000e+00 5.146000000e-03
1427500000.0 1.005214000e+00 9.662000000e-03
1432000000.0 1.003483000e+00 9.976000000e-03
1436500000.0 1.002970000e+00 8.532000000e-03
1441000000.0 1.000325000e+00 1.013800000e-02
1445500000.0 1.002897000e+00 1.151100000e-02
1450000000.0 1.004453000e+00 1.113600000e-02
