! prueba_sol / sol_abierto / r04
# HZ S RI R 50
50000.0 1.004901000e+00 -7.047000000e-02
59500.0 1.006321000e+00 -5.718000000e-02
69000.0 1.005089000e+00 -4.550200000e-02
78500.0 1.001914000e+00 -2.946500000e-02
88000.0 1.001830000e+00 -1.728100000e-02
97500.0 1.000665000e+00 -4.860000000e-03
107000.0 9.994290000e-01 7.223000000e-03
116500.0 1.000299000e+00 2.014800000e-02
126000.0 9.994310000e-01 3.082700000e-02
135500.0 1.001293000e+00 4.423300000e-02
145000.0 1.001247000e+00 5.629900000e-02
154500.0 1.001407000e+00 6.917600000e-02
164000.0 1.001959000e+00 8.018500000e-02
173500.0 1.002044000e+00 9.310600000e-02
183000.0 1.002237000e+00 1.043010000e-01
192500.0 1.002264000e+00 1.162480000e-01
202000.0 1.003949000e+00 1.276710000e-01
211500.0 1.003607000e+00 1.394890000e-01
221000.0 1.004810000e+00 1.503360000e-01
230500.0 1.003885000e+00 1.624000000e-01
240000.0 1.004697000e+00 1.732280000e-01
249500.0 1.004676000e+00 1.848600000e-01
259000.0 1.004643000e+00 1.960240000e-01
268500.0 1.004754000e+00 2.074250000e-01
278000.0 1.004878000e+00 2.184630000e-01
287500.0 1.005920000e+00 2.297910000e-01
297000.0 1.006981000e+00 2.402780000e-01
306500.0 1.006044000e+00 2.510890000e-01
316000.0 1.006437000e+00 2.624580000e-01
325500.0 1.006147000e+00 2.731610000e-01
335000.0 1.007452000e+00 2.834630000e-01
344500.0 1.003514000e+00 3.127440000e-01
354000.0 1.010161000e+00 2.864030000e-01
363500.0 1.003302000e+00 3.342250000e-01
373000.0 1.011630000e+00 3.077460000e-01
382500.0 1.002913000e+00 3.552780000e-01
392000.0 1.012029000e+00 3.286020000e-01
401500.0 1.003520000e+00 3.758510000e-01
411000.0 1.013256000e+00 3.495750000e-01
420500.0 1.008641000e+00 3.777220000e-01
430000.0 1.008733000e+00 3.889680000e-01
439500.0 1.009551000e+00 3.992180000e-01
449000.0 1.009218000e+00 4.091280000e-01
458500.0 1.009785000e+00 4.195750000e-01
468000.0 1.010065000e+00 4.294330000e-01
477500.0 1.009976000e+00 4.393560000e-01
487000.0 1.010842000e+00 4.498050000e-01
496500.0 1.010737000e+00 4.592440000e-01
506000.0 1.011693000e+00 4.696610000e-01
515500.0 1.011549000e+00 4.793390000e-01
525000.0 1.011729000e+00 4.896780000e-01
534500.0 1.012450000e+00 4.998310000e-01
544000.0 1.013446000e+00 5.099980000e-01
553500.0 1.013624000e+00 5.184350000e-01
563000.0 1.014800000e+00 5.291770000e-01
572500.0 1.013866000e+00 5.391500000e-01
582000.0 1.014604000e+00 5.476240000e-01
591500.0 1.016032000e+00 5.579370000e-01
601000.0 1.014919000e+00 5.679080000e-01
610500.0 1.016304000e+00 5.769390000e-01
620000.0 1.016057000e+00 5.861790000e-01
629500.0 1.017200000e+00 5.968170000e-01
639000.0 1.017802000e+00 6.056190000e-01
648500.0 1.018640000e+00 6.153870000e-01
658000.0 1.019664000e+00 6.252480000e-01
667500.0 1.020708000e+00 6.345530000e-01
677000.0 1.020279000e+00 6.442000000e-01
686500.0 1.020490000e+00 6.538740000e-01
696000.0 1.021881000e+00 6.631270000e-01
705500.0 1.023798000e+00 6.732030000e-01
715000.0 1.024214000e+00 6.826400000e-01
724500.0 1.024676000e+00 6.916320000e-01
734000.0 1.026030000e+00 7.008590000e-01
743500.0 1.027834000e+00 7.108040000e-01
753000.0 1.029119000e+00 7.197210000e-01
762500.0 1.030066000e+00 7.289690000e-01
772000.0 1.030169000e+00 7.379820000e-01
781500.0 1.032209000e+00 7.477710000e-01
791000.0 1.032721000e+00 7.572070000e-01
800500.0 1.033915000e+00 7.670040000e-01
810000.0 1.036749000e+00 7.753330000e-01
819500.0 1.037800000e+00 7.836270000e-01
829000.0 1.038707000e+00 7.947110000e-01
838500.0 1.040257000e+00 8.026660000e-01
848000.0 1.041840000e+00 8.110660000e-01
857500.0 1.043119000e+00 8.205860000e-01
867000.0 1.045493000e+00 8.291490000e-01
876500.0 1.047405000e+00 8.384910000e-01
886000.0 1.050263000e+00 8.479650000e-01
895500.0 1.050904000e+00 8.572500000e-01
905000.0 1.053293000e+00 8.654150000e-01
914500.0 1.055478000e+00 8.739250000e-01
924000.0 1.057842000e+00 8.836200000e-01
933500.0 1.059840000e+00 8.929810000e-01
943000.0 1.061367000e+00 9.006280000e-01
952500.0 1.064105000e+00 9.100490000e-01
962000.0 1.065969000e+00 9.191850000e-01
971500.0 1.070137000e+00 9.287110000e-01
981000.0 1.071262000e+00 9.352720000e-01
990500.0 1.075135000e+00 9.450090000e-01
1000000.0 1.075946000e+00 9.543820000e-01
1090000.0 1.104336000e+00 1.031352000e+00
1180000.0 1.142442000e+00 1.109554000e+00
1270000.0 1.191983000e+00 1.178688000e+00
1360000.0 1.249505000e+00 1.241451000e+00
1450000.0 1.319403000e+00 1.294607000e+00
1540000.0 1.397553000e+00 1.330914000e+00
1630000.0 1.485442000e+00 1.352503000e+00
1720000.0 1.574237000e+00 1.354921000e+00
1810000.0 1.666677000e+00 1.339771000e+00
1900000.0 1.747838000e+00 1.298884000e+00
1990000.0 1.825903000e+00 1.244011000e+00
2080000.0 1.884765000e+00 1.169772000e+00
2170000.0 1.930416000e+00 1.089312000e+00
2260000.0 1.957023000e+00 9.971720000e-01
2350000.0 1.964582000e+00 9.088650000e-01
2440000.0 1.959969000e+00 8.218580000e-01
2530000.0 1.942589000e+00 7.415520000e-01
2620000.0 1.915493000e+00 6.680890000e-01
2710000.0 1.881915000e+00 6.014670000e-01
2800000.0 1.843934000e+00 5.424440000e-01
2890000.0 1.806156000e+00 4.938390000e-01
2980000.0 1.768261000e+00 4.502270000e-01
3070000.0 1.728249000e+00 4.113900000e-01
3160000.0 1.694389000e+00 3.781090000e-01
3250000.0 1.655933000e+00 3.471940000e-01
3340000.0 1.623207000e+00 3.187480000e-01
3430000.0 1.591810000e+00 2.942160000e-01
3520000.0 1.561377000e+00 2.720840000e-01
3610000.0 1.529801000e+00 2.534390000e-01
3700000.0 1.504827000e+00 2.326930000e-01
3790000.0 1.478740000e+00 2.141870000e-01
3880000.0 1.456964000e+00 1.987020000e-01
3970000.0 1.435180000e+00 1.811890000e-01
4060000.0 1.414835000e+00 1.664010000e-01
4150000.0 1.397932000e+00 1.505290000e-01
4240000.0 1.380704000e+00 1.362640000e-01
4330000.0 1.366092000e+00 1.221400000e-01
4420000.0 1.352147000e+00 1.080130000e-01
4510000.0 1.338637000e+00 9.514100000e-02
4600000.0 1.327600000e+00 8.126900000e-02
4690000.0 1.317419000e+00 6.829500000e-02
4780000.0 1.307222000e+00 5.345300000e-02
4870000.0 1.299366000e+00 4.098800000e-02
4960000.0 1.291799000e+00 2.967300000e-02
5050000.0 1.277684000e+00 1.712300000e-02
5140000.0 1.273418000e+00 3.333000000e-03
5230000.0 1.268273000e+00 -7.191000000e-03
5320000.0 1.264132000e+00 -1.951200000e-02
5410000.0 1.259296000e+00 -3.117300000e-02
5500000.0 1.256366000e+00 -4.361900000e-02
5590000.0 1.252067000e+00 -5.501900000e-02
5680000.0 1.247949000e+00 -6.575900000e-02
5770000.0 1.245861000e+00 -7.744000000e-02
5860000.0 1.242460000e+00 -8.674600000e-02
5950000.0 1.239663000e+00 -9.801300000e-02
6040000.0 1.237622000e+00 -1.091460000e-01
6130000.0 1.234178000e+00 -1.176760000e-01
6220000.0 1.232705000e+00 -1.265790000e-01
6310000.0 1.230913000e+00 -1.374290000e-01
6400000.0 1.229080000e+00 -1.445500000e-01
6490000.0 1.227218000e+00 -1.526670000e-01
6580000.0 1.224820000e+00 -1.587150000e-01
6670000.0 1.223801000e+00 -1.657830000e-01
6760000.0 1.223411000e+00 -1.715040000e-01
6850000.0 1.221082000e+00 -1.771980000e-01
6940000.0 1.221388000e+00 -1.814390000e-01
7030000.0 1.220604000e+00 -1.856200000e-01
7120000.0 1.220123000e+00 -1.896070000e-01
7210000.0 1.219406000e+00 -1.912480000e-01
7300000.0 1.219517000e+00 -1.938600000e-01
7390000.0 1.218749000e+00 -1.941720000e-01
7480000.0 1.219939000e+00 -1.945370000e-01
7570000.0 -2.423190000e-01 -1.258149000e+00
7660000.0 -2.421480000e-01 -1.260033000e+00
7750000.0 -2.413040000e-01 -1.260576000e+00
7840000.0 -2.403070000e-01 -1.259180000e+00
7930000.0 -2.401540000e-01 -1.259527000e+00
8020000.0 -2.406140000e-01 -1.260891000e+00
8110000.0 -2.380590000e-01 -1.261136000e+00
8200000.0 -2.376990000e-01 -1.263193000e+00
8290000.0 -2.379120000e-01 -1.263649000e+00
8380000.0 -2.373040000e-01 -1.262125000e+00
8470000.0 -2.358540000e-01 -1.263060000e+00
8560000.0 -2.349780000e-01 -1.264427000e+00
8650000.0 -2.360080000e-01 -1.264178000e+00
8740000.0 -2.328860000e-01 -1.265946000e+00
8830000.0 -2.330520000e-01 -1.266640000e+00
8920000.0 -2.319130000e-01 -1.267439000e+00
9010000.0 -2.319200000e-01 -1.266619000e+00
9100000.0 -2.316850000e-01 -1.268389000e+00
9190000.0 -2.300520000e-01 -1.269302000e+00
9280000.0 -2.288990000e-01 -1.269923000e+00
9370000.0 -2.286460000e-01 -1.270857000e+00
9460000.0 -2.284920000e-01 -1.270995000e+00
9550000.0 -2.272870000e-01 -1.271422000e+00
9640000.0 -2.279780000e-01 -1.272878000e+00
9730000.0 -2.276620000e-01 -1.272996000e+00
9820000.0 -2.256630000e-01 -1.274779000e+00
9910000.0 -2.260080000e-01 -1.275165000e+00
10000000.0 -2.248380000e-01 -1.276391000e+00
10900000.0 -2.193390000e-01 -1.284958000e+00
11800000.0 -2.134270000e-01 -1.294497000e+00
12700000.0 -2.078090000e-01 -1.304809000e+00
13600000.0 -2.011330000e-01 -1.314180000e+00
14500000.0 -1.941920000e-01 -1.326952000e+00
15400000.0 -1.877980000e-01 -1.337513000e+00
16300000.0 -1.826920000e-01 -1.348617000e+00
17200000.0 -1.748430000e-01 -1.359325000e+00
18100000.0 -1.683970000e-01 -1.373310000e+00
19000000.0 -1.597630000e-01 -1.385819000e+00
19900000.0 -1.521360000e-01 -1.397491000e+00
20800000.0 -1.468930000e-01 -1.410361000e+00
21700000.0 -1.367460000e-01 -1.423343000e+00
22600000.0 -1.271370000e-01 -1.436635000e+00
23500000.0 -1.184200000e-01 -1.450330000e+00
24400000.0 -1.073990000e-01 -1.463515000e+00
25300000.0 -9.876800000e-02 -1.477420000e+00
26200000.0 -8.598600000e-02 -1.490473000e+00
27100000.0 -7.609100000e-02 -1.505351000e+00
28000000.0 -6.594300000e-02 -1.519340000e+00
28900000.0 -5.165700000e-02 -1.533100000e+00
29800000.0 -3.896400000e-02 -1.547718000e+00
30700000.0 -2.463800000e-02 -1.562175000e+00
31600000.0 -1.103500000e-02 -1.576972000e+00
32500000.0 3.238000000e-03 -1.591507000e+00
33400000.0 1.808500000e-02 -1.605103000e+00
34300000.0 3.377500000e-02 -1.621382000e+00
35200000.0 5.147900000e-02 -1.637128000e+00
36100000.0 6.818500000e-02 -1.650112000e+00
37000000.0 8.594500000e-02 -1.664423000e+00
37900000.0 1.053760000e-01 -1.680377000e+00
38800000.0 1.244420000e-01 -1.694915000e+00
39700000.0 1.441500000e-01 -1.708654000e+00
40600000.0 1.672230000e-01 -1.723723000e+00
41500000.0 1.879470000e-01 -1.737321000e+00
42400000.0 2.111610000e-01 -1.749402000e+00
43300000.0 2.349130000e-01 -1.762368000e+00
44200000.0 2.605520000e-01 -1.777427000e+00
45100000.0 2.864360000e-01 -1.789194000e+00
46000000.0 3.109040000e-01 -1.800456000e+00
46900000.0 3.383800000e-01 -1.812020000e+00
47800000.0 3.664500000e-01 -1.823457000e+00
48700000.0 3.967340000e-01 -1.833549000e+00
49600000.0 4.242180000e-01 -1.843503000e+00
50500000.0 4.562540000e-01 -1.850486000e+00
51400000.0 4.915650000e-01 -1.860027000e+00
52300000.0 5.207230000e-01 -1.866633000e+00
53200000.0 5.571710000e-01 -1.873545000e+00
54100000.0 5.907790000e-01 -1.878639000e+00
55000000.0 6.233870000e-01 -1.882315000e+00
55900000.0 6.597570000e-01 -1.885405000e+00
56800000.0 6.971190000e-01 -1.885401000e+00
57700000.0 7.342920000e-01 -1.887257000e+00
58600000.0 7.718010000e-01 -1.884399000e+00
59500000.0 8.112390000e-01 -1.882646000e+00
60400000.0 8.507510000e-01 -1.876701000e+00
61300000.0 8.892850000e-01 -1.871076000e+00
62200000.0 9.281430000e-01 -1.862393000e+00
63100000.0 9.682420000e-01 -1.852927000e+00
64000000.0 1.006743000e+00 -1.840104000e+00
64900000.0 1.045535000e+00 -1.828237000e+00
65800000.0 1.084710000e+00 -1.812803000e+00
66700000.0 1.121794000e+00 -1.796571000e+00
67600000.0 1.160254000e+00 -1.778753000e+00
68500000.0 1.196546000e+00 -1.756233000e+00
69400000.0 1.235258000e+00 -1.734691000e+00
70300000.0 1.270078000e+00 -1.712019000e+00
71200000.0 1.304537000e+00 -1.684556000e+00
72100000.0 1.335625000e+00 -1.659285000e+00
73000000.0 1.369149000e+00 -1.629485000e+00
73900000.0 1.397981000e+00 -1.598510000e+00
74800000.0 1.427049000e+00 -1.566710000e+00
75700000.0 1.454090000e+00 -1.534916000e+00
76600000.0 1.481846000e+00 -1.500505000e+00
77500000.0 1.505848000e+00 -1.467153000e+00
78400000.0 1.499067000e+00 -1.459660000e+00
79300000.0 1.575574000e+00 -1.366220000e+00
80200000.0 1.540008000e+00 -1.388447000e+00
81100000.0 1.584661000e+00 -1.324427000e+00
82000000.0 1.574592000e+00 -1.317057000e+00
82900000.0 1.635036000e+00 -1.217431000e+00
83800000.0 1.646705000e+00 -1.181679000e+00
84700000.0 1.635296000e+00 -1.174064000e+00
85600000.0 1.644902000e+00 -1.136242000e+00
86500000.0 1.651456000e+00 -1.099073000e+00
87400000.0 1.657269000e+00 -1.062710000e+00
88300000.0 1.661049000e+00 -1.027268000e+00
89200000.0 1.661303000e+00 -9.929590000e-01
90100000.0 1.663510000e+00 -9.569600000e-01
91000000.0 1.664538000e+00 -9.219930000e-01
91900000.0 1.663059000e+00 -8.867880000e-01
92800000.0 1.660557000e+00 -8.544430000e-01
93700000.0 1.656850000e+00 -8.237360000e-01
94600000.0 1.653459000e+00 -7.910560000e-01
95500000.0 1.647237000e+00 -7.612850000e-01
96400000.0 1.639781000e+00 -7.316350000e-01
97300000.0 1.634716000e+00 -7.023520000e-01
98200000.0 1.627546000e+00 -6.742970000e-01
99100000.0 1.617985000e+00 -6.452660000e-01
100000000.0 1.610082000e+00 -6.196390000e-01
109000000.0 1.500280000e+00 -3.999870000e-01
118000000.0 1.376589000e+00 -2.441480000e-01
127000000.0 1.256865000e+00 -1.391360000e-01
136000000.0 1.147791000e+00 -6.888900000e-02
145000000.0 1.049678000e+00 -1.957400000e-02
154000000.0 1.000592000e+00 4.960000000e-04
163000000.0 1.002166000e+00 1.011000000e-03
172000000.0 1.003045000e+00 3.310000000e-04
181000000.0 1.004279000e+00 -1.001000000e-03
190000000.0 1.004235000e+00 -2.089000000e-03
199000000.0 1.005038000e+00 -1.602000000e-03
208000000.0 1.006647000e+00 -1.663000000e-03
217000000.0 1.006162000e+00 -1.219000000e-03
226000000.0 1.006497000e+00 -2.274000000e-03
235000000.0 1.006236000e+00 -1.437000000e-03
244000000.0 1.006656000e+00 -3.320000000e-04
253000000.0 1.005960000e+00 -5.290000000e-04
262000000.0 1.006077000e+00 -1.168000000e-03
271000000.0 1.004986000e+00 -1.175000000e-03
280000000.0 1.004219000e+00 6.120000000e-04
289000000.0 1.003025000e+00 8.100000000e-04
298000000.0 1.002285000e+00 -1.035000000e-03
307000000.0 1.002945000e+00 -1.122000000e-03
316000000.0 1.003153000e+00 8.340000000e-04
325000000.0 1.003573000e+00 -1.148000000e-03
334000000.0 1.005055000e+00 3.510000000e-04
343000000.0 1.005158000e+00 -2.450000000e-04
352000000.0 1.011336000e+00 1.826800000e-02
361000000.0 1.013627000e+00 3.637700000e-02
370000000.0 1.006548000e+00 2.380000000e-04
379000000.0 1.007193000e+00 4.860000000e-04
388000000.0 1.007693000e+00 1.914700000e-02
397000000.0 9.968570000e-01 -3.487400000e-02
406000000.0 9.950470000e-01 -3.466100000e-02
415000000.0 1.010736000e+00 3.478400000e-02
424000000.0 1.002285000e+00 -8.900000000e-05
433000000.0 1.002332000e+00 2.077000000e-03
442000000.0 1.001867000e+00 1.031000000e-03
451000000.0 9.991900000e-01 -1.824000000e-03
460000000.0 1.001153000e+00 1.728000000e-03
469000000.0 1.002494000e+00 1.412000000e-03
478000000.0 1.004574000e+00 4.288000000e-03
487000000.0 1.006266000e+00 5.402000000e-03
496000000.0 1.007248000e+00 2.126000000e-03
505000000.0 1.010071000e+00 4.402000000e-03
514000000.0 1.007625000e+00 5.211000000e-03
523000000.0 1.008548000e+00 4.876000000e-03
532000000.0 1.010126000e+00 5.735000000e-03
541000000.0 1.008499000e+00 7.352000000e-03
550000000.0 1.007867000e+00 9.058000000e-03
559000000.0 1.007955000e+00 7.099000000e-03
568000000.0 1.007322000e+00 5.648000000e-03
577000000.0 1.007481000e+00 1.024300000e-02
586000000.0 1.004090000e+00 7.279000000e-03
595000000.0 1.004868000e+00 6.955000000e-03
604000000.0 1.003303000e+00 6.147000000e-03
613000000.0 1.006567000e+00 4.884000000e-03
622000000.0 1.011159000e+00 7.004000000e-03
631000000.0 1.012165000e+00 4.919000000e-03
640000000.0 1.014173000e+00 9.325000000e-03
649000000.0 1.015124000e+00 8.729000000e-03
658000000.0 1.013842000e+00 1.332100000e-02
667000000.0 1.014104000e+00 5.629000000e-03
676000000.0 1.018900000e+00 1.093300000e-02
685000000.0 1.014236000e+00 7.918000000e-03
694000000.0 1.015104000e+00 8.400000000e-03
703000000.0 1.013148000e+00 6.381000000e-03
712000000.0 1.012538000e+00 1.192100000e-02
721000000.0 1.009572000e+00 6.273000000e-03
730000000.0 1.009961000e+00 2.155000000e-03
739000000.0 1.007896000e+00 1.331000000e-03
748000000.0 1.000239000e+00 -2.730000000e-04
757000000.0 1.005487000e+00 -1.405000000e-03
766000000.0 1.007815000e+00 5.490000000e-04
775000000.0 1.009898000e+00 -3.830000000e-04
784000000.0 1.011742000e+00 -5.333000000e-03
793000000.0 1.015885000e+00 -2.390000000e-03
802000000.0 1.016841000e+00 -1.216600000e-02
811000000.0 1.021136000e+00 -7.159000000e-03
820000000.0 1.016820000e+00 -9.299000000e-03
829000000.0 1.016496000e+00 -3.598000000e-03
838000000.0 1.017415000e+00 -1.478000000e-03
847000000.0 1.015640000e+00 -7.945000000e-03
856000000.0 1.014453000e+00 -5.917000000e-03
865000000.0 1.012658000e+00 -6.637000000e-03
874000000.0 1.008090000e+00 -8.066000000e-03
883000000.0 1.009616000e+00 -2.750000000e-04
892000000.0 1.003811000e+00 -1.659000000e-03
901000000.0 1.005170000e+00 4.300000000e-05
910000000.0 1.004543000e+00 -1.648000000e-03
919000000.0 1.004498000e+00 -3.745000000e-03
928000000.0 1.006047000e+00 -5.947000000e-03
937000000.0 1.006670000e+00 -7.686000000e-03
946000000.0 1.003801000e+00 -1.030400000e-02
955000000.0 1.003861000e+00 -7.002000000e-03
964000000.0 1.002903000e+00 -4.803000000e-03
973000000.0 1.003735000e+00 -1.145100000e-02
982000000.0 1.004225000e+00 -8.860000000e-03
991000000.0 1.006343000e+00 -1.107000000e-02
1000000000.0 1.006251000e+00 -9.475000000e-03
1004500000.0 1.004165000e+00 -7.998000000e-03
1009000000.0 1.003570000e+00 -1.187900000e-02
1013500000.0 1.000344000e+00 -5.850000000e-03
1018000000.0 1.003113000e+00 -2.322000000e-03
1022500000.0 1.003812000e+00 -5.817000000e-03
1027000000.0 1.003201000e+00 -1.113000000e-03
1031500000.0 1.001787000e+00 -1.187000000e-03
1036000000.0 1.000735000e+00 -2.958000000e-03
1040500000.0 9.993810000e-01 -2.912000000e-03
1045000000.0 1.001376000e+00 -2.910000000e-03
1049500000.0 1.001479000e+00 -6.004000000e-03
1054000000.0 9.981690000e-01 3.752000000e-03
1058500000.0 9.970210000e-01 -6.150000000e-04
1063000000.0 1.001863000e+00 -1.120000000e-04
1067500000.0 9.997620000e-01 -4.405000000e-03
1072000000.0 1.001378000e+00 -2.836000000e-03
1076500000.0 9.984760000e-01 -2.478000000e-03
1081000000.0 1.000774000e+00 -4.424000000e-03
1085500000.0 1.000580000e+00 9.520000000e-04
1090000000.0 1.005781000e+00 -5.656000000e-03
1094500000.0 1.007167000e+00 -5.646000000e-03
1099000000.0 1.004529000e+00 -2.646000000e-03
1103500000.0 1.005375000e+00 -8.729000000e-03
1108000000.0 1.003144000e+00 6.920000000e-04
1112500000.0 1.004193000e+00 1.580000000e-04
1117000000.0 1.003850000e+00 -5.701000000e-03
1121500000.0 1.005135000e+00 3.399000000e-03
1126000000.0 9.991440000e-01 -5.865000000e-03
1130500000.0 1.004233000e+00 5.120000000e-04
1135000000.0 1.003941000e+00 -9.060000000e-03
1139500000.0 1.005200000e+00 -8.168000000e-03
1144000000.0 9.969920000e-01 -4.111000000e-02
1148500000.0 1.000058000e+00 -1.851000000e-03
1153000000.0 1.009119000e+00 -3.538000000e-03
1157500000.0 1.006745000e+00 -1.015000000e-02
1162000000.0 1.003671000e+00 -7.899000000e-03
1166500000.0 1.007300000e+00 -8.747000000e-03
1171000000.0 1.004522000e+00 -6.246000000e-03
1175500000.0 1.002199000e+00 1.501000000e-03
1180000000.0 1.004145000e+00 -7.936000000e-03
1184500000.0 1.003416000e+00 -7.840000000e-04
1189000000.0 1.008355000e+00 -2.106000000e-03
1193500000.0 1.006657000e+00 3.412000000e-03
1198000000.0 1.002071000e+00 -2.343000000e-03
1202500000.0 1.006222000e+00 -2.425000000e-03
1207000000.0 1.007504000e+00 -4.131000000e-03
1211500000.0 1.003242000e+00 7.310000000e-04
1216000000.0 1.001864000e+00 -1.203000000e-03
1220500000.0 1.004079000e+00 -1.989000000e-03
1225000000.0 1.003988000e+00 -8.555000000e-03
1229500000.0 1.004240000e+00 -6.467000000e-03
1234000000.0 1.001324000e+00 -4.658000000e-03
1238500000.0 1.000802000e+00 -7.367000000e-03
1243000000.0 1.000116000e+00 -8.193000000e-03
1247500000.0 1.005651000e+00 -1.569000000e-03
1252000000.0 1.005133000e+00 -2.556000000e-03
1256500000.0 1.004492000e+00 -6.982000000e-03
1261000000.0 1.002112000e+00 4.119000000e-03
1265500000.0 1.006212000e+00 -1.024300000e-02
1270000000.0 1.004761000e+00 1.044000000e-03
1274500000.0 1.000290000e+00 -2.577000000e-03
1279000000.0 1.006091000e+00 4.781000000e-03
1283500000.0 1.002778000e+00 6.158000000e-03
1288000000.0 1.007953000e+00 -3.375000000e-03
1292500000.0 1.005446000e+00 -2.660000000e-03
1297000000.0 1.006536000e+00 -3.490000000e-04
1301500000.0 9.984610000e-01 -1.739000000e-03
1306000000.0 1.000945000e+00 6.473000000e-03
1310500000.0 1.000026000e+00 1.004500000e-02
1315000000.0 1.004343000e+00 -3.840000000e-04
1319500000.0 1.006221000e+00 4.543000000e-03
1324000000.0 1.009171000e+00 -4.375000000e-03
1328500000.0 1.005323000e+00 -2.083000000e-03
1333000000.0 1.010162000e+00 3.066000000e-03
1337500000.0 1.004988000e+00 6.814000000e-03
1342000000.0 1.005950000e+00 3.700000000e-03
1346500000.0 1.007047000e+00 1.036000000e-03
1351000000.0 9.983780000e-01 1.595000000e-03
1355500000.0 1.002461000e+00 -1.785000000e-03
1360000000.0 9.978090000e-01 2.525000000e-03
1364500000.0 1.006421000e+00 1.397600000e-02
1369000000.0 1.009023000e+00 9.479000000e-03
1373500000.0 1.006205000e+00 9.304000000e-03
1378000000.0 1.002018000e+00 1.640200000e-02
1382500000.0 1.006441000e+00 1.428600000e-02
1387000000.0 1.005201000e+00 1.274500000e-02
1391500000.0 1.004252000e+00 7.544000000e-03
1396000000.0 1.001442000e+00 1.865000000e-03
1400500000.0 1.001318000e+00 1.374900000e-02
1405000000.0 1.009411000e+00 1.109300000e-02
1409500000.0 1.001551000e+00 9.116000000e-03
1414000000.0 1.001624000e+00 1.174000000e-02
1418500000.0 1.008211000e+00 2.163300000e-02
1423000000.0 1.006097000e+00 7.567000000e-03
1427500000.0 1.006497000e+00 1.603500000e-02
1432000000.0 1.002819000e+00 9.257000000e-03
1436500000.0 1.003744000e+00 1.890800000e-02
1441000000.0 1.001581000e+00 1.034000000e-02
1445500000.0 1.005759000e+00 1.228300000e-02
1450000000.0 1.003175000e+00 6.268000000e-03
