! prueba_sol / sol_carga / r05
# HZ S RI R 50
50000.0 -4.436000000e-03 -2.619900000e-02
59500.0 -3.300000000e-03 -1.830100000e-02
69000.0 -7.300000000e-04 -1.157800000e-02
78500.0 -2.091000000e-03 -7.275000000e-03
88000.0 -1.483000000e-03 -4.167000000e-03
97500.0 -1.105000000e-03 -7.190000000e-04
107000.0 -2.120000000e-04 1.804000000e-03
116500.0 5.680000000e-04 3.599000000e-03
126000.0 1.662000000e-03 4.589000000e-03
135500.0 3.630000000e-04 6.918000000e-03
145000.0 7.040000000e-04 7.453000000e-03
154500.0 4.400000000e-04 8.839000000e-03
164000.0 9.790000000e-04 9.407000000e-03
173500.0 8.590000000e-04 1.103400000e-02
183000.0 1.021000000e-03 1.190600000e-02
192500.0 1.445000000e-03 1.309400000e-02
202000.0 1.538000000e-03 1.349100000e-02
211500.0 1.622000000e-03 1.437100000e-02
221000.0 2.355000000e-03 1.456000000e-02
230500.0 2.570000000e-03 1.553800000e-02
240000.0 2.538000000e-03 1.547500000e-02
249500.0 3.073000000e-03 1.622900000e-02
259000.0 3.009000000e-03 1.708800000e-02
268500.0 3.026000000e-03 1.713900000e-02
278000.0 3.198000000e-03 1.688100000e-02
287500.0 2.921000000e-03 1.755400000e-02
297000.0 3.003000000e-03 1.778700000e-02
306500.0 3.289000000e-03 1.792600000e-02
316000.0 3.469000000e-03 1.837800000e-02
325500.0 3.250000000e-03 1.882400000e-02
335000.0 3.594000000e-03 1.960100000e-02
344500.0 3.740000000e-03 1.935900000e-02
354000.0 3.865000000e-03 1.948100000e-02
363500.0 3.006000000e-03 1.997400000e-02
373000.0 3.571000000e-03 2.032000000e-02
382500.0 3.669000000e-03 2.124600000e-02
392000.0 3.894000000e-03 2.018400000e-02
401500.0 3.815000000e-03 2.093600000e-02
411000.0 4.715000000e-03 2.166700000e-02
420500.0 4.363000000e-03 2.203100000e-02
430000.0 4.097000000e-03 2.146400000e-02
439500.0 4.980000000e-03 2.183700000e-02
449000.0 4.159000000e-03 2.223600000e-02
458500.0 4.767000000e-03 2.270000000e-02
468000.0 4.132000000e-03 2.197300000e-02
477500.0 4.629000000e-03 2.269600000e-02
487000.0 4.538000000e-03 2.253900000e-02
496500.0 4.813000000e-03 2.261500000e-02
506000.0 4.166000000e-03 2.333700000e-02
515500.0 4.863000000e-03 2.314800000e-02
525000.0 5.390000000e-03 2.425300000e-02
534500.0 4.844000000e-03 2.383900000e-02
544000.0 5.051000000e-03 2.398500000e-02
553500.0 5.615000000e-03 2.338300000e-02
563000.0 5.499000000e-03 2.448100000e-02
572500.0 6.588000000e-03 2.517100000e-02
582000.0 5.241000000e-03 2.404300000e-02
591500.0 4.599000000e-03 2.391600000e-02
601000.0 5.394000000e-03 2.383400000e-02
610500.0 5.706000000e-03 2.453600000e-02
620000.0 6.355000000e-03 2.473400000e-02
629500.0 6.203000000e-03 2.528100000e-02
639000.0 5.658000000e-03 2.539200000e-02
648500.0 5.900000000e-03 2.516200000e-02
658000.0 6.503000000e-03 2.573300000e-02
667500.0 7.062000000e-03 2.561500000e-02
677000.0 6.560000000e-03 2.582900000e-02
686500.0 6.043000000e-03 2.561900000e-02
696000.0 6.299000000e-03 2.494500000e-02
705500.0 7.033000000e-03 2.572300000e-02
715000.0 6.356000000e-03 2.593800000e-02
724500.0 5.798000000e-03 2.590900000e-02
734000.0 6.640000000e-03 2.664100000e-02
743500.0 6.797000000e-03 2.566200000e-02
753000.0 7.045000000e-03 2.561200000e-02
762500.0 6.636000000e-03 2.615600000e-02
772000.0 7.272000000e-03 2.609500000e-02
781500.0 6.793000000e-03 2.648100000e-02
791000.0 7.127000000e-03 2.651200000e-02
800500.0 7.306000000e-03 2.613400000e-02
810000.0 7.913000000e-03 2.674200000e-02
819500.0 7.515000000e-03 2.687200000e-02
829000.0 7.678000000e-03 2.625900000e-02
838500.0 8.041000000e-03 2.728000000e-02
848000.0 7.424000000e-03 2.577800000e-02
857500.0 8.391000000e-03 2.773900000e-02
867000.0 7.574000000e-03 2.694100000e-02
876500.0 8.229000000e-03 2.754600000e-02
886000.0 8.672000000e-03 2.778900000e-02
895500.0 8.961000000e-03 2.754300000e-02
905000.0 8.836000000e-03 2.808900000e-02
914500.0 8.025000000e-03 2.740300000e-02
924000.0 8.857000000e-03 2.612500000e-02
933500.0 8.676000000e-03 2.647300000e-02
943000.0 8.753000000e-03 2.728200000e-02
952500.0 8.102000000e-03 2.662000000e-02
962000.0 9.205000000e-03 2.727100000e-02
971500.0 7.645000000e-03 2.838500000e-02
981000.0 9.712000000e-03 2.795900000e-02
990500.0 8.458000000e-03 2.713100000e-02
1000000.0 9.095000000e-03 2.621000000e-02
1090000.0 1.014300000e-02 2.812400000e-02
1180000.0 1.073600000e-02 2.818600000e-02
1270000.0 1.170100000e-02 2.787500000e-02
1360000.0 1.330900000e-02 2.739800000e-02
1450000.0 1.431000000e-02 2.730200000e-02
1540000.0 1.691700000e-02 2.603900000e-02
1630000.0 1.614300000e-02 2.461400000e-02
1720000.0 1.922700000e-02 2.202900000e-02
1810000.0 1.871400000e-02 2.184700000e-02
1900000.0 1.943800000e-02 2.215400000e-02
1990000.0 1.867800000e-02 1.701100000e-02
2080000.0 1.941000000e-02 1.728300000e-02
2170000.0 1.714300000e-02 1.210600000e-02
2260000.0 1.498500000e-02 1.302600000e-02
2350000.0 1.521900000e-02 1.170900000e-02
2440000.0 1.227400000e-02 1.061700000e-02
2530000.0 1.191100000e-02 8.335000000e-03
2620000.0 1.103900000e-02 9.645000000e-03
2710000.0 9.439000000e-03 9.042000000e-03
2800000.0 9.092000000e-03 8.443000000e-03
2890000.0 7.971000000e-03 8.145000000e-03
2980000.0 6.126000000e-03 8.443000000e-03
3070000.0 6.148000000e-03 7.390000000e-03
3160000.0 4.942000000e-03 8.386000000e-03
3250000.0 3.144000000e-03 8.615000000e-03
3340000.0 2.382000000e-03 8.305000000e-03
3430000.0 1.956000000e-03 6.965000000e-03
3520000.0 2.385000000e-03 9.495000000e-03
3610000.0 2.280000000e-03 8.334000000e-03
3700000.0 1.290000000e-03 9.948000000e-03
3790000.0 2.110000000e-04 8.742000000e-03
3880000.0 -7.050000000e-04 9.389000000e-03
3970000.0 6.970000000e-04 9.462000000e-03
4060000.0 -3.680000000e-04 8.159000000e-03
4150000.0 5.900000000e-05 9.484000000e-03
4240000.0 -8.350000000e-04 9.915000000e-03
4330000.0 -9.830000000e-04 9.113000000e-03
4420000.0 -1.214000000e-03 1.068600000e-02
4510000.0 -2.120000000e-03 9.294000000e-03
4600000.0 -9.050000000e-04 9.986000000e-03
4690000.0 -1.471000000e-03 1.048200000e-02
4780000.0 -1.131000000e-03 1.008200000e-02
4870000.0 -1.459000000e-03 9.078000000e-03
4960000.0 -1.689000000e-03 1.047800000e-02
5050000.0 -2.714000000e-03 1.025400000e-02
5140000.0 -2.341000000e-03 9.921000000e-03
5230000.0 -2.103000000e-03 1.048800000e-02
5320000.0 -2.987000000e-03 9.477000000e-03
5410000.0 -2.011000000e-03 9.630000000e-03
5500000.0 -2.405000000e-03 9.852000000e-03
5590000.0 -3.280000000e-03 1.007300000e-02
5680000.0 -2.359000000e-03 8.416000000e-03
5770000.0 -3.797000000e-03 8.418000000e-03
5860000.0 -2.877000000e-03 1.027100000e-02
5950000.0 -2.168000000e-03 8.795000000e-03
6040000.0 -2.419000000e-03 8.979000000e-03
6130000.0 -3.362000000e-03 8.621000000e-03
6220000.0 -2.923000000e-03 9.004000000e-03
6310000.0 -2.106000000e-03 8.989000000e-03
6400000.0 -3.267000000e-03 8.669000000e-03
6490000.0 -2.697000000e-03 8.697000000e-03
6580000.0 -3.499000000e-03 7.975000000e-03
6670000.0 -2.447000000e-03 8.583000000e-03
6760000.0 -2.342000000e-03 8.435000000e-03
6850000.0 -3.370000000e-03 8.054000000e-03
6940000.0 -2.759000000e-03 8.423000000e-03
7030000.0 -2.711000000e-03 8.492000000e-03
7120000.0 -3.166000000e-03 8.002000000e-03
7210000.0 -3.339000000e-03 8.791000000e-03
7300000.0 -4.181000000e-03 7.914000000e-03
7390000.0 -3.616000000e-03 7.875000000e-03
7480000.0 -3.410000000e-03 8.157000000e-03
7570000.0 -1.894400000e-02 5.970000000e-04
7660000.0 -1.954600000e-02 1.482000000e-03
7750000.0 -1.897600000e-02 6.710000000e-04
7840000.0 -1.942400000e-02 1.026000000e-03
7930000.0 -1.826400000e-02 1.110000000e-04
8020000.0 -1.863600000e-02 9.250000000e-04
8110000.0 -1.737300000e-02 1.660000000e-04
8200000.0 -1.889200000e-02 1.198000000e-03
8290000.0 -1.925700000e-02 1.548000000e-03
8380000.0 -1.866200000e-02 1.155000000e-03
8470000.0 -1.921300000e-02 1.090000000e-03
8560000.0 -1.899700000e-02 1.611000000e-03
8650000.0 -1.923500000e-02 1.244000000e-03
8740000.0 -1.903100000e-02 1.309000000e-03
8830000.0 -1.873200000e-02 5.440000000e-04
8920000.0 -1.889200000e-02 8.100000000e-04
9010000.0 -1.815200000e-02 5.820000000e-04
9100000.0 -1.829200000e-02 1.064000000e-03
9190000.0 -1.843300000e-02 4.840000000e-04
9280000.0 -1.811900000e-02 5.170000000e-04
9370000.0 -1.777300000e-02 7.780000000e-04
9460000.0 -1.954300000e-02 1.316000000e-03
9550000.0 -1.868700000e-02 3.250000000e-04
9640000.0 -1.937200000e-02 1.293000000e-03
9730000.0 -1.900900000e-02 9.780000000e-04
9820000.0 -1.844600000e-02 7.230000000e-04
9910000.0 -1.843400000e-02 1.289000000e-03
10000000.0 -1.828600000e-02 4.720000000e-04
10900000.0 -1.776000000e-02 -1.630000000e-04
11800000.0 -1.926400000e-02 -7.300000000e-04
12700000.0 -1.879600000e-02 2.800000000e-04
13600000.0 -1.856000000e-02 1.149000000e-03
14500000.0 -1.877500000e-02 -2.610000000e-04
15400000.0 -1.840900000e-02 -5.640000000e-04
16300000.0 -1.877300000e-02 3.860000000e-04
17200000.0 -1.844200000e-02 -7.290000000e-04
18100000.0 -1.873800000e-02 -1.093000000e-03
19000000.0 -1.862600000e-02 -5.590000000e-04
19900000.0 -1.850600000e-02 -6.560000000e-04
20800000.0 -1.847000000e-02 -2.023000000e-03
21700000.0 -1.918300000e-02 -6.600000000e-05
22600000.0 -1.855700000e-02 -1.748000000e-03
23500000.0 -1.836300000e-02 -1.929000000e-03
24400000.0 -1.809800000e-02 -1.790000000e-03
25300000.0 -1.891000000e-02 -8.570000000e-04
26200000.0 -1.786200000e-02 -1.574000000e-03
27100000.0 -1.916600000e-02 -2.343000000e-03
28000000.0 -1.792300000e-02 -2.032000000e-03
28900000.0 -1.916600000e-02 -2.479000000e-03
29800000.0 -1.799200000e-02 -2.427000000e-03
30700000.0 -1.831400000e-02 -1.778000000e-03
31600000.0 -1.777400000e-02 -2.964000000e-03
32500000.0 -1.881300000e-02 -2.751000000e-03
33400000.0 -1.794000000e-02 -3.011000000e-03
34300000.0 -1.837500000e-02 -2.782000000e-03
35200000.0 -1.870000000e-02 -3.275000000e-03
36100000.0 -1.912400000e-02 -3.465000000e-03
37000000.0 -1.732300000e-02 -4.853000000e-03
37900000.0 -1.873100000e-02 -5.303000000e-03
38800000.0 -1.843300000e-02 -4.371000000e-03
39700000.0 -1.704300000e-02 -5.104000000e-03
40600000.0 -1.797200000e-02 -4.895000000e-03
41500000.0 -1.855000000e-02 -5.777000000e-03
42400000.0 -2.001600000e-02 -4.220000000e-03
43300000.0 -1.769300000e-02 -5.480000000e-03
44200000.0 -1.774400000e-02 -6.194000000e-03
45100000.0 -1.772900000e-02 -5.830000000e-03
46000000.0 -1.839700000e-02 -6.481000000e-03
46900000.0 -1.860000000e-02 -6.022000000e-03
47800000.0 -1.813000000e-02 -6.829000000e-03
48700000.0 -1.747700000e-02 -5.973000000e-03
49600000.0 -1.773700000e-02 -7.774000000e-03
50500000.0 -1.708600000e-02 -6.189000000e-03
51400000.0 -1.825800000e-02 -7.692000000e-03
52300000.0 -1.715800000e-02 -7.775000000e-03
53200000.0 -1.662600000e-02 -8.215000000e-03
54100000.0 -1.530500000e-02 -8.370000000e-03
55000000.0 -1.705400000e-02 -9.078000000e-03
55900000.0 -1.525400000e-02 -7.524000000e-03
56800000.0 -1.572800000e-02 -9.517000000e-03
57700000.0 -1.522500000e-02 -9.095000000e-03
58600000.0 -1.462800000e-02 -9.288000000e-03
59500000.0 -1.536900000e-02 -9.071000000e-03
60400000.0 -1.414600000e-02 -1.008100000e-02
61300000.0 -1.422200000e-02 -9.711000000e-03
62200000.0 -1.329800000e-02 -1.105000000e-02
63100000.0 -1.403800000e-02 -1.047000000e-02
64000000.0 -1.267800000e-02 -1.182800000e-02
64900000.0 -1.439300000e-02 -9.427000000e-03
65800000.0 -1.368400000e-02 -1.107700000e-02
66700000.0 -1.233300000e-02 -1.141300000e-02
67600000.0 -1.057400000e-02 -8.871000000e-03
68500000.0 -1.176200000e-02 -1.294400000e-02
69400000.0 -1.280700000e-02 -1.122800000e-02
70300000.0 -1.263100000e-02 -1.154200000e-02
71200000.0 -1.067700000e-02 -1.161000000e-02
72100000.0 -1.054800000e-02 -1.148000000e-02
73000000.0 -9.849000000e-03 -1.236400000e-02
73900000.0 -1.086100000e-02 -1.301900000e-02
74800000.0 -9.872000000e-03 -1.356500000e-02
75700000.0 -9.672000000e-03 -9.975000000e-03
76600000.0 -1.039600000e-02 -1.267000000e-02
77500000.0 -8.009000000e-03 -1.202700000e-02
78400000.0 -8.934000000e-03 -1.168500000e-02
79300000.0 -8.004000000e-03 -1.090900000e-02
80200000.0 -6.564000000e-03 -1.186800000e-02
81100000.0 -6.395000000e-03 -1.144200000e-02
82000000.0 -4.718000000e-03 -1.148100000e-02
82900000.0 -5.881000000e-03 -1.149900000e-02
83800000.0 -6.693000000e-03 -1.290300000e-02
84700000.0 -5.483000000e-03 -1.117500000e-02
85600000.0 -5.213000000e-03 -1.119100000e-02
86500000.0 -5.805000000e-03 -1.204100000e-02
87400000.0 -5.029000000e-03 -1.179300000e-02
88300000.0 -5.521000000e-03 -1.136900000e-02
89200000.0 -4.604000000e-03 -1.067900000e-02
90100000.0 -3.579000000e-03 -1.008600000e-02
91000000.0 -5.352000000e-03 -8.909000000e-03
91900000.0 -3.954000000e-03 -9.869000000e-03
92800000.0 -4.649000000e-03 -9.592000000e-03
93700000.0 -4.131000000e-03 -9.940000000e-03
94600000.0 -2.756000000e-03 -1.097700000e-02
95500000.0 -2.276000000e-03 -8.090000000e-03
96400000.0 -2.344000000e-03 -7.553000000e-03
97300000.0 -1.697000000e-03 -1.034300000e-02
98200000.0 -8.720000000e-04 -7.020000000e-03
99100000.0 -2.206000000e-03 -1.007000000e-02
100000000.0 -2.923000000e-03 -8.775000000e-03
109000000.0 -9.300000000e-04 -5.658000000e-03
118000000.0 4.510000000e-04 -5.080000000e-03
127000000.0 -9.430000000e-04 -2.160000000e-03
136000000.0 2.400000000e-05 -1.187000000e-03
145000000.0 -7.800000000e-05 2.630000000e-04
154000000.0 -3.990000000e-04 -7.000000000e-05
163000000.0 -6.180000000e-04 -2.870000000e-04
172000000.0 -3.910000000e-04 -1.450000000e-04
181000000.0 -4.070000000e-04 -2.750000000e-04
190000000.0 0.000000000e+00 -3.900000000e-04
199000000.0 -6.630000000e-04 -6.800000000e-05
208000000.0 -2.200000000e-05 -3.470000000e-04
217000000.0 -4.280000000e-04 4.110000000e-04
226000000.0 -6.080000000e-04 3.010000000e-04
235000000.0 -5.720000000e-04 1.440000000e-04
244000000.0 -5.730000000e-04 2.000000000e-05
253000000.0 -4.260000000e-04 2.470000000e-04
262000000.0 -7.900000000e-05 -2.040000000e-04
271000000.0 -4.240000000e-04 5.200000000e-05
280000000.0 -4.300000000e-04 -1.270000000e-04
289000000.0 -7.770000000e-04 9.750000000e-04
298000000.0 -8.750000000e-04 4.360000000e-04
307000000.0 -9.200000000e-04 3.020000000e-04
316000000.0 -3.980000000e-04 5.030000000e-04
325000000.0 -4.770000000e-04 4.500000000e-04
334000000.0 -3.480000000e-04 2.130000000e-04
343000000.0 -5.080000000e-04 2.000000000e-04
352000000.0 -5.100000000e-04 6.780000000e-04
361000000.0 -4.800000000e-05 -3.800000000e-05
370000000.0 -1.116000000e-03 4.960000000e-04
379000000.0 -3.140000000e-04 1.590000000e-04
388000000.0 -8.770000000e-04 7.110000000e-04
397000000.0 -1.125000000e-03 -4.130000000e-04
406000000.0 -8.950000000e-04 2.350000000e-04
415000000.0 -9.890000000e-04 5.040000000e-04
424000000.0 -1.176000000e-03 5.450000000e-04
433000000.0 -1.086000000e-03 4.070000000e-04
442000000.0 -7.360000000e-04 -6.600000000e-05
451000000.0 -8.940000000e-04 5.130000000e-04
460000000.0 -9.320000000e-04 -1.610000000e-04
469000000.0 -1.420000000e-03 3.540000000e-04
478000000.0 -1.960000000e-03 4.450000000e-04
487000000.0 -1.619000000e-03 -4.800000000e-05
496000000.0 -1.083000000e-03 8.900000000e-04
505000000.0 -1.207000000e-03 2.290000000e-04
514000000.0 -1.296000000e-03 3.290000000e-04
523000000.0 -8.530000000e-04 7.000000000e-05
532000000.0 -1.463000000e-03 5.000000000e-05
541000000.0 -1.114000000e-03 4.550000000e-04
550000000.0 -8.550000000e-04 -2.740000000e-04
559000000.0 -5.760000000e-04 -3.900000000e-05
568000000.0 -1.033000000e-03 -7.210000000e-04
577000000.0 -1.540000000e-03 -2.460000000e-04
586000000.0 -1.153000000e-03 -3.560000000e-04
595000000.0 -1.364000000e-03 -5.410000000e-04
604000000.0 -1.455000000e-03 -1.580000000e-04
613000000.0 -1.490000000e-03 -6.620000000e-04
622000000.0 -9.330000000e-04 -1.940000000e-04
631000000.0 -1.270000000e-03 -5.510000000e-04
640000000.0 -9.790000000e-04 2.690000000e-04
649000000.0 -8.220000000e-04 -3.300000000e-05
658000000.0 -1.046000000e-03 -5.690000000e-04
667000000.0 -5.960000000e-04 -2.080000000e-04
676000000.0 -9.840000000e-04 -1.000000000e-05
685000000.0 -1.093000000e-03 -8.300000000e-04
694000000.0 -6.740000000e-04 -1.680000000e-04
703000000.0 -1.149000000e-03 9.050000000e-04
712000000.0 -1.319000000e-03 1.700000000e-05
721000000.0 -6.400000000e-04 3.450000000e-04
730000000.0 -3.820000000e-04 1.260000000e-04
739000000.0 -8.370000000e-04 -2.920000000e-04
748000000.0 -5.610000000e-04 5.130000000e-04
757000000.0 -1.000000000e-06 -6.380000000e-04
766000000.0 -7.200000000e-04 1.880000000e-04
775000000.0 -1.160000000e-03 7.930000000e-04
784000000.0 -1.320000000e-04 6.870000000e-04
793000000.0 -1.384000000e-03 1.009000000e-03
802000000.0 -6.230000000e-04 5.720000000e-04
811000000.0 -4.540000000e-04 8.310000000e-04
820000000.0 -1.254000000e-03 9.550000000e-04
829000000.0 -9.670000000e-04 9.530000000e-04
838000000.0 -2.360000000e-04 2.320000000e-04
847000000.0 -7.730000000e-04 2.270000000e-04
856000000.0 -4.430000000e-04 6.260000000e-04
865000000.0 -4.220000000e-04 3.400000000e-04
874000000.0 -5.530000000e-04 7.680000000e-04
883000000.0 -1.142000000e-03 -4.100000000e-05
892000000.0 -5.620000000e-04 8.200000000e-04
901000000.0 -1.188000000e-03 1.090000000e-03
910000000.0 -1.104000000e-03 6.470000000e-04
919000000.0 -1.552000000e-03 8.400000000e-04
928000000.0 -1.052000000e-03 8.640000000e-04
937000000.0 -2.820000000e-04 2.960000000e-04
946000000.0 -1.033000000e-03 1.509000000e-03
955000000.0 -2.416000000e-03 8.500000000e-04
964000000.0 -1.843000000e-03 1.152000000e-03
973000000.0 -1.418000000e-03 6.410000000e-04
982000000.0 -6.410000000e-04 8.450000000e-04
991000000.0 -1.018000000e-03 6.980000000e-04
1000000000.0 -1.499000000e-03 1.139000000e-03
1004500000.0 -7.510000000e-04 1.139000000e-03
1009000000.0 -7.860000000e-04 7.260000000e-04
1013500000.0 -1.098000000e-03 9.170000000e-04
1018000000.0 -2.100000000e-04 7.560000000e-04
1022500000.0 -7.970000000e-04 1.516000000e-03
1027000000.0 -1.282000000e-03 1.287000000e-03
1031500000.0 -1.145000000e-03 1.356000000e-03
1036000000.0 -1.246000000e-03 1.327000000e-03
1040500000.0 -1.322000000e-03 1.495000000e-03
1045000000.0 -1.588000000e-03 1.379000000e-03
1049500000.0 -1.434000000e-03 8.260000000e-04
1054000000.0 -8.610000000e-04 1.548000000e-03
1058500000.0 -1.200000000e-03 1.038000000e-03
1063000000.0 -4.920000000e-04 1.033000000e-03
1067500000.0 -9.610000000e-04 6.730000000e-04
1072000000.0 -9.670000000e-04 -5.400000000e-05
1076500000.0 -8.680000000e-04 1.082000000e-03
1081000000.0 -8.550000000e-04 1.382000000e-03
1085500000.0 -3.540000000e-04 1.029000000e-03
1090000000.0 -1.197000000e-03 1.076000000e-03
1094500000.0 -7.930000000e-04 1.447000000e-03
1099000000.0 -1.384000000e-03 1.185000000e-03
1103500000.0 -8.250000000e-04 9.140000000e-04
1108000000.0 -1.504000000e-03 1.292000000e-03
1112500000.0 -6.650000000e-04 1.341000000e-03
1117000000.0 -2.235000000e-03 -1.150000000e-04
1121500000.0 -3.586000000e-03 7.530000000e-04
1126000000.0 -1.557000000e-03 9.000000000e-04
1130500000.0 -3.470000000e-04 1.205000000e-03
1135000000.0 3.093000000e-03 2.085000000e-03
1139500000.0 -9.900000000e-04 1.092000000e-03
1144000000.0 -8.660000000e-04 1.172000000e-03
1148500000.0 -3.040000000e-04 1.798000000e-03
1153000000.0 -2.540000000e-04 2.058000000e-03
1157500000.0 -1.849000000e-03 1.057000000e-03
1162000000.0 -1.253000000e-03 1.235000000e-03
1166500000.0 -1.307000000e-03 7.820000000e-04
1171000000.0 -4.600000000e-05 1.850000000e-03
1175500000.0 -1.228000000e-03 6.150000000e-04
1180000000.0 -1.620000000e-04 1.704000000e-03
1184500000.0 -1.272000000e-03 1.437000000e-03
1189000000.0 -1.383000000e-03 8.930000000e-04
1193500000.0 -5.090000000e-04 1.554000000e-03
1198000000.0 -9.840000000e-04 1.373000000e-03
1202500000.0 -2.720000000e-04 1.455000000e-03
1207000000.0 -9.380000000e-04 1.291000000e-03
1211500000.0 -1.152000000e-03 1.735000000e-03
1216000000.0 -1.008000000e-03 9.200000000e-04
1220500000.0 -8.770000000e-04 6.060000000e-04
1225000000.0 -1.090000000e-03 1.186000000e-03
1229500000.0 -1.389000000e-03 9.970000000e-04
1234000000.0 -8.330000000e-04 1.172000000e-03
1238500000.0 -9.130000000e-04 7.030000000e-04
1243000000.0 -6.730000000e-04 1.324000000e-03
1247500000.0 -1.196000000e-03 8.010000000e-04
1252000000.0 -1.492000000e-03 1.236000000e-03
1256500000.0 -1.049000000e-03 8.110000000e-04
1261000000.0 -1.888000000e-03 1.616000000e-03
1265500000.0 -1.363000000e-03 7.360000000e-04
1270000000.0 -1.059000000e-03 4.340000000e-04
1274500000.0 -1.526000000e-03 4.200000000e-04
1279000000.0 -9.950000000e-04 8.720000000e-04
1283500000.0 -1.062000000e-03 1.382000000e-03
1288000000.0 -1.170000000e-03 2.310000000e-04
1292500000.0 -1.422000000e-03 3.940000000e-04
1297000000.0 -1.727000000e-03 1.159000000e-03
1301500000.0 -1.901000000e-03 3.500000000e-04
1306000000.0 -1.103000000e-03 9.800000000e-04
1310500000.0 -1.801000000e-03 9.530000000e-04
1315000000.0 -2.192000000e-03 1.410000000e-04
1319500000.0 -1.914000000e-03 4.370000000e-04
1324000000.0 -2.702000000e-03 3.140000000e-04
1328500000.0 -1.228000000e-03 5.500000000e-05
1333000000.0 -1.727000000e-03 1.900000000e-04
1337500000.0 -8.500000000e-04 5.750000000e-04
1342000000.0 -1.920000000e-03 -8.700000000e-05
1346500000.0 -1.293000000e-03 9.400000000e-05
1351000000.0 -1.721000000e-03 3.330000000e-04
1355500000.0 -1.916000000e-03 2.530000000e-04
1360000000.0 -1.309000000e-03 -1.030000000e-04
1364500000.0 -1.599000000e-03 3.130000000e-04
1369000000.0 -1.643000000e-03 -6.670000000e-04
1373500000.0 -1.482000000e-03 -1.106000000e-03
1378000000.0 -8.720000000e-04 2.160000000e-04
1382500000.0 -2.088000000e-03 -2.210000000e-04
1387000000.0 -7.410000000e-04 4.800000000e-05
1391500000.0 -1.294000000e-03 3.600000000e-04
1396000000.0 -1.067000000e-03 -9.670000000e-04
1400500000.0 -9.610000000e-04 -2.520000000e-04
1405000000.0 -4.710000000e-04 6.600000000e-05
1409500000.0 -1.663000000e-03 -3.760000000e-04
1414000000.0 -9.120000000e-04 3.670000000e-04
1418500000.0 -1.695000000e-03 1.330000000e-03
1423000000.0 -2.013000000e-03 4.670000000e-04
1427500000.0 -1.317000000e-03 -6.800000000e-04
1432000000.0 -1.738000000e-03 -1.840000000e-04
1436500000.0 -1.511000000e-03 -4.840000000e-04
1441000000.0 -1.409000000e-03 1.161000000e-03
1445500000.0 -1.284000000e-03 1.433000000e-03
1450000000.0 -7.260000000e-04 2.001000000e-03
