! prueba_sol / sol_abierto / r05
# HZ S RI R 50
50000.0 1.005851000e+00 -7.052900000e-02
59500.0 1.005252000e+00 -5.673400000e-02
69000.0 1.003609000e+00 -4.130300000e-02
78500.0 1.002200000e+00 -2.966900000e-02
88000.0 1.000274000e+00 -1.801000000e-02
97500.0 1.001619000e+00 -5.042000000e-03
107000.0 1.000431000e+00 7.149000000e-03
116500.0 1.000354000e+00 1.991300000e-02
126000.0 1.000348000e+00 3.416800000e-02
135500.0 1.001117000e+00 4.549100000e-02
145000.0 1.001037000e+00 5.696100000e-02
154500.0 1.001997000e+00 6.885500000e-02
164000.0 1.001389000e+00 8.088200000e-02
173500.0 1.001652000e+00 9.202900000e-02
183000.0 1.002743000e+00 1.041160000e-01
192500.0 1.002419000e+00 1.166270000e-01
202000.0 1.002681000e+00 1.277880000e-01
211500.0 1.002862000e+00 1.399160000e-01
221000.0 1.003656000e+00 1.515140000e-01
230500.0 1.004210000e+00 1.620460000e-01
240000.0 1.003949000e+00 1.735370000e-01
249500.0 1.004271000e+00 1.853030000e-01
259000.0 1.004600000e+00 1.953070000e-01
268500.0 1.005072000e+00 2.073900000e-01
278000.0 1.005217000e+00 2.184160000e-01
287500.0 1.005024000e+00 2.292130000e-01
297000.0 1.005959000e+00 2.398610000e-01
306500.0 1.005793000e+00 2.515070000e-01
316000.0 1.006167000e+00 2.620850000e-01
325500.0 1.006410000e+00 2.731440000e-01
335000.0 1.006780000e+00 2.841250000e-01
344500.0 1.007355000e+00 2.935460000e-01
354000.0 1.006779000e+00 3.047490000e-01
363500.0 1.008153000e+00 3.153120000e-01
373000.0 1.007413000e+00 3.267190000e-01
382500.0 1.008278000e+00 3.360470000e-01
392000.0 1.007779000e+00 3.474150000e-01
401500.0 1.008138000e+00 3.572810000e-01
411000.0 1.007984000e+00 3.679970000e-01
420500.0 1.008601000e+00 3.785970000e-01
430000.0 1.009117000e+00 3.879110000e-01
439500.0 1.009843000e+00 3.992460000e-01
449000.0 1.008881000e+00 4.086780000e-01
458500.0 1.010905000e+00 4.187940000e-01
468000.0 1.010656000e+00 4.287920000e-01
477500.0 1.010516000e+00 4.397110000e-01
487000.0 1.010408000e+00 4.498020000e-01
496500.0 1.011248000e+00 4.602040000e-01
506000.0 1.010857000e+00 4.698090000e-01
515500.0 1.011909000e+00 4.795830000e-01
525000.0 1.012269000e+00 4.900450000e-01
534500.0 1.012169000e+00 4.990950000e-01
544000.0 1.012446000e+00 5.085930000e-01
553500.0 1.011990000e+00 5.188360000e-01
563000.0 1.013948000e+00 5.278210000e-01
572500.0 1.014456000e+00 5.383720000e-01
582000.0 1.014530000e+00 5.475890000e-01
591500.0 1.015384000e+00 5.583880000e-01
601000.0 1.015819000e+00 5.675920000e-01
610500.0 1.016777000e+00 5.772170000e-01
620000.0 1.016809000e+00 5.868920000e-01
629500.0 1.017521000e+00 5.974630000e-01
639000.0 1.017871000e+00 6.062720000e-01
648500.0 1.018692000e+00 6.152810000e-01
658000.0 1.019839000e+00 6.263560000e-01
667500.0 1.019538000e+00 6.353900000e-01
677000.0 1.020726000e+00 6.435340000e-01
686500.0 1.022346000e+00 6.542200000e-01
696000.0 1.021922000e+00 6.625260000e-01
705500.0 1.022605000e+00 6.727230000e-01
715000.0 1.024153000e+00 6.819270000e-01
724500.0 1.024260000e+00 6.912140000e-01
734000.0 1.026157000e+00 7.010000000e-01
743500.0 1.027666000e+00 7.104020000e-01
753000.0 1.028111000e+00 7.190770000e-01
762500.0 1.029879000e+00 7.286540000e-01
772000.0 1.029803000e+00 7.371720000e-01
781500.0 1.031044000e+00 7.475330000e-01
791000.0 1.032833000e+00 7.561760000e-01
800500.0 1.035241000e+00 7.644640000e-01
810000.0 1.035461000e+00 7.746520000e-01
819500.0 1.037305000e+00 7.837430000e-01
829000.0 1.039882000e+00 7.931470000e-01
838500.0 1.040028000e+00 8.028620000e-01
848000.0 1.041734000e+00 8.109580000e-01
857500.0 1.044432000e+00 8.204290000e-01
867000.0 1.045883000e+00 8.306720000e-01
876500.0 1.046901000e+00 8.393150000e-01
886000.0 1.049952000e+00 8.470620000e-01
895500.0 1.049553000e+00 8.567790000e-01
905000.0 1.053398000e+00 8.657040000e-01
914500.0 1.056082000e+00 8.734840000e-01
924000.0 1.058309000e+00 8.825100000e-01
933500.0 1.059755000e+00 8.930750000e-01
943000.0 1.062314000e+00 9.010120000e-01
952500.0 1.064281000e+00 9.092940000e-01
962000.0 1.065989000e+00 9.180190000e-01
971500.0 1.070159000e+00 9.275700000e-01
981000.0 1.071669000e+00 9.354480000e-01
990500.0 1.074579000e+00 9.446560000e-01
1000000.0 1.077426000e+00 9.531350000e-01
1090000.0 1.105502000e+00 1.033061000e+00
1180000.0 1.143556000e+00 1.109126000e+00
1270000.0 1.192959000e+00 1.177706000e+00
1360000.0 1.251274000e+00 1.241225000e+00
1450000.0 1.319214000e+00 1.293510000e+00
1540000.0 1.397609000e+00 1.331244000e+00
1630000.0 1.483239000e+00 1.353200000e+00
1720000.0 1.573459000e+00 1.355468000e+00
1810000.0 1.663929000e+00 1.338464000e+00
1900000.0 1.750395000e+00 1.298944000e+00
1990000.0 1.824555000e+00 1.242450000e+00
2080000.0 1.885756000e+00 1.170380000e+00
2170000.0 1.929706000e+00 1.086274000e+00
2260000.0 1.945913000e+00 1.009234000e+00
2350000.0 1.966646000e+00 9.098770000e-01
2440000.0 1.960795000e+00 8.199780000e-01
2530000.0 1.942806000e+00 7.413110000e-01
2620000.0 1.915606000e+00 6.666590000e-01
2710000.0 1.881278000e+00 6.019550000e-01
2800000.0 1.846718000e+00 5.443740000e-01
2890000.0 1.807215000e+00 4.958160000e-01
2980000.0 1.768861000e+00 4.511740000e-01
3070000.0 1.730919000e+00 4.124270000e-01
3160000.0 1.691444000e+00 3.775340000e-01
3250000.0 1.656267000e+00 3.455320000e-01
3340000.0 1.623338000e+00 3.183740000e-01
3430000.0 1.588947000e+00 2.958780000e-01
3520000.0 1.559312000e+00 2.734110000e-01
3610000.0 1.531711000e+00 2.516820000e-01
3700000.0 1.503421000e+00 2.333750000e-01
3790000.0 1.479003000e+00 2.147950000e-01
3880000.0 1.457278000e+00 1.970730000e-01
3970000.0 1.435644000e+00 1.802150000e-01
4060000.0 1.416555000e+00 1.652070000e-01
4150000.0 1.397720000e+00 1.510800000e-01
4240000.0 1.381061000e+00 1.368800000e-01
4330000.0 1.365551000e+00 1.218420000e-01
4420000.0 1.350949000e+00 1.075010000e-01
4510000.0 1.339859000e+00 9.487700000e-02
4600000.0 1.329454000e+00 8.179000000e-02
4690000.0 1.317386000e+00 6.836700000e-02
4780000.0 1.307475000e+00 5.511000000e-02
4870000.0 1.298559000e+00 4.322500000e-02
4960000.0 1.292987000e+00 2.936500000e-02
5050000.0 1.277998000e+00 1.777300000e-02
5140000.0 1.273206000e+00 3.841000000e-03
5230000.0 1.267423000e+00 -7.947000000e-03
5320000.0 1.264713000e+00 -1.983200000e-02
5410000.0 1.259569000e+00 -3.126300000e-02
5500000.0 1.255564000e+00 -4.321900000e-02
5590000.0 1.252124000e+00 -5.440800000e-02
5680000.0 1.248398000e+00 -6.569300000e-02
5770000.0 1.245839000e+00 -7.621100000e-02
5860000.0 1.244006000e+00 -8.728700000e-02
5950000.0 1.239806000e+00 -9.754000000e-02
6040000.0 1.237743000e+00 -1.077350000e-01
6130000.0 1.233843000e+00 -1.177590000e-01
6220000.0 1.232552000e+00 -1.261020000e-01
6310000.0 1.229864000e+00 -1.358080000e-01
6400000.0 1.227903000e+00 -1.444510000e-01
6490000.0 1.227270000e+00 -1.524100000e-01
6580000.0 1.225546000e+00 -1.597080000e-01
6670000.0 1.225107000e+00 -1.664760000e-01
6760000.0 1.223930000e+00 -1.717240000e-01
6850000.0 1.222190000e+00 -1.771440000e-01
6940000.0 1.221453000e+00 -1.816450000e-01
7030000.0 1.221239000e+00 -1.848370000e-01
7120000.0 1.219485000e+00 -1.891110000e-01
7210000.0 1.220909000e+00 -1.920570000e-01
7300000.0 1.218946000e+00 -1.929120000e-01
7390000.0 1.219867000e+00 -1.939080000e-01
7480000.0 1.219397000e+00 -1.946130000e-01
7570000.0 -2.425460000e-01 -1.259684000e+00
7660000.0 -2.415630000e-01 -1.259124000e+00
7750000.0 -2.408630000e-01 -1.260076000e+00
7840000.0 -2.406050000e-01 -1.259631000e+00
7930000.0 -2.401130000e-01 -1.259525000e+00
8020000.0 -2.391790000e-01 -1.261256000e+00
8110000.0 -2.391620000e-01 -1.261149000e+00
8200000.0 -2.367140000e-01 -1.262509000e+00
8290000.0 -2.363750000e-01 -1.262924000e+00
8380000.0 -2.356450000e-01 -1.262249000e+00
8470000.0 -2.355490000e-01 -1.264329000e+00
8560000.0 -2.354020000e-01 -1.263936000e+00
8650000.0 -2.335340000e-01 -1.264922000e+00
8740000.0 -2.340810000e-01 -1.265607000e+00
8830000.0 -2.326300000e-01 -1.266328000e+00
8920000.0 -2.326000000e-01 -1.266800000e+00
9010000.0 -2.317160000e-01 -1.268450000e+00
9100000.0 -2.309750000e-01 -1.267342000e+00
9190000.0 -2.293250000e-01 -1.268293000e+00
9280000.0 -2.293280000e-01 -1.269440000e+00
9370000.0 -2.299860000e-01 -1.270875000e+00
9460000.0 -2.283940000e-01 -1.270604000e+00
9550000.0 -2.277920000e-01 -1.272316000e+00
9640000.0 -2.259830000e-01 -1.271967000e+00
9730000.0 -2.264210000e-01 -1.272729000e+00
9820000.0 -2.259740000e-01 -1.274162000e+00
9910000.0 -2.256410000e-01 -1.275550000e+00
10000000.0 -2.244930000e-01 -1.275926000e+00
10900000.0 -2.191070000e-01 -1.284709000e+00
11800000.0 -2.128480000e-01 -1.294067000e+00
12700000.0 -2.058110000e-01 -1.303833000e+00
13600000.0 -2.001860000e-01 -1.314161000e+00
14500000.0 -1.962060000e-01 -1.326399000e+00
15400000.0 -1.886580000e-01 -1.337474000e+00
16300000.0 -1.822710000e-01 -1.349152000e+00
17200000.0 -1.760520000e-01 -1.361171000e+00
18100000.0 -1.675370000e-01 -1.373466000e+00
19000000.0 -1.606040000e-01 -1.385341000e+00
19900000.0 -1.538350000e-01 -1.397751000e+00
20800000.0 -1.449450000e-01 -1.411522000e+00
21700000.0 -1.357490000e-01 -1.422370000e+00
22600000.0 -1.277620000e-01 -1.436399000e+00
23500000.0 -1.177720000e-01 -1.448953000e+00
24400000.0 -1.085630000e-01 -1.463883000e+00
25300000.0 -9.712600000e-02 -1.477690000e+00
26200000.0 -8.787700000e-02 -1.490276000e+00
27100000.0 -7.558700000e-02 -1.504331000e+00
28000000.0 -6.459900000e-02 -1.519575000e+00
28900000.0 6.090600000e-02 -1.556137000e+00
29800000.0 -3.955700000e-02 -1.547639000e+00
30700000.0 -2.580500000e-02 -1.561661000e+00
31600000.0 -1.179900000e-02 -1.577182000e+00
32500000.0 3.922000000e-03 -1.592211000e+00
33400000.0 1.779700000e-02 -1.606116000e+00
34300000.0 3.460600000e-02 -1.621118000e+00
35200000.0 5.134300000e-02 -1.636730000e+00
36100000.0 6.866200000e-02 -1.650556000e+00
37000000.0 8.671700000e-02 -1.665481000e+00
37900000.0 1.064950000e-01 -1.679814000e+00
38800000.0 1.256460000e-01 -1.692861000e+00
39700000.0 1.450600000e-01 -1.707211000e+00
40600000.0 1.678690000e-01 -1.722809000e+00
41500000.0 1.879490000e-01 -1.735525000e+00
42400000.0 2.132640000e-01 -1.751554000e+00
43300000.0 2.346570000e-01 -1.763807000e+00
44200000.0 2.596630000e-01 -1.777250000e+00
45100000.0 2.852230000e-01 -1.788801000e+00
46000000.0 3.434610000e-01 -1.798295000e+00
46900000.0 3.381280000e-01 -1.811609000e+00
47800000.0 3.666690000e-01 -1.823689000e+00
48700000.0 3.964060000e-01 -1.834592000e+00
49600000.0 4.279260000e-01 -1.843372000e+00
50500000.0 4.593170000e-01 -1.853146000e+00
51400000.0 4.886500000e-01 -1.861297000e+00
52300000.0 5.211920000e-01 -1.867475000e+00
53200000.0 5.528880000e-01 -1.872616000e+00
54100000.0 5.882740000e-01 -1.878677000e+00
55000000.0 6.266840000e-01 -1.881699000e+00
55900000.0 6.605710000e-01 -1.885413000e+00
56800000.0 6.979330000e-01 -1.886148000e+00
57700000.0 7.340160000e-01 -1.886016000e+00
58600000.0 7.718170000e-01 -1.884875000e+00
59500000.0 8.117090000e-01 -1.882125000e+00
60400000.0 8.489400000e-01 -1.876869000e+00
61300000.0 8.876760000e-01 -1.870563000e+00
62200000.0 9.261520000e-01 -1.860600000e+00
63100000.0 9.668120000e-01 -1.854270000e+00
64000000.0 1.006450000e+00 -1.839673000e+00
64900000.0 1.045668000e+00 -1.828861000e+00
65800000.0 1.081093000e+00 -1.812380000e+00
66700000.0 1.121701000e+00 -1.795244000e+00
67600000.0 1.159713000e+00 -1.777102000e+00
68500000.0 1.197027000e+00 -1.755707000e+00
69400000.0 1.233213000e+00 -1.735175000e+00
70300000.0 1.268706000e+00 -1.710915000e+00
71200000.0 1.301797000e+00 -1.684778000e+00
72100000.0 1.337887000e+00 -1.658051000e+00
73000000.0 1.367044000e+00 -1.630068000e+00
73900000.0 1.399962000e+00 -1.598301000e+00
74800000.0 1.429105000e+00 -1.567109000e+00
75700000.0 1.458160000e+00 -1.533533000e+00
76600000.0 1.480799000e+00 -1.501748000e+00
77500000.0 1.505841000e+00 -1.467802000e+00
78400000.0 1.527038000e+00 -1.431014000e+00
79300000.0 1.548640000e+00 -1.394786000e+00
80200000.0 1.568834000e+00 -1.360074000e+00
81100000.0 1.585157000e+00 -1.323054000e+00
82000000.0 1.600072000e+00 -1.284170000e+00
82900000.0 1.613106000e+00 -1.246762000e+00
83800000.0 1.625780000e+00 -1.210818000e+00
84700000.0 1.636547000e+00 -1.173517000e+00
85600000.0 1.644590000e+00 -1.133789000e+00
86500000.0 1.650640000e+00 -1.098560000e+00
87400000.0 1.656322000e+00 -1.063496000e+00
88300000.0 1.662322000e+00 -1.025668000e+00
89200000.0 1.662451000e+00 -9.922780000e-01
90100000.0 1.664792000e+00 -9.568520000e-01
91000000.0 1.663106000e+00 -9.226260000e-01
91900000.0 1.663733000e+00 -8.875920000e-01
92800000.0 1.660432000e+00 -8.556460000e-01
93700000.0 1.656840000e+00 -8.246260000e-01
94600000.0 1.652525000e+00 -7.921700000e-01
95500000.0 1.647811000e+00 -7.619400000e-01
96400000.0 1.640951000e+00 -7.328390000e-01
97300000.0 1.634805000e+00 -7.018940000e-01
98200000.0 1.628856000e+00 -6.750200000e-01
99100000.0 1.618749000e+00 -6.457710000e-01
100000000.0 1.610685000e+00 -6.190890000e-01
109000000.0 1.503378000e+00 -3.996180000e-01
118000000.0 1.377073000e+00 -2.437790000e-01
127000000.0 1.255926000e+00 -1.379820000e-01
136000000.0 1.147412000e+00 -6.870600000e-02
145000000.0 1.050186000e+00 -1.896500000e-02
154000000.0 1.000300000e+00 -1.460000000e-04
163000000.0 1.001965000e+00 -4.150000000e-04
172000000.0 1.002626000e+00 -6.910000000e-04
181000000.0 1.004106000e+00 -6.870000000e-04
190000000.0 1.004431000e+00 -1.787000000e-03
199000000.0 1.005173000e+00 -1.044000000e-03
208000000.0 1.005268000e+00 -1.276000000e-03
217000000.0 1.004982000e+00 -1.767000000e-03
226000000.0 1.005805000e+00 -1.246000000e-03
235000000.0 1.006043000e+00 -4.800000000e-04
244000000.0 1.005613000e+00 -1.445000000e-03
253000000.0 1.005565000e+00 -1.385000000e-03
262000000.0 1.005594000e+00 -1.458000000e-03
271000000.0 1.004644000e+00 -3.750000000e-04
280000000.0 1.003771000e+00 4.260000000e-04
289000000.0 1.002841000e+00 -1.623000000e-03
298000000.0 1.002628000e+00 1.000000000e-04
307000000.0 1.001928000e+00 -8.730000000e-04
316000000.0 1.003717000e+00 1.987000000e-03
325000000.0 1.005085000e+00 -1.812000000e-03
334000000.0 1.006020000e+00 -7.850000000e-04
343000000.0 1.005421000e+00 -6.740000000e-04
352000000.0 1.022959000e+00 1.017400000e-02
361000000.0 1.006009000e+00 1.239000000e-03
370000000.0 1.006085000e+00 8.620000000e-04
379000000.0 1.008464000e+00 1.995700000e-02
388000000.0 1.006433000e+00 -1.600000000e-04
397000000.0 1.005482000e+00 1.658000000e-03
406000000.0 1.012151000e+00 3.745500000e-02
415000000.0 1.003590000e+00 7.940000000e-04
424000000.0 1.002170000e+00 -2.850000000e-04
433000000.0 1.001985000e+00 2.543000000e-03
442000000.0 1.000520000e+00 2.054000000e-03
451000000.0 9.981510000e-01 6.570000000e-04
460000000.0 1.000662000e+00 3.288000000e-03
469000000.0 1.003516000e+00 2.843000000e-03
478000000.0 1.004784000e+00 3.124000000e-03
487000000.0 1.006386000e+00 3.981000000e-03
496000000.0 1.005673000e+00 5.705000000e-03
505000000.0 1.006635000e+00 7.233000000e-03
514000000.0 1.008118000e+00 8.206000000e-03
523000000.0 1.008090000e+00 6.195000000e-03
532000000.0 1.008337000e+00 9.411000000e-03
541000000.0 1.009959000e+00 9.893000000e-03
550000000.0 1.008851000e+00 9.508000000e-03
559000000.0 1.007877000e+00 5.597000000e-03
568000000.0 1.007010000e+00 9.451000000e-03
577000000.0 1.010445000e+00 8.092000000e-03
586000000.0 1.004726000e+00 6.236000000e-03
595000000.0 1.003816000e+00 6.913000000e-03
604000000.0 1.002474000e+00 6.283000000e-03
613000000.0 1.005957000e+00 8.128000000e-03
622000000.0 1.010354000e+00 9.484000000e-03
631000000.0 1.009141000e+00 1.107600000e-02
640000000.0 1.010838000e+00 6.390000000e-03
649000000.0 1.011921000e+00 9.330000000e-03
658000000.0 1.017664000e+00 8.203000000e-03
667000000.0 1.018604000e+00 1.012800000e-02
676000000.0 1.016406000e+00 9.730000000e-03
685000000.0 1.016041000e+00 5.036000000e-03
694000000.0 1.016987000e+00 6.616000000e-03
703000000.0 1.013871000e+00 6.897000000e-03
712000000.0 1.015375000e+00 1.618000000e-03
721000000.0 1.012923000e+00 4.869000000e-03
730000000.0 1.008515000e+00 2.307000000e-03
739000000.0 1.004311000e+00 2.559000000e-03
748000000.0 1.002670000e+00 2.019000000e-03
757000000.0 1.001893000e+00 5.830000000e-04
766000000.0 1.005342000e+00 -3.155000000e-03
775000000.0 1.009583000e+00 -2.959000000e-03
784000000.0 1.014179000e+00 -2.008000000e-03
793000000.0 1.013520000e+00 -3.967000000e-03
802000000.0 1.016087000e+00 -4.824000000e-03
811000000.0 1.019601000e+00 -8.490000000e-03
820000000.0 1.017681000e+00 -4.668000000e-03
829000000.0 1.015845000e+00 -3.322000000e-03
838000000.0 1.018180000e+00 -4.833000000e-03
847000000.0 1.016547000e+00 -4.350000000e-03
856000000.0 1.013348000e+00 -4.926000000e-03
865000000.0 1.010724000e+00 1.764000000e-03
874000000.0 1.012293000e+00 -1.750000000e-03
883000000.0 1.005464000e+00 -1.480000000e-04
892000000.0 1.004022000e+00 -2.455000000e-03
901000000.0 9.992160000e-01 4.797000000e-03
910000000.0 1.004694000e+00 -4.810000000e-04
919000000.0 1.005042000e+00 -8.870000000e-04
928000000.0 1.002606000e+00 -4.955000000e-03
937000000.0 1.004552000e+00 -7.914000000e-03
946000000.0 1.003651000e+00 -5.605000000e-03
955000000.0 1.006618000e+00 -1.127300000e-02
964000000.0 1.002049000e+00 -4.853000000e-03
973000000.0 1.006519000e+00 -9.345000000e-03
982000000.0 1.002777000e+00 -9.533000000e-03
991000000.0 1.003857000e+00 -5.843000000e-03
1000000000.0 1.004190000e+00 -5.860000000e-03
1004500000.0 1.004001000e+00 -8.509000000e-03
1009000000.0 1.005865000e+00 -8.170000000e-03
1013500000.0 1.003134000e+00 -8.317000000e-03
1018000000.0 1.001945000e+00 -4.895000000e-03
1022500000.0 1.001234000e+00 -6.877000000e-03
1027000000.0 1.002148000e+00 -7.272000000e-03
1031500000.0 1.002428000e+00 -3.887000000e-03
1036000000.0 1.002238000e+00 4.110000000e-04
1040500000.0 1.003451000e+00 -4.083000000e-03
1045000000.0 1.002562000e+00 -2.395000000e-03
1049500000.0 1.001295000e+00 2.357000000e-03
1054000000.0 1.000301000e+00 -5.500000000e-04
1058500000.0 1.000570000e+00 -3.318000000e-03
1063000000.0 1.001184000e+00 -8.320000000e-04
1067500000.0 9.993390000e-01 -5.691000000e-03
1072000000.0 1.001243000e+00 6.160000000e-04
1076500000.0 1.003432000e+00 5.200000000e-04
1081000000.0 1.002944000e+00 -5.091000000e-03
1085500000.0 1.001603000e+00 -6.300000000e-05
1090000000.0 1.004133000e+00 4.883000000e-03
1094500000.0 1.001055000e+00 7.890000000e-04
1099000000.0 1.002832000e+00 -3.296000000e-03
1103500000.0 1.004567000e+00 -2.161000000e-03
1108000000.0 1.001365000e+00 -4.142000000e-03
1112500000.0 1.003762000e+00 -3.547000000e-03
1117000000.0 1.002777000e+00 -1.036900000e-02
1121500000.0 1.006535000e+00 -4.594000000e-03
1126000000.0 1.001640000e+00 -4.771000000e-03
1130500000.0 1.003174000e+00 4.226000000e-03
1135000000.0 1.013148000e+00 3.028900000e-02
1139500000.0 1.005684000e+00 -5.130000000e-03
1144000000.0 1.005351000e+00 -3.964000000e-03
1148500000.0 1.007002000e+00 -9.914000000e-03
1153000000.0 1.009029000e+00 1.838000000e-03
1157500000.0 1.005743000e+00 -1.499000000e-03
1162000000.0 1.003676000e+00 -6.251000000e-03
1166500000.0 1.005201000e+00 -1.169400000e-02
1171000000.0 1.004329000e+00 -9.787000000e-03
1175500000.0 1.000911000e+00 -5.889000000e-03
1180000000.0 1.002560000e+00 -8.000000000e-03
1184500000.0 1.003204000e+00 -6.335000000e-03
1189000000.0 1.002797000e+00 -7.430000000e-04
1193500000.0 9.998090000e-01 -8.791000000e-03
1198000000.0 9.999670000e-01 -8.052000000e-03
1202500000.0 1.005333000e+00 -1.458300000e-02
1207000000.0 1.007789000e+00 1.805000000e-03
1211500000.0 1.002357000e+00 -1.438000000e-03
1216000000.0 1.003291000e+00 -3.749000000e-03
1220500000.0 1.004000000e+00 -5.492000000e-03
1225000000.0 1.007285000e+00 -3.404000000e-03
1229500000.0 1.006726000e+00 -1.082000000e-03
1234000000.0 1.004089000e+00 6.430000000e-04
1238500000.0 1.001963000e+00 -1.482000000e-03
1243000000.0 1.001373000e+00 -1.019200000e-02
1247500000.0 1.004168000e+00 -2.502000000e-03
1252000000.0 1.006259000e+00 1.576000000e-03
1256500000.0 1.007249000e+00 1.546000000e-03
1261000000.0 1.004075000e+00 7.547000000e-03
1265500000.0 1.011030000e+00 -2.565000000e-03
1270000000.0 1.002088000e+00 -6.872000000e-03
1274500000.0 1.009968000e+00 -3.869000000e-03
1279000000.0 1.004229000e+00 1.842000000e-03
1283500000.0 1.003784000e+00 -3.610000000e-03
1288000000.0 1.007166000e+00 5.643000000e-03
1292500000.0 1.001112000e+00 9.200000000e-04
1297000000.0 1.004823000e+00 -1.004600000e-02
1301500000.0 9.992920000e-01 -1.030000000e-04
1306000000.0 1.001911000e+00 4.998000000e-03
1310500000.0 9.981400000e-01 2.318000000e-03
1315000000.0 9.971040000e-01 3.703000000e-03
1319500000.0 1.005010000e+00 8.310000000e-03
1324000000.0 1.002711000e+00 5.511000000e-03
1328500000.0 1.001834000e+00 -3.536000000e-03
1333000000.0 1.002106000e+00 1.204800000e-02
1337500000.0 1.007264000e+00 1.508000000e-03
1342000000.0 1.002155000e+00 3.475000000e-03
1346500000.0 1.005797000e+00 -2.516000000e-03
1351000000.0 1.004620000e+00 4.796000000e-03
1355500000.0 9.998570000e-01 4.977000000e-03
1360000000.0 9.989080000e-01 -1.306700000e-02
1364500000.0 1.009890000e+00 3.300000000e-05
1369000000.0 1.004363000e+00 -7.469000000e-03
1373500000.0 1.007149000e+00 -3.399000000e-03
1378000000.0 1.008310000e+00 2.571000000e-02
1382500000.0 1.006021000e+00 8.698000000e-03
1387000000.0 1.005092000e+00 -5.875000000e-03
1391500000.0 1.006566000e+00 1.107200000e-02
1396000000.0 1.007782000e+00 3.443300000e-02
1400500000.0 1.004110000e+00 4.993000000e-03
1405000000.0 1.011446000e+00 2.084300000e-02
1409500000.0 1.001157000e+00 1.260300000e-02
1414000000.0 1.010658000e+00 1.113000000e-02
1418500000.0 1.001491000e+00 1.027200000e-02
1423000000.0 1.008292000e+00 1.478300000e-02
1427500000.0 1.003436000e+00 9.833000000e-03
1432000000.0 1.002453000e+00 1.627300000e-02
1436500000.0 1.004205000e+00 5.570000000e-03
1441000000.0 9.994620000e-01 1.744700000e-02
1445500000.0 1.007349000e+00 1.150100000e-02
1450000000.0 1.001482000e+00 1.562800000e-02
