! prueba_sol / sol_abierto / r02
# HZ S RI R 50
50000.0 1.005844000e+00 -7.055800000e-02
59500.0 1.005560000e+00 -5.590600000e-02
69000.0 1.003307000e+00 -4.367000000e-02
78500.0 1.001894000e+00 -2.960700000e-02
88000.0 1.001366000e+00 -1.721200000e-02
97500.0 1.001243000e+00 -4.528000000e-03
107000.0 1.000208000e+00 8.074000000e-03
116500.0 1.000275000e+00 2.008000000e-02
126000.0 9.995840000e-01 3.450700000e-02
135500.0 9.996580000e-01 4.544300000e-02
145000.0 1.001509000e+00 5.678600000e-02
154500.0 1.001710000e+00 6.958600000e-02
164000.0 1.002525000e+00 8.030800000e-02
173500.0 1.002291000e+00 9.333600000e-02
183000.0 1.002160000e+00 1.047010000e-01
192500.0 1.002528000e+00 1.161210000e-01
202000.0 1.003103000e+00 1.282140000e-01
211500.0 1.004360000e+00 1.392560000e-01
221000.0 1.003861000e+00 1.507890000e-01
230500.0 1.004354000e+00 1.619630000e-01
240000.0 1.005008000e+00 1.734400000e-01
249500.0 1.004919000e+00 1.855050000e-01
259000.0 1.005607000e+00 1.961120000e-01
268500.0 1.005417000e+00 2.072030000e-01
278000.0 1.005589000e+00 2.182580000e-01
287500.0 1.005702000e+00 2.284870000e-01
297000.0 1.005662000e+00 2.401120000e-01
306500.0 1.006007000e+00 2.516110000e-01
316000.0 1.006125000e+00 2.619820000e-01
325500.0 1.006434000e+00 2.732140000e-01
335000.0 1.006988000e+00 2.835830000e-01
344500.0 1.007475000e+00 2.948330000e-01
354000.0 1.007167000e+00 3.048740000e-01
363500.0 1.006930000e+00 3.159830000e-01
373000.0 1.007885000e+00 3.259750000e-01
382500.0 1.007582000e+00 3.367090000e-01
392000.0 1.007790000e+00 3.468300000e-01
401500.0 1.008425000e+00 3.577020000e-01
411000.0 1.008192000e+00 3.677340000e-01
420500.0 1.008624000e+00 3.786340000e-01
430000.0 1.009704000e+00 3.889440000e-01
439500.0 1.009111000e+00 3.984480000e-01
449000.0 1.009368000e+00 4.085530000e-01
458500.0 1.010072000e+00 4.196230000e-01
468000.0 1.010145000e+00 4.299620000e-01
477500.0 1.010370000e+00 4.397920000e-01
487000.0 1.010548000e+00 4.489890000e-01
496500.0 1.010915000e+00 4.596640000e-01
506000.0 1.011693000e+00 4.695900000e-01
515500.0 1.012452000e+00 4.788250000e-01
525000.0 1.012167000e+00 4.892410000e-01
534500.0 1.012939000e+00 4.992230000e-01
544000.0 1.013264000e+00 5.093660000e-01
553500.0 1.012697000e+00 5.193580000e-01
563000.0 1.014302000e+00 5.294130000e-01
572500.0 1.013962000e+00 5.386390000e-01
582000.0 1.015446000e+00 5.489360000e-01
591500.0 1.014953000e+00 5.571000000e-01
601000.0 1.015140000e+00 5.678350000e-01
610500.0 1.014746000e+00 5.766930000e-01
620000.0 1.016540000e+00 5.875500000e-01
629500.0 1.017465000e+00 5.963350000e-01
639000.0 1.018097000e+00 6.063590000e-01
648500.0 1.018467000e+00 6.157640000e-01
658000.0 1.018732000e+00 6.256650000e-01
667500.0 1.019799000e+00 6.357220000e-01
677000.0 1.020629000e+00 6.448320000e-01
686500.0 1.022705000e+00 6.536270000e-01
696000.0 1.022610000e+00 6.645310000e-01
705500.0 1.023133000e+00 6.733450000e-01
715000.0 1.024648000e+00 6.818810000e-01
724500.0 1.025911000e+00 6.917750000e-01
734000.0 1.026561000e+00 7.010400000e-01
743500.0 1.027511000e+00 7.103690000e-01
753000.0 1.028156000e+00 7.199800000e-01
762500.0 1.029456000e+00 7.276850000e-01
772000.0 1.029869000e+00 7.380030000e-01
781500.0 1.031999000e+00 7.484160000e-01
791000.0 1.032996000e+00 7.573310000e-01
800500.0 1.034578000e+00 7.657110000e-01
810000.0 1.036263000e+00 7.742600000e-01
819500.0 1.036204000e+00 7.849290000e-01
829000.0 1.038584000e+00 7.938920000e-01
838500.0 1.040563000e+00 8.026590000e-01
848000.0 1.043075000e+00 8.116030000e-01
857500.0 1.044727000e+00 8.220480000e-01
867000.0 1.045801000e+00 8.296700000e-01
876500.0 1.047862000e+00 8.388770000e-01
886000.0 1.048895000e+00 8.475310000e-01
895500.0 1.051460000e+00 8.567400000e-01
905000.0 1.053360000e+00 8.654650000e-01
914500.0 1.056069000e+00 8.746270000e-01
924000.0 1.057067000e+00 8.846950000e-01
933500.0 1.058714000e+00 8.916050000e-01
943000.0 1.062256000e+00 9.018240000e-01
952500.0 1.064600000e+00 9.109550000e-01
962000.0 1.067642000e+00 9.190600000e-01
971500.0 1.069557000e+00 9.278120000e-01
981000.0 1.070444000e+00 9.364040000e-01
990500.0 1.074512000e+00 9.451140000e-01
1000000.0 1.075784000e+00 9.551780000e-01
1090000.0 1.088665000e+00 1.053399000e+00
1180000.0 1.161067000e+00 1.086499000e+00
1270000.0 1.172472000e+00 1.201619000e+00
1360000.0 1.270772000e+00 1.217248000e+00
1450000.0 1.298687000e+00 1.317701000e+00
1540000.0 1.398042000e+00 1.332059000e+00
1630000.0 1.484058000e+00 1.353696000e+00
1720000.0 1.574964000e+00 1.353458000e+00
1810000.0 1.665070000e+00 1.338847000e+00
1900000.0 1.750140000e+00 1.302714000e+00
1990000.0 1.825229000e+00 1.240917000e+00
2080000.0 1.888911000e+00 1.171266000e+00
2170000.0 1.929895000e+00 1.087140000e+00
2260000.0 1.957287000e+00 9.986140000e-01
2350000.0 1.964622000e+00 9.069290000e-01
2440000.0 1.958529000e+00 8.211540000e-01
2530000.0 1.942865000e+00 7.406960000e-01
2620000.0 1.917740000e+00 6.692280000e-01
2710000.0 1.880537000e+00 6.012300000e-01
2800000.0 1.847059000e+00 5.462800000e-01
2890000.0 1.806234000e+00 4.928870000e-01
2980000.0 1.767726000e+00 4.493180000e-01
3070000.0 1.730569000e+00 4.122080000e-01
3160000.0 1.691510000e+00 3.757690000e-01
3250000.0 1.656283000e+00 3.465860000e-01
3340000.0 1.622113000e+00 3.189650000e-01
3430000.0 1.589007000e+00 2.955930000e-01
3520000.0 1.559423000e+00 2.730990000e-01
3610000.0 1.530599000e+00 2.523070000e-01
3700000.0 1.505583000e+00 2.331300000e-01
3790000.0 1.480371000e+00 2.155420000e-01
3880000.0 1.456440000e+00 1.982230000e-01
3970000.0 1.437008000e+00 1.813390000e-01
4060000.0 1.415865000e+00 1.657340000e-01
4150000.0 1.398452000e+00 1.497940000e-01
4240000.0 1.382000000e+00 1.365970000e-01
4330000.0 1.366421000e+00 1.221290000e-01
4420000.0 1.351010000e+00 1.087080000e-01
4510000.0 1.339512000e+00 9.502000000e-02
4600000.0 1.327171000e+00 8.013300000e-02
4690000.0 1.317860000e+00 6.810700000e-02
4780000.0 1.307588000e+00 5.471100000e-02
4870000.0 1.300056000e+00 4.243800000e-02
4960000.0 1.292880000e+00 2.986400000e-02
5050000.0 1.278392000e+00 1.626600000e-02
5140000.0 1.273363000e+00 4.239000000e-03
5230000.0 1.269089000e+00 -7.146000000e-03
5320000.0 1.263109000e+00 -1.899500000e-02
5410000.0 1.259375000e+00 -3.175400000e-02
5500000.0 1.255641000e+00 -4.265000000e-02
5590000.0 1.252290000e+00 -5.490900000e-02
5680000.0 1.247554000e+00 -6.620500000e-02
5770000.0 1.245661000e+00 -7.596700000e-02
5860000.0 1.242260000e+00 -8.776100000e-02
5950000.0 1.239994000e+00 -9.777600000e-02
6040000.0 1.237280000e+00 -1.080260000e-01
6130000.0 1.234783000e+00 -1.181690000e-01
6220000.0 1.232854000e+00 -1.270090000e-01
6310000.0 1.230026000e+00 -1.354530000e-01
6400000.0 1.229023000e+00 -1.442170000e-01
6490000.0 1.226005000e+00 -1.519350000e-01
6580000.0 1.225252000e+00 -1.593480000e-01
6670000.0 1.224318000e+00 -1.651130000e-01
6760000.0 1.222738000e+00 -1.721510000e-01
6850000.0 1.221504000e+00 -1.780420000e-01
6940000.0 1.220249000e+00 -1.819410000e-01
7030000.0 1.219852000e+00 -1.854020000e-01
7120000.0 1.220410000e+00 -1.898060000e-01
7210000.0 1.221099000e+00 -1.917980000e-01
7300000.0 1.219182000e+00 -1.931250000e-01
7390000.0 1.219871000e+00 -1.938900000e-01
7480000.0 1.218958000e+00 -1.935810000e-01
7570000.0 -2.427180000e-01 -1.259028000e+00
7660000.0 -2.425100000e-01 -1.260438000e+00
7750000.0 -2.404900000e-01 -1.259757000e+00
7840000.0 -2.400530000e-01 -1.260327000e+00
7930000.0 -2.395130000e-01 -1.261642000e+00
8020000.0 -2.392070000e-01 -1.260437000e+00
8110000.0 -2.387970000e-01 -1.261279000e+00
8200000.0 -2.381450000e-01 -1.261722000e+00
8290000.0 -2.363810000e-01 -1.262550000e+00
8380000.0 -2.367580000e-01 -1.264045000e+00
8470000.0 -2.350950000e-01 -1.264151000e+00
8560000.0 -2.351670000e-01 -1.263855000e+00
8650000.0 -2.343250000e-01 -1.265445000e+00
8740000.0 -2.334670000e-01 -1.265042000e+00
8830000.0 -2.323790000e-01 -1.266073000e+00
8920000.0 -2.327210000e-01 -1.267122000e+00
9010000.0 -2.330960000e-01 -1.267469000e+00
9100000.0 -2.316200000e-01 -1.267878000e+00
9190000.0 -2.300720000e-01 -1.268580000e+00
9280000.0 -2.295980000e-01 -1.269644000e+00
9370000.0 -2.296480000e-01 -1.270402000e+00
9460000.0 -2.282000000e-01 -1.270903000e+00
9550000.0 -2.267650000e-01 -1.271805000e+00
9640000.0 -2.275760000e-01 -1.273366000e+00
9730000.0 -2.253570000e-01 -1.274460000e+00
9820000.0 -2.264180000e-01 -1.273732000e+00
9910000.0 -2.263310000e-01 -1.275864000e+00
10000000.0 -2.248840000e-01 -1.275905000e+00
10900000.0 -2.187530000e-01 -1.285380000e+00
11800000.0 -2.125510000e-01 -1.294678000e+00
12700000.0 -2.081050000e-01 -1.305342000e+00
13600000.0 -2.015240000e-01 -1.314448000e+00
14500000.0 -1.949210000e-01 -1.325783000e+00
15400000.0 -1.886440000e-01 -1.337141000e+00
16300000.0 -1.820100000e-01 -1.350000000e+00
17200000.0 -1.760960000e-01 -1.361769000e+00
18100000.0 -1.694440000e-01 -1.372228000e+00
19000000.0 -1.607940000e-01 -1.385998000e+00
19900000.0 -1.536410000e-01 -1.396796000e+00
20800000.0 -1.446980000e-01 -1.410303000e+00
21700000.0 -1.369160000e-01 -1.423270000e+00
22600000.0 -1.272940000e-01 -1.436503000e+00
23500000.0 -1.190640000e-01 -1.449542000e+00
24400000.0 -1.077190000e-01 -1.463501000e+00
25300000.0 -9.891500000e-02 -1.476732000e+00
26200000.0 -8.848700000e-02 -1.490483000e+00
27100000.0 -7.525400000e-02 -1.504925000e+00
28000000.0 -6.409700000e-02 -1.518599000e+00
28900000.0 -5.264300000e-02 -1.533006000e+00
29800000.0 -3.970100000e-02 -1.546712000e+00
30700000.0 -2.360300000e-02 -1.561541000e+00
31600000.0 -1.270400000e-02 -1.576448000e+00
32500000.0 3.637000000e-03 -1.591662000e+00
33400000.0 1.942100000e-02 -1.606007000e+00
34300000.0 3.459500000e-02 -1.621109000e+00
35200000.0 5.213200000e-02 -1.635875000e+00
36100000.0 6.892700000e-02 -1.650985000e+00
37000000.0 8.637700000e-02 -1.665577000e+00
37900000.0 1.063440000e-01 -1.678234000e+00
38800000.0 1.242420000e-01 -1.693630000e+00
39700000.0 1.454110000e-01 -1.709338000e+00
40600000.0 1.667480000e-01 -1.723452000e+00
41500000.0 1.884030000e-01 -1.736114000e+00
42400000.0 2.107850000e-01 -1.749499000e+00
43300000.0 2.355930000e-01 -1.763322000e+00
44200000.0 2.599920000e-01 -1.776796000e+00
45100000.0 2.851950000e-01 -1.789044000e+00
46000000.0 3.119780000e-01 -1.800753000e+00
46900000.0 3.386530000e-01 -1.813024000e+00
47800000.0 3.665020000e-01 -1.823572000e+00
48700000.0 3.953300000e-01 -1.833538000e+00
49600000.0 4.271730000e-01 -1.842860000e+00
50500000.0 4.576420000e-01 -1.852570000e+00
51400000.0 4.879670000e-01 -1.858948000e+00
52300000.0 5.209800000e-01 -1.866538000e+00
53200000.0 5.536250000e-01 -1.873634000e+00
54100000.0 5.887730000e-01 -1.876853000e+00
55000000.0 6.255220000e-01 -1.881974000e+00
55900000.0 6.602990000e-01 -1.884915000e+00
56800000.0 6.969790000e-01 -1.885028000e+00
57700000.0 7.334120000e-01 -1.885507000e+00
58600000.0 7.718830000e-01 -1.885476000e+00
59500000.0 8.102720000e-01 -1.880958000e+00
60400000.0 8.484170000e-01 -1.877791000e+00
61300000.0 8.882690000e-01 -1.871399000e+00
62200000.0 9.279470000e-01 -1.863301000e+00
63100000.0 9.677000000e-01 -1.851990000e+00
64000000.0 1.005765000e+00 -1.842333000e+00
64900000.0 1.045915000e+00 -1.826599000e+00
65800000.0 1.082943000e+00 -1.811744000e+00
66700000.0 1.123782000e+00 -1.798082000e+00
67600000.0 1.161702000e+00 -1.777166000e+00
68500000.0 1.196279000e+00 -1.755968000e+00
69400000.0 1.231906000e+00 -1.734414000e+00
70300000.0 1.269707000e+00 -1.710188000e+00
71200000.0 1.300779000e+00 -1.684956000e+00
72100000.0 1.334630000e+00 -1.657990000e+00
73000000.0 1.365744000e+00 -1.627896000e+00
73900000.0 1.397908000e+00 -1.600133000e+00
74800000.0 1.426632000e+00 -1.566936000e+00
75700000.0 1.455875000e+00 -1.534914000e+00
76600000.0 1.480804000e+00 -1.501167000e+00
77500000.0 1.505620000e+00 -1.465523000e+00
78400000.0 1.528820000e+00 -1.431191000e+00
79300000.0 1.547700000e+00 -1.397754000e+00
80200000.0 1.564558000e+00 -1.359829000e+00
81100000.0 1.584456000e+00 -1.321557000e+00
82000000.0 1.599109000e+00 -1.285100000e+00
82900000.0 1.612856000e+00 -1.249074000e+00
83800000.0 1.624144000e+00 -1.211622000e+00
84700000.0 1.634821000e+00 -1.174359000e+00
85600000.0 1.644504000e+00 -1.135691000e+00
86500000.0 1.650332000e+00 -1.099038000e+00
87400000.0 1.657288000e+00 -1.062523000e+00
88300000.0 1.660739000e+00 -1.027071000e+00
89200000.0 1.662565000e+00 -9.905810000e-01
90100000.0 1.665935000e+00 -9.547670000e-01
91000000.0 1.663072000e+00 -9.209420000e-01
91900000.0 1.660134000e+00 -8.893610000e-01
92800000.0 1.659581000e+00 -8.560180000e-01
93700000.0 1.657229000e+00 -8.229770000e-01
94600000.0 1.651976000e+00 -7.933600000e-01
95500000.0 1.648628000e+00 -7.608050000e-01
96400000.0 1.640694000e+00 -7.318980000e-01
97300000.0 1.633056000e+00 -7.014650000e-01
98200000.0 1.625567000e+00 -6.736140000e-01
99100000.0 1.618262000e+00 -6.466410000e-01
100000000.0 1.608622000e+00 -6.211180000e-01
109000000.0 1.501887000e+00 -3.994780000e-01
118000000.0 1.377114000e+00 -2.428600000e-01
127000000.0 1.256477000e+00 -1.372160000e-01
136000000.0 1.148290000e+00 -6.972000000e-02
145000000.0 1.049450000e+00 -2.042500000e-02
154000000.0 1.000555000e+00 1.083000000e-03
163000000.0 1.001459000e+00 -1.448000000e-03
172000000.0 1.002311000e+00 -3.800000000e-04
181000000.0 1.004122000e+00 -9.890000000e-04
190000000.0 1.004981000e+00 -2.541000000e-03
199000000.0 1.005034000e+00 -1.728000000e-03
208000000.0 1.006009000e+00 -1.588000000e-03
217000000.0 1.005724000e+00 -1.590000000e-03
226000000.0 1.005886000e+00 -1.160000000e-03
235000000.0 1.005443000e+00 -1.925000000e-03
244000000.0 1.006416000e+00 -1.500000000e-03
253000000.0 1.005803000e+00 -2.177000000e-03
262000000.0 1.005996000e+00 -2.013000000e-03
271000000.0 1.004205000e+00 -2.623000000e-03
280000000.0 1.003690000e+00 1.920000000e-04
289000000.0 1.003138000e+00 4.780000000e-04
298000000.0 1.001302000e+00 -8.000000000e-04
307000000.0 1.003213000e+00 -2.007000000e-03
316000000.0 1.003949000e+00 -1.629000000e-03
325000000.0 1.004753000e+00 -7.260000000e-04
334000000.0 1.004742000e+00 6.270000000e-04
343000000.0 1.007515000e+00 6.310000000e-04
352000000.0 1.013170000e+00 3.597200000e-02
361000000.0 1.006048000e+00 6.090000000e-04
370000000.0 1.014233000e+00 3.670800000e-02
379000000.0 1.006459000e+00 1.967000000e-03
388000000.0 1.013392000e+00 3.830200000e-02
397000000.0 1.005143000e+00 1.231000000e-03
406000000.0 1.004463000e+00 1.542000000e-03
415000000.0 1.005998000e+00 6.880000000e-04
424000000.0 1.002894000e+00 -1.170000000e-04
433000000.0 1.001697000e+00 2.027000000e-03
442000000.0 1.000545000e+00 1.941000000e-03
451000000.0 1.001133000e+00 2.858000000e-03
460000000.0 1.000835000e+00 6.100000000e-04
469000000.0 1.004104000e+00 2.256000000e-03
478000000.0 1.004263000e+00 3.172000000e-03
487000000.0 1.004668000e+00 2.791000000e-03
496000000.0 1.006382000e+00 4.470000000e-03
505000000.0 1.007396000e+00 6.438000000e-03
514000000.0 1.007763000e+00 6.601000000e-03
523000000.0 1.007514000e+00 5.882000000e-03
532000000.0 1.007326000e+00 9.567000000e-03
541000000.0 1.009000000e+00 8.434000000e-03
550000000.0 1.009414000e+00 9.378000000e-03
559000000.0 1.008387000e+00 5.908000000e-03
568000000.0 1.006495000e+00 1.017200000e-02
577000000.0 1.005627000e+00 8.922000000e-03
586000000.0 1.003404000e+00 6.596000000e-03
595000000.0 1.006687000e+00 7.809000000e-03
604000000.0 1.003070000e+00 7.547000000e-03
613000000.0 1.008624000e+00 8.129000000e-03
622000000.0 1.011566000e+00 8.592000000e-03
631000000.0 1.011038000e+00 5.816000000e-03
640000000.0 1.015213000e+00 9.787000000e-03
649000000.0 1.012873000e+00 7.913000000e-03
658000000.0 1.016141000e+00 1.086000000e-02
667000000.0 1.017225000e+00 1.030000000e-02
676000000.0 1.016086000e+00 6.064000000e-03
685000000.0 1.015511000e+00 1.026800000e-02
694000000.0 1.016701000e+00 1.137200000e-02
703000000.0 1.120945000e+00 8.799400000e-02
712000000.0 1.011173000e+00 6.740000000e-03
721000000.0 1.011115000e+00 4.706000000e-03
730000000.0 1.008375000e+00 3.883000000e-03
739000000.0 1.006568000e+00 1.282000000e-03
748000000.0 1.003444000e+00 -1.220000000e-04
757000000.0 1.002422000e+00 2.417000000e-03
766000000.0 1.005711000e+00 -1.631000000e-03
775000000.0 1.011261000e+00 -8.180000000e-04
784000000.0 1.012710000e+00 -1.498000000e-03
793000000.0 1.016257000e+00 -6.438000000e-03
802000000.0 1.015111000e+00 -1.307000000e-03
811000000.0 1.014649000e+00 -5.267000000e-03
820000000.0 1.015790000e+00 -6.834000000e-03
829000000.0 1.016607000e+00 -3.745000000e-03
838000000.0 1.015946000e+00 -4.631000000e-03
847000000.0 1.017048000e+00 -5.150000000e-03
856000000.0 1.014567000e+00 -1.293000000e-03
865000000.0 1.011825000e+00 -6.460000000e-03
874000000.0 1.011618000e+00 -7.718000000e-03
883000000.0 1.007849000e+00 -8.958000000e-03
892000000.0 1.005044000e+00 -5.304000000e-03
901000000.0 1.003858000e+00 3.354000000e-03
910000000.0 9.992220000e-01 1.648000000e-03
919000000.0 1.002298000e+00 -3.960000000e-03
928000000.0 1.003398000e+00 -7.813000000e-03
937000000.0 1.003559000e+00 -6.203000000e-03
946000000.0 1.004904000e+00 -8.597000000e-03
955000000.0 1.004525000e+00 -8.457000000e-03
964000000.0 1.004318000e+00 -7.769000000e-03
973000000.0 1.004047000e+00 -8.063000000e-03
982000000.0 1.003878000e+00 -9.142000000e-03
991000000.0 1.006001000e+00 -9.525000000e-03
1000000000.0 1.004880000e+00 -3.625000000e-03
1004500000.0 1.004384000e+00 -6.802000000e-03
1009000000.0 1.005764000e+00 -1.150400000e-02
1013500000.0 1.004948000e+00 -9.880000000e-03
1018000000.0 1.003349000e+00 -2.558000000e-03
1022500000.0 1.004750000e+00 -3.964000000e-03
1027000000.0 1.003374000e+00 2.000000000e-06
1031500000.0 1.002246000e+00 -6.464000000e-03
1036000000.0 1.001687000e+00 -5.525000000e-03
1040500000.0 1.001222000e+00 2.632000000e-03
1045000000.0 1.004432000e+00 -2.312000000e-03
1049500000.0 1.000027000e+00 -1.876000000e-03
1054000000.0 9.999980000e-01 9.250000000e-04
1058500000.0 1.002128000e+00 4.610000000e-04
1063000000.0 1.000097000e+00 2.731000000e-03
1067500000.0 1.002813000e+00 -5.683000000e-03
1072000000.0 9.985350000e-01 2.903000000e-03
1076500000.0 1.001404000e+00 -3.631000000e-03
1081000000.0 1.004494000e+00 -2.000000000e-05
1085500000.0 1.002826000e+00 -2.322000000e-03
1090000000.0 1.002392000e+00 1.129000000e-03
1094500000.0 1.002426000e+00 1.330000000e-04
1099000000.0 1.005164000e+00 -8.572000000e-03
1103500000.0 1.004900000e+00 3.470000000e-04
1108000000.0 1.006963000e+00 -5.990000000e-04
1112500000.0 1.004424000e+00 -4.691000000e-03
1117000000.0 1.001247000e+00 -4.852000000e-03
1121500000.0 1.015017000e+00 3.640800000e-02
1126000000.0 1.003924000e+00 -8.539000000e-03
1130500000.0 1.002192000e+00 -3.924000000e-02
1135000000.0 1.005159000e+00 -8.035000000e-03
1139500000.0 1.014017000e+00 3.303500000e-02
1144000000.0 1.001019000e+00 -9.996000000e-03
1148500000.0 1.014819000e+00 4.350700000e-02
1153000000.0 1.006296000e+00 3.384500000e-02
1157500000.0 1.005364000e+00 -4.377000000e-03
1162000000.0 1.007746000e+00 -3.967000000e-03
1166500000.0 1.005849000e+00 -6.829000000e-03
1171000000.0 1.004331000e+00 -4.604000000e-03
1175500000.0 1.002130000e+00 -7.982000000e-03
1180000000.0 1.005645000e+00 -7.062000000e-03
1184500000.0 1.003135000e+00 -1.143000000e-03
1189000000.0 1.004467000e+00 -8.142000000e-03
1193500000.0 1.007662000e+00 7.410000000e-03
1198000000.0 1.000663000e+00 -2.013000000e-03
1202500000.0 9.993750000e-01 4.200000000e-04
1207000000.0 1.001606000e+00 2.030000000e-04
1211500000.0 1.002159000e+00 -6.019000000e-03
1216000000.0 1.004586000e+00 -6.760000000e-03
1220500000.0 9.996070000e-01 -7.233000000e-03
1225000000.0 1.004277000e+00 -7.269000000e-03
1229500000.0 1.001854000e+00 -9.444000000e-03
1234000000.0 1.006256000e+00 -3.678000000e-03
1238500000.0 1.000727000e+00 -2.346500000e-02
1243000000.0 1.009176000e+00 -4.801000000e-03
1247500000.0 1.001673000e+00 -2.223000000e-03
1252000000.0 1.003886000e+00 -4.584000000e-03
1256500000.0 1.003427000e+00 -2.047100000e-02
1261000000.0 1.005647000e+00 3.601000000e-03
1265500000.0 9.989720000e-01 1.250100000e-02
1270000000.0 1.001314000e+00 -4.108000000e-03
1274500000.0 1.008196000e+00 -2.443900000e-02
1279000000.0 1.005371000e+00 -4.827000000e-03
1283500000.0 1.006465000e+00 3.998400000e-02
1288000000.0 1.006644000e+00 -3.942000000e-03
1292500000.0 1.005642000e+00 -8.206000000e-03
1297000000.0 1.002305000e+00 -2.417000000e-03
1301500000.0 1.003202000e+00 5.368000000e-03
1306000000.0 1.007100000e+00 -2.277000000e-03
1310500000.0 1.004845000e+00 -2.375000000e-03
1315000000.0 9.985780000e-01 -4.412000000e-03
1319500000.0 1.003747000e+00 -4.255000000e-03
1324000000.0 1.002831000e+00 4.289000000e-03
1328500000.0 1.004489000e+00 -3.903000000e-03
1333000000.0 1.005743000e+00 2.975000000e-03
1337500000.0 1.000926000e+00 -4.629000000e-03
1342000000.0 1.008856000e+00 9.937000000e-03
1346500000.0 1.000819000e+00 -2.830000000e-03
1351000000.0 1.007394000e+00 1.497000000e-03
1355500000.0 1.007557000e+00 4.886000000e-03
1360000000.0 1.002191000e+00 3.508000000e-03
1364500000.0 1.000316000e+00 3.380000000e-03
1369000000.0 1.007491000e+00 8.365000000e-03
1373500000.0 1.002129000e+00 1.132600000e-02
1378000000.0 1.003690000e+00 4.285000000e-03
1382500000.0 1.001177000e+00 9.800000000e-03
1387000000.0 1.009432000e+00 8.314000000e-03
1391500000.0 1.004082000e+00 1.100400000e-02
1396000000.0 1.007546000e+00 1.580000000e-02
1400500000.0 1.004201000e+00 4.150000000e-03
1405000000.0 1.003594000e+00 2.538300000e-02
1409500000.0 1.008213000e+00 1.417200000e-02
1414000000.0 1.002286000e+00 1.322700000e-02
1418500000.0 9.957850000e-01 8.644000000e-03
1423000000.0 1.009235000e+00 6.858000000e-03
1427500000.0 1.007583000e+00 2.035000000e-03
1432000000.0 1.002929000e+00 1.659700000e-02
1436500000.0 1.001352000e+00 1.584200000e-02
1441000000.0 1.000309000e+00 1.641000000e-02
1445500000.0 1.001390000e+00 1.772000000e-02
1450000000.0 1.001897000e+00 1.526200000e-02
