! prueba_sol / sol_carga / r03
# HZ S RI R 50
50000.0 -2.673000000e-03 -2.596400000e-02
59500.0 -2.026000000e-03 -1.802400000e-02
69000.0 -2.934000000e-03 -1.316400000e-02
78500.0 -1.614000000e-03 -7.182000000e-03
88000.0 -1.322000000e-03 -3.464000000e-03
97500.0 -1.301000000e-03 -1.369000000e-03
107000.0 5.130000000e-04 1.791000000e-03
116500.0 -1.260000000e-04 3.748000000e-03
126000.0 1.237000000e-03 4.495000000e-03
135500.0 5.790000000e-04 6.804000000e-03
145000.0 1.160000000e-04 7.442000000e-03
154500.0 3.440000000e-04 9.035000000e-03
164000.0 8.180000000e-04 1.071000000e-02
173500.0 1.891000000e-03 1.110800000e-02
183000.0 1.746000000e-03 1.280100000e-02
192500.0 1.766000000e-03 1.257200000e-02
202000.0 1.934000000e-03 1.369100000e-02
211500.0 1.736000000e-03 1.401600000e-02
221000.0 2.196000000e-03 1.470700000e-02
230500.0 1.366000000e-03 1.543600000e-02
240000.0 2.132000000e-03 1.608700000e-02
249500.0 -1.127870000e-01 -6.491300000e-02
259000.0 2.895000000e-03 1.731100000e-02
268500.0 2.359000000e-03 1.699500000e-02
278000.0 3.006000000e-03 1.798200000e-02
287500.0 3.564000000e-03 1.676100000e-02
297000.0 2.869000000e-03 1.813500000e-02
306500.0 2.926000000e-03 1.941300000e-02
316000.0 3.563000000e-03 1.859600000e-02
325500.0 3.143000000e-03 1.896300000e-02
335000.0 2.819000000e-03 1.915100000e-02
344500.0 3.517000000e-03 2.005100000e-02
354000.0 3.431000000e-03 2.030300000e-02
363500.0 4.148000000e-03 2.066700000e-02
373000.0 4.582000000e-03 2.010900000e-02
382500.0 3.737000000e-03 2.050200000e-02
392000.0 4.398000000e-03 2.118300000e-02
401500.0 4.169000000e-03 2.134800000e-02
411000.0 4.547000000e-03 2.120300000e-02
420500.0 4.024000000e-03 2.135500000e-02
430000.0 4.364000000e-03 2.203800000e-02
439500.0 4.558000000e-03 2.178900000e-02
449000.0 3.945000000e-03 2.204400000e-02
458500.0 4.123000000e-03 2.307900000e-02
468000.0 4.942000000e-03 2.227300000e-02
477500.0 3.948000000e-03 2.289200000e-02
487000.0 4.280000000e-03 2.229100000e-02
496500.0 4.973000000e-03 2.284600000e-02
506000.0 4.689000000e-03 2.252200000e-02
515500.0 4.717000000e-03 2.330400000e-02
525000.0 4.725000000e-03 2.303200000e-02
534500.0 1.576800000e-02 3.911500000e-02
544000.0 5.445000000e-03 2.465900000e-02
553500.0 4.384000000e-03 2.363200000e-02
563000.0 5.171000000e-03 2.423200000e-02
572500.0 4.458000000e-03 2.449900000e-02
582000.0 5.523000000e-03 2.397000000e-02
591500.0 5.687000000e-03 2.423800000e-02
601000.0 5.209000000e-03 2.482600000e-02
610500.0 5.795000000e-03 2.494800000e-02
620000.0 6.179000000e-03 2.524300000e-02
629500.0 6.179000000e-03 2.486800000e-02
639000.0 5.755000000e-03 2.501800000e-02
648500.0 6.311000000e-03 2.495600000e-02
658000.0 7.135000000e-03 2.501700000e-02
667500.0 6.309000000e-03 2.492300000e-02
677000.0 6.484000000e-03 2.545400000e-02
686500.0 6.004000000e-03 2.479200000e-02
696000.0 5.666000000e-03 2.495000000e-02
705500.0 6.115000000e-03 2.632200000e-02
715000.0 6.506000000e-03 2.625400000e-02
724500.0 6.461000000e-03 2.603700000e-02
734000.0 6.617000000e-03 2.593300000e-02
743500.0 6.403000000e-03 2.619800000e-02
753000.0 7.299000000e-03 2.656600000e-02
762500.0 6.185000000e-03 2.688900000e-02
772000.0 7.292000000e-03 2.637200000e-02
781500.0 7.448000000e-03 2.671000000e-02
791000.0 7.176000000e-03 2.708800000e-02
800500.0 6.376000000e-03 2.724200000e-02
810000.0 7.382000000e-03 2.722800000e-02
819500.0 9.048000000e-03 2.586500000e-02
829000.0 8.593000000e-03 2.682800000e-02
838500.0 8.671000000e-03 2.585000000e-02
848000.0 7.016000000e-03 2.602400000e-02
857500.0 8.596000000e-03 2.651800000e-02
867000.0 8.105000000e-03 2.737700000e-02
876500.0 9.080000000e-03 2.637300000e-02
886000.0 7.633000000e-03 2.788100000e-02
895500.0 8.481000000e-03 2.706800000e-02
905000.0 8.954000000e-03 2.704800000e-02
914500.0 8.665000000e-03 2.828400000e-02
924000.0 9.218000000e-03 2.709500000e-02
933500.0 9.514000000e-03 2.744400000e-02
943000.0 8.372000000e-03 2.880900000e-02
952500.0 9.062000000e-03 2.761600000e-02
962000.0 9.490000000e-03 2.831300000e-02
971500.0 9.282000000e-03 2.871900000e-02
981000.0 9.508000000e-03 2.692000000e-02
990500.0 1.018200000e-02 2.758100000e-02
1000000.0 9.948000000e-03 2.797000000e-02
1090000.0 1.113000000e-02 2.882200000e-02
1180000.0 1.103900000e-02 2.736600000e-02
1270000.0 1.438400000e-02 2.671800000e-02
1360000.0 1.380800000e-02 2.601400000e-02
1450000.0 1.648200000e-02 2.894800000e-02
1540000.0 1.498600000e-02 2.612800000e-02
1630000.0 1.658700000e-02 2.624300000e-02
1720000.0 2.065800000e-02 2.212700000e-02
1810000.0 1.913800000e-02 2.066600000e-02
1900000.0 1.831700000e-02 1.943100000e-02
1990000.0 1.812700000e-02 1.693300000e-02
2080000.0 1.821000000e-02 1.540200000e-02
2170000.0 1.619800000e-02 1.227500000e-02
2260000.0 1.739100000e-02 1.415800000e-02
2350000.0 1.453900000e-02 1.403600000e-02
2440000.0 1.434600000e-02 8.886000000e-03
2530000.0 1.165400000e-02 9.345000000e-03
2620000.0 1.176500000e-02 9.378000000e-03
2710000.0 9.191000000e-03 9.268000000e-03
2800000.0 8.309000000e-03 9.609000000e-03
2890000.0 6.444000000e-03 9.545000000e-03
2980000.0 5.954000000e-03 8.485000000e-03
3070000.0 4.594000000e-03 7.177000000e-03
3160000.0 4.942000000e-03 8.513000000e-03
3250000.0 3.961000000e-03 7.837000000e-03
3340000.0 2.892000000e-03 8.836000000e-03
3430000.0 2.057000000e-03 9.370000000e-03
3520000.0 1.261000000e-03 1.051000000e-02
3610000.0 1.841000000e-03 9.194000000e-03
3700000.0 1.035000000e-03 9.435000000e-03
3790000.0 3.160000000e-04 7.986000000e-03
3880000.0 1.840000000e-04 9.679000000e-03
3970000.0 2.620000000e-04 9.379000000e-03
4060000.0 -3.230000000e-04 8.815000000e-03
4150000.0 -2.120000000e-04 9.506000000e-03
4240000.0 -7.870000000e-04 1.049400000e-02
4330000.0 -1.647000000e-03 9.691000000e-03
4420000.0 -7.250000000e-04 9.744000000e-03
4510000.0 -1.454000000e-03 9.614000000e-03
4600000.0 -1.307000000e-03 9.706000000e-03
4690000.0 -1.944000000e-03 9.220000000e-03
4780000.0 -1.704000000e-03 8.973000000e-03
4870000.0 -1.475000000e-03 9.034000000e-03
4960000.0 -2.109000000e-03 9.368000000e-03
5050000.0 -2.217000000e-03 9.547000000e-03
5140000.0 -3.123000000e-03 1.042200000e-02
5230000.0 -1.811000000e-03 9.660000000e-03
5320000.0 -2.305000000e-03 1.009300000e-02
5410000.0 -2.607000000e-03 8.461000000e-03
5500000.0 -2.429000000e-03 1.010800000e-02
5590000.0 -2.755000000e-03 8.799000000e-03
5680000.0 -2.965000000e-03 8.424000000e-03
5770000.0 -3.021000000e-03 1.017700000e-02
5860000.0 -2.573000000e-03 8.484000000e-03
5950000.0 -2.878000000e-03 9.064000000e-03
6040000.0 -3.020000000e-03 1.011700000e-02
6130000.0 -3.300000000e-03 9.377000000e-03
6220000.0 -3.277000000e-03 9.227000000e-03
6310000.0 -3.684000000e-03 8.873000000e-03
6400000.0 -3.170000000e-03 8.414000000e-03
6490000.0 -3.709000000e-03 8.850000000e-03
6580000.0 -2.525000000e-03 9.159000000e-03
6670000.0 -3.638000000e-03 9.185000000e-03
6760000.0 -3.315000000e-03 8.459000000e-03
6850000.0 -3.175000000e-03 7.736000000e-03
6940000.0 -3.321000000e-03 8.579000000e-03
7030000.0 -3.779000000e-03 8.718000000e-03
7120000.0 -3.779000000e-03 8.689000000e-03
7210000.0 -3.667000000e-03 7.806000000e-03
7300000.0 -2.926000000e-03 8.268000000e-03
7390000.0 -3.487000000e-03 8.260000000e-03
7480000.0 -3.593000000e-03 8.902000000e-03
7570000.0 -1.861400000e-02 1.080000000e-03
7660000.0 -1.901000000e-02 5.840000000e-04
7750000.0 -1.928500000e-02 1.753000000e-03
7840000.0 -1.826600000e-02 1.102000000e-03
7930000.0 -1.826800000e-02 3.750000000e-04
8020000.0 -1.815400000e-02 1.369000000e-03
8110000.0 -1.901200000e-02 1.392000000e-03
8200000.0 -1.798500000e-02 8.490000000e-04
8290000.0 -1.894400000e-02 1.200000000e-03
8380000.0 -1.837300000e-02 6.250000000e-04
8470000.0 -1.857300000e-02 1.143000000e-03
8560000.0 -1.909000000e-02 5.110000000e-04
8650000.0 -1.890700000e-02 1.335000000e-03
8740000.0 -1.841000000e-02 5.230000000e-04
8830000.0 -1.861700000e-02 7.290000000e-04
8920000.0 -1.954400000e-02 1.114000000e-03
9010000.0 -1.856800000e-02 3.840000000e-04
9100000.0 -1.865600000e-02 6.810000000e-04
9190000.0 -1.868600000e-02 9.300000000e-04
9280000.0 -1.872600000e-02 6.070000000e-04
9370000.0 -1.853100000e-02 6.150000000e-04
9460000.0 -1.869800000e-02 9.620000000e-04
9550000.0 -1.839000000e-02 -1.920000000e-04
9640000.0 -1.837100000e-02 -5.000000000e-04
9730000.0 -1.763800000e-02 4.640000000e-04
9820000.0 -1.767000000e-02 4.610000000e-04
9910000.0 -1.916700000e-02 7.000000000e-04
10000000.0 -1.807800000e-02 8.660000000e-04
10900000.0 -1.852200000e-02 8.940000000e-04
11800000.0 -1.859100000e-02 7.330000000e-04
12700000.0 -1.804300000e-02 4.060000000e-04
13600000.0 -1.851700000e-02 1.580000000e-04
14500000.0 -1.829700000e-02 5.100000000e-04
15400000.0 -1.848600000e-02 2.280000000e-04
16300000.0 -1.833000000e-02 -5.530000000e-04
17200000.0 -1.790000000e-02 -7.780000000e-04
18100000.0 -1.810200000e-02 -7.670000000e-04
19000000.0 -1.943600000e-02 -2.480000000e-04
19900000.0 -1.854200000e-02 -5.070000000e-04
20800000.0 -1.857100000e-02 -8.850000000e-04
21700000.0 -1.903900000e-02 -1.115000000e-03
22600000.0 -1.970700000e-02 -1.533000000e-03
23500000.0 -1.844000000e-02 -1.266000000e-03
24400000.0 -1.836700000e-02 -1.275000000e-03
25300000.0 -1.849000000e-02 -1.788000000e-03
26200000.0 -1.819500000e-02 -1.585000000e-03
27100000.0 -1.811000000e-02 -2.371000000e-03
28000000.0 -1.890200000e-02 -2.466000000e-03
28900000.0 -1.800300000e-02 1.000200000e-02
29800000.0 -1.792000000e-02 -2.465000000e-03
30700000.0 -1.876600000e-02 -2.257000000e-03
31600000.0 -1.727800000e-02 -3.457000000e-03
32500000.0 -1.840100000e-02 -2.985000000e-03
33400000.0 -1.735400000e-02 -3.735000000e-03
34300000.0 -1.849800000e-02 -2.990000000e-03
35200000.0 -1.966100000e-02 -3.665000000e-03
36100000.0 -1.799900000e-02 -4.224000000e-03
37000000.0 -1.759500000e-02 -5.484000000e-03
37900000.0 -1.825100000e-02 -5.223000000e-03
38800000.0 -1.865700000e-02 -4.802000000e-03
39700000.0 -1.889300000e-02 -4.241000000e-03
40600000.0 -1.788800000e-02 -4.764000000e-03
41500000.0 -1.833500000e-02 -5.394000000e-03
42400000.0 -1.897600000e-02 -6.047000000e-03
43300000.0 -1.850000000e-02 -5.104000000e-03
44200000.0 -1.753400000e-02 -5.646000000e-03
45100000.0 -1.796500000e-02 -6.422000000e-03
46000000.0 -1.740100000e-02 -6.388000000e-03
46900000.0 -1.792700000e-02 -6.045000000e-03
47800000.0 -1.667300000e-02 -7.522000000e-03
48700000.0 -1.608200000e-02 -7.025000000e-03
49600000.0 -1.669400000e-02 -6.688000000e-03
50500000.0 -1.755800000e-02 -6.963000000e-03
51400000.0 -1.664800000e-02 -7.867000000e-03
52300000.0 -1.545500000e-02 -8.711000000e-03
53200000.0 -1.747500000e-02 -9.424000000e-03
54100000.0 -1.605600000e-02 -8.127000000e-03
55000000.0 -1.627700000e-02 -9.697000000e-03
55900000.0 -1.664100000e-02 -8.850000000e-03
56800000.0 -1.611000000e-02 -9.022000000e-03
57700000.0 -1.623000000e-02 -8.805000000e-03
58600000.0 -1.483800000e-02 -9.690000000e-03
59500000.0 -1.425100000e-02 -1.068300000e-02
60400000.0 -1.344700000e-02 -1.034100000e-02
61300000.0 -1.521600000e-02 -1.144000000e-02
62200000.0 -1.459000000e-02 -1.023500000e-02
63100000.0 -1.411500000e-02 -1.138400000e-02
64000000.0 -1.415300000e-02 -1.100000000e-02
64900000.0 -1.519800000e-02 -1.149600000e-02
65800000.0 -1.307100000e-02 -1.120100000e-02
66700000.0 -1.244600000e-02 -1.160200000e-02
67600000.0 -1.203600000e-02 -1.192000000e-02
68500000.0 -1.291100000e-02 -1.146100000e-02
69400000.0 -1.176300000e-02 -1.054900000e-02
70300000.0 -1.176700000e-02 -1.243300000e-02
71200000.0 -1.054100000e-02 -1.144000000e-02
72100000.0 -1.217200000e-02 -1.235900000e-02
73000000.0 -1.006800000e-02 -1.171600000e-02
73900000.0 -1.003400000e-02 -1.081600000e-02
74800000.0 -1.003700000e-02 -1.196800000e-02
75700000.0 -8.705000000e-03 -1.262600000e-02
76600000.0 -1.106700000e-02 -1.238300000e-02
77500000.0 -7.244000000e-03 -1.119800000e-02
78400000.0 -9.131000000e-03 -1.172500000e-02
79300000.0 -8.713000000e-03 -1.217100000e-02
80200000.0 -8.630000000e-03 -1.276500000e-02
81100000.0 -7.055000000e-03 -1.242600000e-02
82000000.0 -7.987000000e-03 -1.152200000e-02
82900000.0 -6.540000000e-03 -1.130400000e-02
83800000.0 -6.545000000e-03 -9.919000000e-03
84700000.0 -6.643000000e-03 -9.805000000e-03
85600000.0 -5.194000000e-03 -1.207600000e-02
86500000.0 -6.787000000e-03 -1.014400000e-02
87400000.0 -5.931000000e-03 -1.097500000e-02
88300000.0 -4.814000000e-03 -1.129100000e-02
89200000.0 -5.173000000e-03 -1.051700000e-02
90100000.0 -5.891000000e-03 -1.063600000e-02
91000000.0 -3.955000000e-03 -9.436000000e-03
91900000.0 -5.972000000e-03 -9.328000000e-03
92800000.0 -3.174000000e-03 -7.281000000e-03
93700000.0 -3.013000000e-03 -9.823000000e-03
94600000.0 -3.040000000e-03 -8.840000000e-03
95500000.0 -2.837000000e-03 -9.705000000e-03
96400000.0 -2.724000000e-03 -8.576000000e-03
97300000.0 -2.615000000e-03 -9.761000000e-03
98200000.0 -1.533000000e-03 -8.150000000e-03
99100000.0 -1.787000000e-03 -9.791000000e-03
100000000.0 -1.278000000e-03 -8.051000000e-03
109000000.0 -9.920000000e-04 -4.959000000e-03
118000000.0 6.570000000e-04 -3.778000000e-03
127000000.0 8.710000000e-04 -2.641000000e-03
136000000.0 3.190000000e-04 -1.622000000e-03
145000000.0 -1.020000000e-03 -3.940000000e-04
154000000.0 -6.010000000e-04 -1.790000000e-04
163000000.0 -4.020000000e-04 8.700000000e-05
172000000.0 -7.860000000e-04 1.110000000e-04
181000000.0 -4.470000000e-04 3.100000000e-05
190000000.0 -4.850000000e-04 3.680000000e-04
199000000.0 -2.050000000e-04 -7.600000000e-05
208000000.0 -6.270000000e-04 1.100000000e-04
217000000.0 -3.680000000e-04 3.570000000e-04
226000000.0 -1.630000000e-04 3.510000000e-04
235000000.0 -6.690000000e-04 4.150000000e-04
244000000.0 -6.520000000e-04 1.940000000e-04
253000000.0 -6.250000000e-04 2.780000000e-04
262000000.0 -6.340000000e-04 2.030000000e-04
271000000.0 -4.180000000e-04 1.860000000e-04
280000000.0 -6.480000000e-04 1.230000000e-04
289000000.0 -1.015000000e-03 4.010000000e-04
298000000.0 -1.131000000e-03 5.020000000e-04
307000000.0 -5.440000000e-04 3.830000000e-04
316000000.0 -6.590000000e-04 5.360000000e-04
325000000.0 -1.530000000e-04 4.580000000e-04
334000000.0 -6.450000000e-04 5.200000000e-05
343000000.0 -1.703000000e-03 -4.490000000e-04
352000000.0 -4.080000000e-04 5.750000000e-04
361000000.0 -8.420000000e-04 5.300000000e-04
370000000.0 -1.065000000e-03 1.500000000e-05
379000000.0 -1.210000000e-03 -2.470000000e-04
388000000.0 -6.420000000e-04 1.115000000e-03
397000000.0 -2.900000000e-04 7.710000000e-04
406000000.0 -8.510000000e-04 -2.000000000e-05
415000000.0 -1.076000000e-03 1.042000000e-03
424000000.0 -5.450000000e-04 9.300000000e-05
433000000.0 -1.649000000e-03 6.640000000e-04
442000000.0 -8.200000000e-04 -7.000000000e-05
451000000.0 -1.172000000e-03 8.220000000e-04
460000000.0 -1.331000000e-03 6.140000000e-04
469000000.0 -1.373000000e-03 5.070000000e-04
478000000.0 -3.260000000e-04 4.640000000e-04
487000000.0 -1.177000000e-03 5.740000000e-04
496000000.0 -1.304000000e-03 9.000000000e-06
505000000.0 -7.920000000e-04 4.350000000e-04
514000000.0 -1.339000000e-03 2.210000000e-04
523000000.0 -1.010000000e-03 2.400000000e-04
532000000.0 -1.035000000e-03 -4.890000000e-04
541000000.0 -9.500000000e-04 -1.200000000e-04
550000000.0 -1.041000000e-03 3.200000000e-04
559000000.0 -1.484000000e-03 -3.240000000e-04
568000000.0 -6.760000000e-04 -1.177000000e-03
577000000.0 -1.682000000e-03 -2.660000000e-04
586000000.0 -8.280000000e-04 -1.120000000e-04
595000000.0 -1.638000000e-03 -4.330000000e-04
604000000.0 -1.341000000e-03 -7.190000000e-04
613000000.0 -8.000000000e-04 3.000000000e-06
622000000.0 -1.574000000e-03 -8.620000000e-04
631000000.0 -1.072000000e-03 -2.450000000e-04
640000000.0 -1.177000000e-03 -2.460000000e-04
649000000.0 -1.535000000e-03 -3.490000000e-04
658000000.0 -1.006000000e-03 -1.290000000e-04
667000000.0 -1.228000000e-03 -3.580000000e-04
676000000.0 -4.700000000e-04 -2.580000000e-04
685000000.0 -1.122000000e-03 -2.540000000e-04
694000000.0 -1.395000000e-03 2.859000000e-03
703000000.0 -1.314000000e-03 1.600000000e-05
712000000.0 -8.840000000e-04 -4.260000000e-04
721000000.0 -6.680000000e-04 1.380000000e-04
730000000.0 -9.110000000e-04 -5.400000000e-05
739000000.0 -1.120000000e-04 -1.150000000e-04
748000000.0 -9.430000000e-04 -1.210000000e-04
757000000.0 -6.520000000e-04 -2.580000000e-04
766000000.0 -1.282000000e-03 4.070000000e-04
775000000.0 -1.046000000e-03 4.260000000e-04
784000000.0 -8.200000000e-04 9.790000000e-04
793000000.0 -6.390000000e-04 4.590000000e-04
802000000.0 -7.900000000e-04 6.490000000e-04
811000000.0 -4.400000000e-05 8.070000000e-04
820000000.0 -4.220000000e-04 3.600000000e-04
829000000.0 -6.140000000e-04 7.570000000e-04
838000000.0 -9.930000000e-04 5.300000000e-04
847000000.0 -8.340000000e-04 7.110000000e-04
856000000.0 -5.320000000e-04 3.140000000e-04
865000000.0 -1.285000000e-03 7.070000000e-04
874000000.0 -1.342000000e-03 9.900000000e-05
883000000.0 -1.432000000e-03 3.680000000e-04
892000000.0 -7.800000000e-04 6.050000000e-04
901000000.0 -1.392000000e-03 8.120000000e-04
910000000.0 -9.100000000e-04 3.680000000e-04
919000000.0 -1.534000000e-03 6.600000000e-04
928000000.0 -1.426000000e-03 3.260000000e-04
937000000.0 -9.920000000e-04 2.150000000e-04
946000000.0 -1.369000000e-03 9.050000000e-04
955000000.0 -8.980000000e-04 3.290000000e-04
964000000.0 -9.040000000e-04 1.167000000e-03
973000000.0 -1.441000000e-03 8.380000000e-04
982000000.0 -1.063000000e-03 7.810000000e-04
991000000.0 -1.122000000e-03 8.240000000e-04
1000000000.0 -1.268000000e-03 1.244000000e-03
1004500000.0 -6.470000000e-04 7.470000000e-04
1009000000.0 -8.900000000e-04 2.970000000e-04
1013500000.0 -1.115000000e-03 1.420000000e-03
1018000000.0 -1.117000000e-03 1.038000000e-03
1022500000.0 -1.380000000e-04 1.554000000e-03
1027000000.0 -1.076000000e-03 3.190000000e-04
1031500000.0 -9.750000000e-04 8.340000000e-04
1036000000.0 -1.562000000e-03 6.690000000e-04
1040500000.0 -1.227000000e-03 1.301000000e-03
1045000000.0 -8.620000000e-04 1.194000000e-03
1049500000.0 -1.106000000e-03 8.580000000e-04
1054000000.0 -1.073000000e-03 9.550000000e-04
1058500000.0 -1.528000000e-03 7.050000000e-04
1063000000.0 -8.940000000e-04 1.882000000e-03
1067500000.0 -1.870000000e-03 2.720000000e-04
1072000000.0 -1.907000000e-03 1.161000000e-03
1076500000.0 -1.173000000e-03 3.710000000e-04
1081000000.0 -1.049000000e-03 4.850000000e-04
1085500000.0 -1.253000000e-03 1.222000000e-03
1090000000.0 -1.234000000e-03 6.970000000e-04
1094500000.0 -1.417000000e-03 1.075000000e-03
1099000000.0 -1.375000000e-03 1.388000000e-03
1103500000.0 -1.203000000e-03 8.550000000e-04
1108000000.0 -1.203000000e-03 1.347000000e-03
1112500000.0 -8.570000000e-04 1.763000000e-03
1117000000.0 -1.006000000e-03 2.373000000e-03
1121500000.0 4.070000000e-03 1.818000000e-03
1126000000.0 -1.167000000e-03 8.240000000e-04
1130500000.0 -1.261000000e-03 1.182000000e-03
1135000000.0 -9.820000000e-04 8.280000000e-04
1139500000.0 -9.850000000e-04 1.065000000e-03
1144000000.0 -2.280000000e-04 1.013000000e-03
1148500000.0 -8.030000000e-04 1.457000000e-03
1153000000.0 -9.100000000e-04 1.031000000e-03
1157500000.0 1.245000000e-03 1.794000000e-03
1162000000.0 -1.203000000e-03 1.732000000e-03
1166500000.0 -6.920000000e-04 1.045000000e-03
1171000000.0 -1.404000000e-03 1.070000000e-03
1175500000.0 -8.410000000e-04 1.182000000e-03
1180000000.0 -7.400000000e-04 4.140000000e-04
1184500000.0 -1.320000000e-03 7.690000000e-04
1189000000.0 -1.025000000e-03 6.260000000e-04
1193500000.0 -1.235000000e-03 1.460000000e-03
1198000000.0 -1.081000000e-03 7.300000000e-04
1202500000.0 -1.510000000e-03 8.500000000e-04
1207000000.0 -4.860000000e-04 3.810000000e-04
1211500000.0 -1.112000000e-03 1.199000000e-03
1216000000.0 -8.530000000e-04 1.757000000e-03
1220500000.0 -1.229000000e-03 7.520000000e-04
1225000000.0 -1.576000000e-03 1.168000000e-03
1229500000.0 -1.437000000e-03 1.364000000e-03
1234000000.0 -2.470000000e-04 1.305000000e-03
1238500000.0 -1.543000000e-03 1.235000000e-03
1243000000.0 -1.759000000e-03 1.217000000e-03
1247500000.0 -1.110000000e-03 6.850000000e-04
1252000000.0 -1.516000000e-03 4.010000000e-04
1256500000.0 -1.271000000e-03 1.200000000e-03
1261000000.0 -1.684000000e-03 4.940000000e-04
1265500000.0 -1.427000000e-03 9.930000000e-04
1270000000.0 -1.045000000e-03 8.320000000e-04
1274500000.0 -1.939000000e-03 2.530000000e-04
1279000000.0 -1.467000000e-03 4.400000000e-04
1283500000.0 -1.909000000e-03 4.260000000e-04
1288000000.0 -1.708000000e-03 3.500000000e-04
1292500000.0 -1.656000000e-03 1.297000000e-03
1297000000.0 -6.600000000e-04 6.020000000e-04
1301500000.0 -8.754000000e-03 -9.197000000e-03
1306000000.0 -1.316000000e-03 -5.100000000e-04
1310500000.0 -2.127000000e-03 1.127000000e-03
1315000000.0 -1.389000000e-03 -3.800000000e-04
1319500000.0 -1.704000000e-03 5.800000000e-04
1324000000.0 -1.264000000e-03 7.830000000e-04
1328500000.0 -1.164000000e-03 -4.160000000e-04
1333000000.0 -2.465000000e-03 -2.030000000e-04
1337500000.0 -1.894000000e-03 -1.360000000e-04
1342000000.0 -1.836000000e-03 2.500000000e-04
1346500000.0 -1.077000000e-03 -8.040000000e-04
1351000000.0 -1.743000000e-03 -1.690000000e-04
1355500000.0 -1.149000000e-03 -2.440000000e-04
1360000000.0 -7.090000000e-04 7.400000000e-05
1364500000.0 -1.518000000e-03 -2.270000000e-04
1369000000.0 -9.400000000e-04 -3.530000000e-04
1373500000.0 -1.406000000e-03 7.280000000e-04
1378000000.0 -6.420000000e-04 6.700000000e-04
1382500000.0 -8.820000000e-04 6.060000000e-04
1387000000.0 -1.463000000e-03 -3.310000000e-04
1391500000.0 -2.094000000e-03 -8.170000000e-04
1396000000.0 -1.403000000e-03 1.940000000e-04
1400500000.0 -6.030000000e-04 -7.660000000e-04
1405000000.0 -1.857000000e-03 -1.630000000e-04
1409500000.0 -1.592000000e-03 -1.800000000e-04
1414000000.0 -1.295000000e-03 2.180000000e-04
1418500000.0 -9.540000000e-04 3.550000000e-04
1423000000.0 -1.427000000e-03 -7.100000000e-05
1427500000.0 -1.048000000e-03 -6.100000000e-05
1432000000.0 -1.772000000e-03 -1.250000000e-03
1436500000.0 -1.450000000e-03 4.070000000e-04
1441000000.0 -1.436000000e-03 4.620000000e-04
1445500000.0 -1.317000000e-03 9.760000000e-04
1450000000.0 -8.160000000e-04 1.151000000e-03
