! prueba_sol / sol_corto / r02
# HZ S RI R 50
50000.0 -9.985530000e-01 -3.740300000e-02
59500.0 -9.988170000e-01 -1.716300000e-02
69000.0 -9.989440000e-01 -8.090000000e-03
78500.0 -9.989430000e-01 -1.132000000e-03
88000.0 -9.999810000e-01 1.624000000e-03
97500.0 -1.000339000e+00 -1.010000000e-04
107000.0 -9.996340000e-01 -2.067000000e-03
116500.0 -1.000830000e+00 -5.377000000e-03
126000.0 -9.996970000e-01 -1.029500000e-02
135500.0 -9.998950000e-01 -1.586600000e-02
145000.0 -1.000355000e+00 -2.145000000e-02
154500.0 -1.000354000e+00 -2.880300000e-02
164000.0 -9.994780000e-01 -3.627100000e-02
173500.0 -9.999180000e-01 -4.350800000e-02
183000.0 -9.997850000e-01 -5.122200000e-02
192500.0 -1.000206000e+00 -5.962500000e-02
202000.0 -1.000069000e+00 -6.805000000e-02
211500.0 -1.000657000e+00 -7.695300000e-02
221000.0 -1.000709000e+00 -8.563800000e-02
230500.0 -1.000691000e+00 -9.412300000e-02
240000.0 -1.000655000e+00 -1.037880000e-01
249500.0 -1.000881000e+00 -1.132050000e-01
259000.0 -1.000992000e+00 -1.216290000e-01
268500.0 -1.001205000e+00 -1.303800000e-01
278000.0 -1.001766000e+00 -1.402890000e-01
287500.0 -1.001161000e+00 -1.501470000e-01
297000.0 -1.001876000e+00 -1.591560000e-01
306500.0 -1.001813000e+00 -1.677280000e-01
316000.0 -1.002058000e+00 -1.773950000e-01
325500.0 -1.002725000e+00 -1.861400000e-01
335000.0 -1.002672000e+00 -1.955230000e-01
344500.0 -1.002035000e+00 -2.048090000e-01
354000.0 -1.004242000e+00 -2.140980000e-01
363500.0 -1.004554000e+00 -2.240990000e-01
373000.0 -1.004047000e+00 -2.329900000e-01
382500.0 -1.003861000e+00 -2.428360000e-01
392000.0 -1.004540000e+00 -2.521660000e-01
401500.0 -1.003762000e+00 -2.610600000e-01
411000.0 -1.004532000e+00 -2.703710000e-01
420500.0 -1.004780000e+00 -2.800120000e-01
430000.0 -1.005137000e+00 -2.888690000e-01
439500.0 -1.005372000e+00 -2.981990000e-01
449000.0 -1.004705000e+00 -3.083400000e-01
458500.0 -1.004874000e+00 -3.172230000e-01
468000.0 -1.005601000e+00 -3.264820000e-01
477500.0 -1.005822000e+00 -3.358030000e-01
487000.0 -1.006045000e+00 -3.445300000e-01
496500.0 -1.006915000e+00 -3.538070000e-01
506000.0 -1.007262000e+00 -3.630120000e-01
515500.0 -1.008133000e+00 -3.725420000e-01
525000.0 -1.006480000e+00 -3.820530000e-01
534500.0 -1.008433000e+00 -3.906550000e-01
544000.0 -1.007298000e+00 -4.002740000e-01
553500.0 -1.008146000e+00 -4.093770000e-01
563000.0 -1.008770000e+00 -4.191520000e-01
572500.0 -1.009360000e+00 -4.282130000e-01
582000.0 -1.010118000e+00 -4.373190000e-01
591500.0 -1.010446000e+00 -4.456940000e-01
601000.0 -1.010416000e+00 -4.556030000e-01
610500.0 -1.010779000e+00 -4.647760000e-01
620000.0 -1.011228000e+00 -4.734240000e-01
629500.0 -1.012323000e+00 -4.824230000e-01
639000.0 -1.013237000e+00 -4.927120000e-01
648500.0 -1.013833000e+00 -5.008770000e-01
658000.0 -1.014009000e+00 -5.094290000e-01
667500.0 -1.014221000e+00 -5.194710000e-01
677000.0 -1.015390000e+00 -5.265390000e-01
686500.0 -1.016089000e+00 -5.364150000e-01
696000.0 -1.015876000e+00 -5.446590000e-01
705500.0 -1.016351000e+00 -5.545940000e-01
715000.0 -1.018572000e+00 -5.626340000e-01
724500.0 -1.019623000e+00 -5.719350000e-01
734000.0 -1.020029000e+00 -5.808690000e-01
743500.0 -1.020034000e+00 -5.907010000e-01
753000.0 -1.022379000e+00 -5.989050000e-01
762500.0 -1.022540000e+00 -6.087090000e-01
772000.0 -1.024001000e+00 -6.157760000e-01
781500.0 -1.024548000e+00 -6.259470000e-01
791000.0 -1.026656000e+00 -6.344330000e-01
800500.0 -1.027392000e+00 -6.423340000e-01
810000.0 -1.028902000e+00 -6.524740000e-01
819500.0 -1.030180000e+00 -6.604960000e-01
829000.0 -1.031728000e+00 -6.695710000e-01
838500.0 -1.032687000e+00 -6.783190000e-01
848000.0 -1.033916000e+00 -6.866420000e-01
857500.0 -1.035264000e+00 -6.954860000e-01
867000.0 -1.035890000e+00 -7.044310000e-01
876500.0 -1.039090000e+00 -7.124270000e-01
886000.0 -1.040001000e+00 -7.226770000e-01
895500.0 -1.040517000e+00 -7.301540000e-01
905000.0 -1.044340000e+00 -7.389380000e-01
914500.0 -1.047607000e+00 -7.474230000e-01
924000.0 -1.048077000e+00 -7.558080000e-01
933500.0 -1.050949000e+00 -7.649430000e-01
943000.0 -1.053002000e+00 -7.739410000e-01
952500.0 -1.052682000e+00 -7.826060000e-01
962000.0 -1.056608000e+00 -7.905760000e-01
971500.0 -1.058245000e+00 -7.972480000e-01
981000.0 -1.061438000e+00 -8.057260000e-01
990500.0 -1.064278000e+00 -8.132330000e-01
1000000.0 -1.066701000e+00 -8.237860000e-01
1090000.0 -1.095025000e+00 -9.000920000e-01
1180000.0 -1.131775000e+00 -9.737070000e-01
1270000.0 -1.179201000e+00 -1.043921000e+00
1360000.0 -1.234838000e+00 -1.104207000e+00
1450000.0 -1.303101000e+00 -1.154889000e+00
1540000.0 -1.381348000e+00 -1.187683000e+00
1630000.0 -1.466521000e+00 -1.210688000e+00
1720000.0 -1.552781000e+00 -1.210063000e+00
1810000.0 -1.642502000e+00 -1.191942000e+00
1900000.0 -1.727998000e+00 -1.149665000e+00
1990000.0 -1.803178000e+00 -1.083316000e+00
2080000.0 -1.857044000e+00 -1.007978000e+00
2170000.0 -1.894530000e+00 -9.178950000e-01
2260000.0 -1.912260000e+00 -8.261050000e-01
2350000.0 -1.915670000e+00 -7.364330000e-01
2440000.0 -1.902518000e+00 -6.531450000e-01
2530000.0 -1.875090000e+00 -5.722310000e-01
2620000.0 -1.839644000e+00 -5.018480000e-01
2710000.0 -1.803639000e+00 -4.418770000e-01
2800000.0 -1.761272000e+00 -3.899440000e-01
2890000.0 -1.718768000e+00 -3.438230000e-01
2980000.0 -1.677259000e+00 -3.041710000e-01
3070000.0 -1.635281000e+00 -2.694200000e-01
3160000.0 -1.595434000e+00 -2.432900000e-01
3250000.0 -1.559248000e+00 -2.148970000e-01
3340000.0 -1.522364000e+00 -1.913190000e-01
3430000.0 -1.490849000e+00 -1.724580000e-01
3520000.0 -1.460072000e+00 -1.543370000e-01
3610000.0 -1.431079000e+00 -1.387150000e-01
3700000.0 -1.403771000e+00 -1.212980000e-01
3790000.0 -1.379703000e+00 -1.059210000e-01
3880000.0 -1.356989000e+00 -9.240100000e-02
3970000.0 -1.334346000e+00 -7.890800000e-02
4060000.0 -1.314087000e+00 -6.726200000e-02
4150000.0 -1.295170000e+00 -5.529900000e-02
4240000.0 -1.279109000e+00 -4.205300000e-02
4330000.0 -1.264902000e+00 -2.956600000e-02
4420000.0 -1.249892000e+00 -1.954900000e-02
4510000.0 -1.236744000e+00 -7.425000000e-03
4600000.0 -1.224152000e+00 3.825000000e-03
4690000.0 -1.213259000e+00 1.566300000e-02
4780000.0 -1.204558000e+00 2.722500000e-02
4870000.0 -1.195796000e+00 3.832000000e-02
4960000.0 -1.187146000e+00 4.854200000e-02
5050000.0 -1.173342000e+00 5.846500000e-02
5140000.0 -1.166800000e+00 6.882400000e-02
5230000.0 -1.161689000e+00 8.147500000e-02
5320000.0 -1.156561000e+00 9.018300000e-02
5410000.0 -1.152164000e+00 1.017440000e-01
5500000.0 -1.148935000e+00 1.112450000e-01
5590000.0 -1.143830000e+00 1.217110000e-01
5680000.0 -1.140740000e+00 1.322870000e-01
5770000.0 -1.134940000e+00 1.410570000e-01
5860000.0 -1.132299000e+00 1.502180000e-01
5950000.0 -1.130177000e+00 1.597200000e-01
6040000.0 -1.126130000e+00 1.695310000e-01
6130000.0 -1.121945000e+00 1.771870000e-01
6220000.0 -1.119981000e+00 1.844000000e-01
6310000.0 -1.117854000e+00 1.927970000e-01
6400000.0 -1.115898000e+00 2.001480000e-01
6490000.0 -1.112376000e+00 2.076120000e-01
6580000.0 -1.109840000e+00 2.128470000e-01
6670000.0 -1.109344000e+00 2.179190000e-01
6760000.0 -1.108198000e+00 2.236000000e-01
6850000.0 -1.106153000e+00 2.286920000e-01
6940000.0 -1.105022000e+00 2.332080000e-01
7030000.0 -1.104000000e+00 2.360250000e-01
7120000.0 -1.103860000e+00 2.385800000e-01
7210000.0 -1.102509000e+00 2.408490000e-01
7300000.0 -1.102761000e+00 2.418970000e-01
7390000.0 -1.102245000e+00 2.425590000e-01
7480000.0 -1.102422000e+00 2.431630000e-01
7570000.0 1.957190000e-01 1.073973000e+00
7660000.0 1.949880000e-01 1.073265000e+00
7750000.0 1.940530000e-01 1.075485000e+00
7840000.0 1.930660000e-01 1.074831000e+00
7930000.0 1.935800000e-01 1.075168000e+00
8020000.0 1.918020000e-01 1.076077000e+00
8110000.0 1.912440000e-01 1.075632000e+00
8200000.0 1.915040000e-01 1.075276000e+00
8290000.0 1.899390000e-01 1.077098000e+00
8380000.0 1.888670000e-01 1.077222000e+00
8470000.0 1.875680000e-01 1.076590000e+00
8560000.0 1.870570000e-01 1.077938000e+00
8650000.0 1.871940000e-01 1.077847000e+00
8740000.0 1.854220000e-01 1.078755000e+00
8830000.0 1.855710000e-01 1.079248000e+00
8920000.0 1.846250000e-01 1.080303000e+00
9010000.0 1.843670000e-01 1.081252000e+00
9100000.0 1.832210000e-01 1.080535000e+00
9190000.0 1.832010000e-01 1.082350000e+00
9280000.0 1.824240000e-01 1.082311000e+00
9370000.0 1.810090000e-01 1.082852000e+00
9460000.0 1.813620000e-01 1.083534000e+00
9550000.0 1.804450000e-01 1.084597000e+00
9640000.0 1.790230000e-01 1.084535000e+00
9730000.0 1.788660000e-01 1.084720000e+00
9820000.0 1.770390000e-01 1.087097000e+00
9910000.0 1.764820000e-01 1.086220000e+00
10000000.0 1.758420000e-01 1.087450000e+00
10900000.0 1.700830000e-01 1.093937000e+00
11800000.0 1.632060000e-01 1.102626000e+00
12700000.0 1.579180000e-01 1.109981000e+00
13600000.0 1.508040000e-01 1.119766000e+00
14500000.0 1.439790000e-01 1.126951000e+00
15400000.0 1.372420000e-01 1.135681000e+00
16300000.0 1.315190000e-01 1.145287000e+00
17200000.0 1.245540000e-01 1.153377000e+00
18100000.0 1.164970000e-01 1.163108000e+00
19000000.0 1.089320000e-01 1.172521000e+00
19900000.0 1.009410000e-01 1.181798000e+00
20800000.0 9.184800000e-02 1.192581000e+00
21700000.0 8.412500000e-02 1.201439000e+00
22600000.0 7.550900000e-02 1.211970000e+00
23500000.0 6.692400000e-02 1.221685000e+00
24400000.0 5.515500000e-02 1.231491000e+00
25300000.0 4.689200000e-02 1.240400000e+00
26200000.0 3.582600000e-02 1.251967000e+00
27100000.0 2.497300000e-02 1.262225000e+00
28000000.0 1.435500000e-02 1.271512000e+00
28900000.0 2.436000000e-03 1.281725000e+00
29800000.0 -9.929000000e-03 1.291855000e+00
30700000.0 -2.043200000e-02 1.302889000e+00
31600000.0 -3.425100000e-02 1.311455000e+00
32500000.0 -4.759000000e-02 1.321299000e+00
33400000.0 -6.246300000e-02 1.332581000e+00
34300000.0 -7.739000000e-02 1.343010000e+00
35200000.0 -9.076200000e-02 1.351014000e+00
36100000.0 -1.056780000e-01 1.360580000e+00
37000000.0 -1.209550000e-01 1.370774000e+00
37900000.0 -1.375040000e-01 1.379404000e+00
38800000.0 -1.543240000e-01 1.387241000e+00
39700000.0 -1.713470000e-01 1.397730000e+00
40600000.0 -1.886680000e-01 1.405297000e+00
41500000.0 -2.067710000e-01 1.413094000e+00
42400000.0 -2.250580000e-01 1.421298000e+00
43300000.0 -2.437020000e-01 1.428613000e+00
44200000.0 -2.615640000e-01 1.435451000e+00
45100000.0 -2.817550000e-01 1.441711000e+00
46000000.0 -3.026860000e-01 1.448285000e+00
46900000.0 -3.218990000e-01 1.453710000e+00
47800000.0 -3.449920000e-01 1.458930000e+00
48700000.0 -3.654690000e-01 1.464480000e+00
49600000.0 -3.872120000e-01 1.467706000e+00
50500000.0 -4.088800000e-01 1.472656000e+00
51400000.0 -4.319040000e-01 1.475513000e+00
52300000.0 -4.527760000e-01 1.476656000e+00
53200000.0 -4.774310000e-01 1.478840000e+00
54100000.0 -4.996110000e-01 1.481653000e+00
55000000.0 -5.226580000e-01 1.482413000e+00
55900000.0 -5.464040000e-01 1.480496000e+00
56800000.0 -5.712280000e-01 1.480098000e+00
57700000.0 -5.933850000e-01 1.479641000e+00
58600000.0 -6.194720000e-01 1.477493000e+00
59500000.0 -6.415660000e-01 1.474860000e+00
60400000.0 -6.683190000e-01 1.472504000e+00
61300000.0 -6.902300000e-01 1.468248000e+00
62200000.0 -7.168740000e-01 1.462567000e+00
63100000.0 -7.403230000e-01 1.457010000e+00
64000000.0 -7.638420000e-01 1.450788000e+00
64900000.0 -7.889180000e-01 1.443654000e+00
65800000.0 -8.137570000e-01 1.434792000e+00
66700000.0 -8.355070000e-01 1.427957000e+00
67600000.0 -8.585470000e-01 1.418434000e+00
68500000.0 -8.844620000e-01 1.407785000e+00
69400000.0 -9.074130000e-01 1.397746000e+00
70300000.0 -9.296140000e-01 1.385666000e+00
71200000.0 -9.529940000e-01 1.374146000e+00
72100000.0 -9.757990000e-01 1.363474000e+00
73000000.0 -9.966200000e-01 1.348394000e+00
73900000.0 -1.018692000e+00 1.333758000e+00
74800000.0 -1.038699000e+00 1.319282000e+00
75700000.0 -1.061690000e+00 1.306008000e+00
76600000.0 -1.080226000e+00 1.287812000e+00
77500000.0 -1.102155000e+00 1.274107000e+00
78400000.0 -1.119373000e+00 1.255237000e+00
79300000.0 -1.139910000e+00 1.237427000e+00
80200000.0 -1.158887000e+00 1.220045000e+00
81100000.0 -1.175388000e+00 1.199900000e+00
82000000.0 -1.192331000e+00 1.181480000e+00
82900000.0 -1.209727000e+00 1.162100000e+00
83800000.0 -1.225184000e+00 1.141118000e+00
84700000.0 -1.240262000e+00 1.122201000e+00
85600000.0 -1.256295000e+00 1.102106000e+00
86500000.0 -1.269113000e+00 1.079781000e+00
87400000.0 -1.283548000e+00 1.056346000e+00
88300000.0 -1.294018000e+00 1.036554000e+00
89200000.0 -1.307561000e+00 1.013888000e+00
90100000.0 -1.316864000e+00 9.911330000e-01
91000000.0 -1.328025000e+00 9.702390000e-01
91900000.0 -1.337602000e+00 9.466540000e-01
92800000.0 -1.346090000e+00 9.225970000e-01
93700000.0 -1.354702000e+00 8.999450000e-01
94600000.0 -1.362225000e+00 8.762290000e-01
95500000.0 -1.367803000e+00 8.536490000e-01
96400000.0 -1.374802000e+00 8.305530000e-01
97300000.0 -1.380170000e+00 8.074140000e-01
98200000.0 -1.385694000e+00 7.850920000e-01
99100000.0 -1.389098000e+00 7.615320000e-01
100000000.0 -1.390703000e+00 7.386260000e-01
109000000.0 -1.386069000e+00 5.194860000e-01
118000000.0 -1.331043000e+00 3.385130000e-01
127000000.0 -1.249071000e+00 1.998790000e-01
136000000.0 -1.134516000e+00 1.016800000e-01
145000000.0 -1.047327000e+00 3.005400000e-02
154000000.0 -1.000734000e+00 -1.327000000e-03
163000000.0 -1.002645000e+00 -4.473000000e-03
172000000.0 -1.004891000e+00 -6.001000000e-03
181000000.0 -1.005872000e+00 -7.833000000e-03
190000000.0 -1.007272000e+00 -9.321000000e-03
199000000.0 -1.009426000e+00 -1.020200000e-02
208000000.0 -1.009046000e+00 -1.191700000e-02
217000000.0 -1.010287000e+00 -1.242400000e-02
226000000.0 -1.010626000e+00 -1.123800000e-02
235000000.0 -1.010172000e+00 -1.166400000e-02
244000000.0 -1.009792000e+00 -1.028600000e-02
253000000.0 -1.009800000e+00 -9.322000000e-03
262000000.0 -1.007667000e+00 -8.936000000e-03
271000000.0 -1.006797000e+00 -6.534000000e-03
280000000.0 -1.004708000e+00 -7.155000000e-03
289000000.0 -1.002652000e+00 -3.199000000e-03
298000000.0 -1.000289000e+00 -1.067000000e-03
307000000.0 -1.001520000e+00 -3.200000000e-05
316000000.0 -1.005935000e+00 -1.120000000e-03
325000000.0 -1.007524000e+00 -2.165000000e-03
334000000.0 -1.010672000e+00 -8.420000000e-04
343000000.0 -1.010256000e+00 -2.612000000e-03
352000000.0 -1.013630000e+00 -3.024000000e-03
361000000.0 -1.013960000e+00 -3.507000000e-03
370000000.0 -1.014971000e+00 -4.254000000e-03
379000000.0 -1.014980000e+00 -3.867000000e-03
388000000.0 -1.013189000e+00 -2.869000000e-03
397000000.0 -1.011630000e+00 -1.953000000e-03
406000000.0 -1.008505000e+00 1.509900000e-02
415000000.0 -1.009516000e+00 -3.274000000e-03
424000000.0 -1.005839000e+00 1.796500000e-02
433000000.0 -1.006398000e+00 -2.248000000e-03
442000000.0 -1.003688000e+00 -1.944000000e-03
451000000.0 -1.001984000e+00 -1.372000000e-03
460000000.0 -1.004996000e+00 1.581000000e-03
469000000.0 -1.007232000e+00 2.512000000e-03
478000000.0 -1.010897000e+00 3.840000000e-04
487000000.0 -1.012454000e+00 8.490000000e-04
496000000.0 -1.014829000e+00 2.468000000e-03
505000000.0 -1.016965000e+00 2.762000000e-03
514000000.0 -1.017347000e+00 1.816000000e-03
523000000.0 -1.017360000e+00 2.210000000e-03
532000000.0 -1.014984000e+00 6.695000000e-03
541000000.0 -1.013986000e+00 4.115000000e-03
550000000.0 -1.015951000e+00 1.867000000e-03
559000000.0 -1.014200000e+00 3.195000000e-03
568000000.0 -1.009875000e+00 6.990000000e-04
577000000.0 -1.008786000e+00 1.223000000e-03
586000000.0 -1.004667000e+00 2.630000000e-03
595000000.0 -1.004093000e+00 -1.714000000e-03
604000000.0 -1.001164000e+00 1.844000000e-03
613000000.0 -1.005397000e+00 4.917000000e-03
622000000.0 -1.006131000e+00 6.090000000e-03
631000000.0 -1.008043000e+00 7.473000000e-03
640000000.0 -1.009608000e+00 9.130000000e-03
649000000.0 -1.009952000e+00 1.140200000e-02
658000000.0 -1.013438000e+00 7.759000000e-03
667000000.0 -1.009382000e+00 1.504000000e-02
676000000.0 -1.011941000e+00 1.152700000e-02
685000000.0 -1.008985000e+00 1.297500000e-02
694000000.0 -1.011101000e+00 1.322900000e-02
703000000.0 -1.009081000e+00 8.095000000e-03
712000000.0 -1.008959000e+00 1.011500000e-02
721000000.0 -1.002366000e+00 4.813000000e-03
730000000.0 -1.003140000e+00 8.942000000e-03
739000000.0 -1.000955000e+00 6.088000000e-03
748000000.0 -9.989980000e-01 4.342000000e-03
757000000.0 -1.001342000e+00 1.133000000e-03
766000000.0 -9.977230000e-01 7.327000000e-03
775000000.0 -1.000275000e+00 4.823000000e-03
784000000.0 -9.989390000e-01 4.819000000e-03
793000000.0 -9.991330000e-01 1.010800000e-02
802000000.0 -9.963930000e-01 7.856000000e-03
811000000.0 -9.961300000e-01 9.080000000e-03
820000000.0 -9.975560000e-01 1.142600000e-02
829000000.0 -9.954530000e-01 7.516000000e-03
838000000.0 -9.977870000e-01 5.059000000e-03
847000000.0 -9.957520000e-01 3.349000000e-03
856000000.0 -9.983000000e-01 4.779000000e-03
865000000.0 -9.959360000e-01 3.990000000e-04
874000000.0 -9.946210000e-01 7.250000000e-04
883000000.0 -9.942910000e-01 3.117000000e-03
892000000.0 -9.982890000e-01 -5.164000000e-03
901000000.0 -9.973820000e-01 -3.104000000e-03
910000000.0 -1.000445000e+00 5.190000000e-04
919000000.0 -9.989120000e-01 -4.586000000e-03
928000000.0 -9.988120000e-01 -8.657000000e-03
937000000.0 -9.978140000e-01 -6.178000000e-03
946000000.0 -1.001584000e+00 -4.065000000e-03
955000000.0 -1.000876000e+00 -4.496000000e-03
964000000.0 -1.002457000e+00 -3.363000000e-03
973000000.0 -9.998740000e-01 -3.636000000e-03
982000000.0 -1.002759000e+00 -8.337000000e-03
991000000.0 -1.002075000e+00 -6.135000000e-03
1000000000.0 -1.003067000e+00 -2.392000000e-03
1004500000.0 -1.000361000e+00 -9.522000000e-03
1009000000.0 -1.002132000e+00 -3.928000000e-03
1013500000.0 -1.000602000e+00 -7.358000000e-03
1018000000.0 -1.000979000e+00 -3.178000000e-03
1022500000.0 -1.000261000e+00 -4.697000000e-03
1027000000.0 -9.979300000e-01 -1.897000000e-03
1031500000.0 -1.002829000e+00 -5.594000000e-03
1036000000.0 -1.001162000e+00 -4.461000000e-03
1040500000.0 -9.985830000e-01 -6.095000000e-03
1045000000.0 -9.981100000e-01 -4.720000000e-03
1049500000.0 -1.003391000e+00 -4.368000000e-03
1054000000.0 -1.003302000e+00 -6.303000000e-03
1058500000.0 -1.002267000e+00 -1.045000000e-03
1063000000.0 -1.004297000e+00 -3.901000000e-03
1067500000.0 -1.004593000e+00 -9.098000000e-03
1072000000.0 -1.001158000e+00 -1.153000000e-02
1076500000.0 -1.000754000e+00 -9.166000000e-03
1081000000.0 -1.006748000e+00 -5.490000000e-03
1085500000.0 -1.006468000e+00 -1.154000000e-02
1090000000.0 -1.009429000e+00 -5.044000000e-03
1094500000.0 -1.010722000e+00 -8.306000000e-03
1099000000.0 -1.006906000e+00 -6.213000000e-03
1103500000.0 -1.005874000e+00 -1.255100000e-02
1108000000.0 -1.008263000e+00 -1.203600000e-02
1112500000.0 -1.004736000e+00 -5.079000000e-03
1117000000.0 -1.009282000e+00 -5.330000000e-03
1121500000.0 -1.010001000e+00 -1.234500000e-02
1126000000.0 -1.009200000e+00 -1.241800000e-02
1130500000.0 -1.004307000e+00 -1.251400000e-02
1135000000.0 -1.006511000e+00 -6.883000000e-03
1139500000.0 -1.006991000e+00 -1.090500000e-02
1144000000.0 -1.004650000e+00 -6.377000000e-03
1148500000.0 -1.002231000e+00 -6.656000000e-03
1153000000.0 -9.893740000e-01 2.779900000e-02
1157500000.0 -1.016277000e+00 -3.679500000e-02
1162000000.0 -1.007495000e+00 -4.905000000e-03
1166500000.0 -1.004131000e+00 -7.040000000e-03
1171000000.0 -1.004270000e+00 2.605000000e-03
1175500000.0 -1.000422000e+00 -4.029000000e-03
1180000000.0 -1.000829000e+00 -8.225000000e-03
1184500000.0 -9.982210000e-01 -2.177000000e-03
1189000000.0 -1.003452000e+00 -5.261000000e-03
1193500000.0 -9.958630000e-01 -7.993000000e-03
1198000000.0 -9.946580000e-01 -3.071000000e-03
1202500000.0 -9.946040000e-01 3.479000000e-03
1207000000.0 -9.989610000e-01 -2.265000000e-03
1211500000.0 -9.986730000e-01 -3.700000000e-04
1216000000.0 -9.964550000e-01 -9.479000000e-03
1220500000.0 -9.979940000e-01 -3.739000000e-03
1225000000.0 -1.002192000e+00 6.394000000e-03
1229500000.0 -9.973900000e-01 -6.206000000e-03
1234000000.0 -1.002353000e+00 -1.641800000e-02
1238500000.0 -1.006639000e+00 -8.123000000e-03
1243000000.0 -1.001426000e+00 -7.019000000e-03
1247500000.0 -1.005869000e+00 -5.377000000e-03
1252000000.0 -1.001131000e+00 6.740000000e-04
1256500000.0 -1.007271000e+00 -5.096000000e-03
1261000000.0 -1.000155000e+00 5.528000000e-03
1265500000.0 -1.004185000e+00 -1.842000000e-03
1270000000.0 -1.005949000e+00 -2.408100000e-02
1274500000.0 -1.009962000e+00 -1.036300000e-02
1279000000.0 -1.001619000e+00 3.931000000e-03
1283500000.0 -1.005364000e+00 -1.100000000e-03
1288000000.0 -1.008711000e+00 -3.166400000e-02
1292500000.0 -1.003554000e+00 -8.540000000e-04
1297000000.0 -1.002199000e+00 2.710000000e-03
1301500000.0 -1.003789000e+00 5.090000000e-03
1306000000.0 -9.989070000e-01 -7.724000000e-03
1310500000.0 -1.001987000e+00 -6.936000000e-03
1315000000.0 -1.005205000e+00 -1.524400000e-02
1319500000.0 -1.001440000e+00 1.076000000e-03
1324000000.0 -1.001132000e+00 4.715000000e-03
1328500000.0 -9.977340000e-01 -1.050700000e-02
1333000000.0 -9.991910000e-01 -7.261000000e-03
1337500000.0 -9.945240000e-01 -4.286000000e-03
1342000000.0 -9.972890000e-01 6.347000000e-03
1346500000.0 -9.882450000e-01 7.863000000e-03
1351000000.0 -9.905630000e-01 -2.782000000e-03
1355500000.0 -9.988710000e-01 1.520000000e-04
1360000000.0 -9.967440000e-01 1.629000000e-03
1364500000.0 -9.984190000e-01 -6.869000000e-03
1369000000.0 -9.959840000e-01 -8.023000000e-03
1373500000.0 -9.956440000e-01 1.808000000e-03
1378000000.0 -1.003730000e+00 3.071000000e-03
1382500000.0 -1.010611000e+00 -1.858000000e-03
1387000000.0 -9.986790000e-01 4.041000000e-03
1391500000.0 -1.000962000e+00 -3.184000000e-03
1396000000.0 -9.991490000e-01 3.220000000e-04
1400500000.0 -1.004132000e+00 3.508000000e-03
1405000000.0 -1.011684000e+00 4.169000000e-03
1409500000.0 -1.006251000e+00 1.350000000e-04
1414000000.0 -1.007047000e+00 -3.290000000e-04
1418500000.0 -1.008510000e+00 4.266000000e-03
1423000000.0 -1.010073000e+00 -8.807000000e-03
1427500000.0 -1.006696000e+00 -4.432000000e-03
1432000000.0 -1.008683000e+00 -6.161000000e-03
1436500000.0 -1.009726000e+00 -1.882000000e-03
1441000000.0 -1.008533000e+00 -4.418000000e-03
1445500000.0 -1.012437000e+00 3.791000000e-03
1450000000.0 -1.010295000e+00 -3.099000000e-03
