! prueba_sol / sol_corto / r03
# HZ S RI R 50
50000.0 -9.977940000e-01 -3.748300000e-02
59500.0 -9.951290000e-01 -1.727200000e-02
69000.0 -9.975890000e-01 -8.261000000e-03
78500.0 -9.988100000e-01 -6.570000000e-04
88000.0 -9.987540000e-01 5.130000000e-04
97500.0 -1.000351000e+00 7.050000000e-04
107000.0 -9.996590000e-01 -2.348000000e-03
116500.0 -9.991660000e-01 -5.883000000e-03
126000.0 -9.999430000e-01 -1.032000000e-02
135500.0 -9.992650000e-01 -1.656900000e-02
145000.0 -1.000422000e+00 -2.164900000e-02
154500.0 -9.995650000e-01 -2.788700000e-02
164000.0 -9.999050000e-01 -3.599700000e-02
173500.0 -9.997680000e-01 -4.322100000e-02
183000.0 -1.000600000e+00 -5.132100000e-02
192500.0 -9.996050000e-01 -5.980400000e-02
202000.0 -9.996850000e-01 -6.831000000e-02
211500.0 -1.000072000e+00 -7.688300000e-02
221000.0 -1.000111000e+00 -8.583800000e-02
230500.0 -1.000156000e+00 -9.425800000e-02
240000.0 -1.001117000e+00 -1.034490000e-01
249500.0 -1.001147000e+00 -1.128180000e-01
259000.0 -1.001759000e+00 -1.219120000e-01
268500.0 -1.001208000e+00 -1.308250000e-01
278000.0 -1.001289000e+00 -1.408900000e-01
287500.0 -1.002154000e+00 -1.492120000e-01
297000.0 -1.001876000e+00 -1.578300000e-01
306500.0 -1.001824000e+00 -1.676260000e-01
316000.0 -1.002559000e+00 -1.775910000e-01
325500.0 -1.002523000e+00 -1.869340000e-01
335000.0 -1.002312000e+00 -1.954980000e-01
344500.0 -1.002645000e+00 -2.053930000e-01
354000.0 -1.003886000e+00 -2.144510000e-01
363500.0 -1.003381000e+00 -2.239060000e-01
373000.0 -1.004018000e+00 -2.324890000e-01
382500.0 -1.004091000e+00 -2.418720000e-01
392000.0 -1.004291000e+00 -2.514500000e-01
401500.0 -1.004478000e+00 -2.609480000e-01
411000.0 -1.004410000e+00 -2.702790000e-01
420500.0 -1.005015000e+00 -2.790660000e-01
430000.0 -1.005093000e+00 -2.893460000e-01
439500.0 -1.004995000e+00 -2.981550000e-01
449000.0 -1.006031000e+00 -3.072740000e-01
458500.0 -1.005861000e+00 -3.166020000e-01
468000.0 -1.005852000e+00 -3.257710000e-01
477500.0 -1.005056000e+00 -3.337730000e-01
487000.0 -1.006473000e+00 -3.455880000e-01
496500.0 -1.006322000e+00 -3.539120000e-01
506000.0 -1.006416000e+00 -3.626940000e-01
515500.0 -1.007630000e+00 -3.727760000e-01
525000.0 -1.006543000e+00 -3.815320000e-01
534500.0 -1.007008000e+00 -3.914400000e-01
544000.0 -1.007631000e+00 -3.995540000e-01
553500.0 -1.008425000e+00 -4.093320000e-01
563000.0 -1.008028000e+00 -4.186630000e-01
572500.0 -1.008353000e+00 -4.281970000e-01
582000.0 -1.009138000e+00 -4.365420000e-01
591500.0 -1.009801000e+00 -4.466060000e-01
601000.0 -1.010378000e+00 -4.552340000e-01
610500.0 -1.010420000e+00 -4.649890000e-01
620000.0 -1.011341000e+00 -4.722430000e-01
629500.0 -1.012237000e+00 -4.818050000e-01
639000.0 -1.012380000e+00 -4.913050000e-01
648500.0 -1.013514000e+00 -5.002100000e-01
658000.0 -1.013296000e+00 -5.084670000e-01
667500.0 -1.014064000e+00 -5.183380000e-01
677000.0 -1.015152000e+00 -5.271290000e-01
686500.0 -1.015123000e+00 -5.359330000e-01
696000.0 -1.015747000e+00 -5.452270000e-01
705500.0 -1.017065000e+00 -5.546540000e-01
715000.0 -1.018063000e+00 -5.630740000e-01
724500.0 -1.019256000e+00 -5.711270000e-01
734000.0 -1.019546000e+00 -5.801320000e-01
743500.0 -1.020144000e+00 -5.888350000e-01
753000.0 -1.021873000e+00 -5.985350000e-01
762500.0 -1.013061000e+00 -6.272600000e-01
772000.0 -1.033524000e+00 -5.967230000e-01
781500.0 -1.014850000e+00 -6.442510000e-01
791000.0 -1.036091000e+00 -6.139280000e-01
800500.0 -1.016314000e+00 -6.629050000e-01
810000.0 -1.038839000e+00 -6.320350000e-01
819500.0 -1.019058000e+00 -6.815220000e-01
829000.0 -1.040349000e+00 -6.500180000e-01
838500.0 -1.021375000e+00 -6.988740000e-01
848000.0 -1.044179000e+00 -6.680030000e-01
857500.0 -1.034960000e+00 -6.961760000e-01
867000.0 -1.037247000e+00 -7.047460000e-01
876500.0 -1.037616000e+00 -7.138170000e-01
886000.0 -1.040935000e+00 -7.209170000e-01
895500.0 -1.041697000e+00 -7.299140000e-01
905000.0 -1.043023000e+00 -7.391720000e-01
914500.0 -1.046582000e+00 -7.471560000e-01
924000.0 -1.047537000e+00 -7.549750000e-01
933500.0 -1.048218000e+00 -7.643900000e-01
943000.0 -1.051296000e+00 -7.734340000e-01
952500.0 -1.053468000e+00 -7.804190000e-01
962000.0 -1.055583000e+00 -7.913970000e-01
971500.0 -1.058770000e+00 -7.998170000e-01
981000.0 -1.061968000e+00 -8.062420000e-01
990500.0 -1.064337000e+00 -8.162000000e-01
1000000.0 -1.067230000e+00 -8.241200000e-01
1090000.0 -1.095208000e+00 -8.999550000e-01
1180000.0 -1.131680000e+00 -9.740470000e-01
1270000.0 -1.179795000e+00 -1.042215000e+00
1360000.0 -1.234740000e+00 -1.104056000e+00
1450000.0 -1.301907000e+00 -1.154096000e+00
1540000.0 -1.380748000e+00 -1.190861000e+00
1630000.0 -1.465788000e+00 -1.209246000e+00
1720000.0 -1.555874000e+00 -1.212445000e+00
1810000.0 -1.643207000e+00 -1.190641000e+00
1900000.0 -1.729531000e+00 -1.148620000e+00
1990000.0 -1.800846000e+00 -1.083823000e+00
2080000.0 -1.858381000e+00 -1.008216000e+00
2170000.0 -1.896106000e+00 -9.170270000e-01
2260000.0 -1.913903000e+00 -8.260730000e-01
2350000.0 -1.917003000e+00 -7.368340000e-01
2440000.0 -1.901664000e+00 -6.499420000e-01
2530000.0 -1.873152000e+00 -5.709230000e-01
2620000.0 -1.840970000e+00 -5.023740000e-01
2710000.0 -1.802594000e+00 -4.400680000e-01
2800000.0 -1.761963000e+00 -3.905540000e-01
2890000.0 -1.713140000e+00 -2.600870000e-01
2980000.0 -1.675138000e+00 -3.049200000e-01
3070000.0 -1.636475000e+00 -2.710420000e-01
3160000.0 -1.596359000e+00 -2.418790000e-01
3250000.0 -1.558129000e+00 -2.165570000e-01
3340000.0 -1.523293000e+00 -1.938610000e-01
3430000.0 -1.491021000e+00 -1.751110000e-01
3520000.0 -1.460829000e+00 -1.534660000e-01
3610000.0 -1.430432000e+00 -1.390170000e-01
3700000.0 -1.403897000e+00 -1.209000000e-01
3790000.0 -1.380040000e+00 -1.068080000e-01
3880000.0 -1.356333000e+00 -9.311200000e-02
3970000.0 -1.334198000e+00 -7.884100000e-02
4060000.0 -1.315431000e+00 -6.658700000e-02
4150000.0 -1.296173000e+00 -5.433300000e-02
4240000.0 -1.280966000e+00 -4.245600000e-02
4330000.0 -1.264036000e+00 -2.971100000e-02
4420000.0 -1.250186000e+00 -1.855100000e-02
4510000.0 -1.235618000e+00 -6.975000000e-03
4600000.0 -1.224547000e+00 4.636000000e-03
4690000.0 -1.213932000e+00 1.699400000e-02
4780000.0 -1.204102000e+00 2.611200000e-02
4870000.0 -1.195698000e+00 3.765000000e-02
4960000.0 -1.188323000e+00 4.816100000e-02
5050000.0 -1.173448000e+00 5.899900000e-02
5140000.0 -1.167595000e+00 7.077900000e-02
5230000.0 -1.163578000e+00 8.072700000e-02
5320000.0 -1.157167000e+00 9.070600000e-02
5410000.0 -1.152373000e+00 1.010680000e-01
5500000.0 -1.148772000e+00 1.130620000e-01
5590000.0 -1.143170000e+00 1.229910000e-01
5680000.0 -1.139702000e+00 1.315510000e-01
5770000.0 -1.136812000e+00 1.411260000e-01
5860000.0 -1.132065000e+00 1.511630000e-01
5950000.0 -1.129271000e+00 1.586370000e-01
6040000.0 -1.124807000e+00 1.673870000e-01
6130000.0 -1.122028000e+00 1.774990000e-01
6220000.0 -1.120190000e+00 1.848580000e-01
6310000.0 -1.117131000e+00 1.926540000e-01
6400000.0 -1.115165000e+00 2.001760000e-01
6490000.0 -1.112103000e+00 2.068330000e-01
6580000.0 -1.110614000e+00 2.129880000e-01
6670000.0 -1.108635000e+00 2.187720000e-01
6760000.0 -1.107152000e+00 2.242980000e-01
6850000.0 -1.106237000e+00 2.276110000e-01
6940000.0 -1.104995000e+00 2.332780000e-01
7030000.0 -1.103576000e+00 2.367980000e-01
7120000.0 -1.103682000e+00 2.393850000e-01
7210000.0 -1.102304000e+00 2.407460000e-01
7300000.0 -1.101776000e+00 2.424130000e-01
7390000.0 -1.102129000e+00 2.433670000e-01
7480000.0 -1.100756000e+00 2.425110000e-01
7570000.0 1.954900000e-01 1.073893000e+00
7660000.0 1.962760000e-01 1.074517000e+00
7750000.0 1.941920000e-01 1.074747000e+00
7840000.0 1.948170000e-01 1.075344000e+00
7930000.0 1.924830000e-01 1.075239000e+00
8020000.0 1.919720000e-01 1.075849000e+00
8110000.0 1.910720000e-01 1.075232000e+00
8200000.0 1.901860000e-01 1.075213000e+00
8290000.0 1.900370000e-01 1.076467000e+00
8380000.0 1.887470000e-01 1.076419000e+00
8470000.0 1.888050000e-01 1.077740000e+00
8560000.0 1.875020000e-01 1.077634000e+00
8650000.0 1.860870000e-01 1.078100000e+00
8740000.0 1.858540000e-01 1.078917000e+00
8830000.0 1.854710000e-01 1.078942000e+00
8920000.0 1.847400000e-01 1.079744000e+00
9010000.0 1.842130000e-01 1.081050000e+00
9100000.0 1.836680000e-01 1.080375000e+00
9190000.0 1.829100000e-01 1.081740000e+00
9280000.0 1.824170000e-01 1.081099000e+00
9370000.0 1.810630000e-01 1.082957000e+00
9460000.0 1.799980000e-01 1.083821000e+00
9550000.0 1.801230000e-01 1.085467000e+00
9640000.0 1.804370000e-01 1.083906000e+00
9730000.0 1.788260000e-01 1.085273000e+00
9820000.0 1.772780000e-01 1.084360000e+00
9910000.0 1.771950000e-01 1.087595000e+00
10000000.0 1.772870000e-01 1.086725000e+00
10900000.0 1.700160000e-01 1.094702000e+00
11800000.0 1.628160000e-01 1.102186000e+00
12700000.0 1.581010000e-01 1.109965000e+00
13600000.0 1.506290000e-01 1.118506000e+00
14500000.0 1.445190000e-01 1.127410000e+00
15400000.0 1.367580000e-01 1.135957000e+00
16300000.0 1.316430000e-01 1.144451000e+00
17200000.0 1.233700000e-01 1.154651000e+00
18100000.0 1.166350000e-01 1.163919000e+00
19000000.0 1.098710000e-01 1.173405000e+00
19900000.0 1.009030000e-01 1.182599000e+00
20800000.0 9.318000000e-02 1.192439000e+00
21700000.0 8.593000000e-02 1.202020000e+00
22600000.0 7.411200000e-02 1.211864000e+00
23500000.0 6.644400000e-02 1.221554000e+00
24400000.0 5.559100000e-02 1.231026000e+00
25300000.0 4.692500000e-02 1.240782000e+00
26200000.0 3.659000000e-02 1.251398000e+00
27100000.0 2.567900000e-02 1.260693000e+00
28000000.0 1.424700000e-02 1.271274000e+00
28900000.0 2.597000000e-03 1.282286000e+00
29800000.0 -8.590000000e-03 1.292661000e+00
30700000.0 -4.418800000e-02 1.305730000e+00
31600000.0 -3.458300000e-02 1.311189000e+00
32500000.0 -4.814500000e-02 1.323011000e+00
33400000.0 -6.205000000e-02 1.332234000e+00
34300000.0 -7.575300000e-02 1.341413000e+00
35200000.0 -9.146800000e-02 1.351825000e+00
36100000.0 -1.053920000e-01 1.361052000e+00
37000000.0 -1.208670000e-01 1.371011000e+00
37900000.0 -1.376750000e-01 1.379395000e+00
38800000.0 -1.534560000e-01 1.388792000e+00
39700000.0 -1.695650000e-01 1.397290000e+00
40600000.0 -1.893530000e-01 1.404882000e+00
41500000.0 -2.078930000e-01 1.412274000e+00
42400000.0 -2.242560000e-01 1.421622000e+00
43300000.0 -2.436640000e-01 1.427979000e+00
44200000.0 -2.619080000e-01 1.435197000e+00
45100000.0 -2.821110000e-01 1.441454000e+00
46000000.0 -3.027840000e-01 1.447439000e+00
46900000.0 -3.229130000e-01 1.453821000e+00
47800000.0 -3.435840000e-01 1.458853000e+00
48700000.0 -3.639950000e-01 1.463723000e+00
49600000.0 -3.865400000e-01 1.467211000e+00
50500000.0 -4.085490000e-01 1.471690000e+00
51400000.0 -4.315460000e-01 1.475222000e+00
52300000.0 -4.541600000e-01 1.478074000e+00
53200000.0 -4.757080000e-01 1.478785000e+00
54100000.0 -4.999050000e-01 1.480624000e+00
55000000.0 -5.238270000e-01 1.481467000e+00
55900000.0 -5.469740000e-01 1.481396000e+00
56800000.0 -5.709890000e-01 1.480770000e+00
57700000.0 -5.944570000e-01 1.478829000e+00
58600000.0 -6.189410000e-01 1.479106000e+00
59500000.0 -6.422080000e-01 1.474770000e+00
60400000.0 -6.664740000e-01 1.472417000e+00
61300000.0 -6.922490000e-01 1.467482000e+00
62200000.0 -7.160440000e-01 1.462387000e+00
63100000.0 -7.406770000e-01 1.456773000e+00
64000000.0 -7.644090000e-01 1.450937000e+00
64900000.0 -7.889500000e-01 1.443423000e+00
65800000.0 -8.129130000e-01 1.436100000e+00
66700000.0 -8.372120000e-01 1.428319000e+00
67600000.0 -8.600360000e-01 1.418891000e+00
68500000.0 -8.836930000e-01 1.409000000e+00
69400000.0 -9.057200000e-01 1.398158000e+00
70300000.0 -9.313340000e-01 1.385735000e+00
71200000.0 -9.521380000e-01 1.374142000e+00
72100000.0 -9.756240000e-01 1.362532000e+00
73000000.0 -9.969690000e-01 1.348662000e+00
73900000.0 -1.017442000e+00 1.333959000e+00
74800000.0 -1.039163000e+00 1.319684000e+00
75700000.0 -1.061260000e+00 1.305212000e+00
76600000.0 -1.080445000e+00 1.290025000e+00
77500000.0 -1.101380000e+00 1.272177000e+00
78400000.0 -1.121840000e+00 1.254881000e+00
79300000.0 -1.140060000e+00 1.236665000e+00
80200000.0 -1.157450000e+00 1.220069000e+00
81100000.0 -1.177254000e+00 1.201656000e+00
82000000.0 -1.193200000e+00 1.182509000e+00
82900000.0 -1.209355000e+00 1.161291000e+00
83800000.0 -1.225583000e+00 1.140990000e+00
84700000.0 -1.240767000e+00 1.121186000e+00
85600000.0 -1.254633000e+00 1.099751000e+00
86500000.0 -1.269384000e+00 1.079485000e+00
87400000.0 -1.282971000e+00 1.058181000e+00
88300000.0 -1.295674000e+00 1.035573000e+00
89200000.0 -1.307351000e+00 1.014083000e+00
90100000.0 -1.318256000e+00 9.906750000e-01
91000000.0 -1.328283000e+00 9.694370000e-01
91900000.0 -1.337689000e+00 9.467730000e-01
92800000.0 -1.346583000e+00 9.222390000e-01
93700000.0 -1.353693000e+00 8.997640000e-01
94600000.0 -1.363458000e+00 8.786020000e-01
95500000.0 -1.368170000e+00 8.542080000e-01
96400000.0 -1.376036000e+00 8.309860000e-01
97300000.0 -1.381141000e+00 8.078580000e-01
98200000.0 -1.383225000e+00 7.844740000e-01
99100000.0 -1.389349000e+00 7.617430000e-01
100000000.0 -1.391645000e+00 7.388560000e-01
109000000.0 -1.386096000e+00 5.201610000e-01
118000000.0 -1.330147000e+00 3.399660000e-01
127000000.0 -1.250319000e+00 1.995600000e-01
136000000.0 -1.134679000e+00 1.002030000e-01
145000000.0 -1.046607000e+00 2.956800000e-02
154000000.0 -1.000563000e+00 -4.590000000e-04
163000000.0 -1.002521000e+00 -4.174000000e-03
172000000.0 -1.005236000e+00 -6.165000000e-03
181000000.0 -1.006040000e+00 -6.748000000e-03
190000000.0 -1.007503000e+00 -1.048300000e-02
199000000.0 -1.008567000e+00 -1.060500000e-02
208000000.0 -1.009746000e+00 -1.259600000e-02
217000000.0 -1.010632000e+00 -1.231900000e-02
226000000.0 -1.010852000e+00 -1.124200000e-02
235000000.0 -1.010895000e+00 -1.109200000e-02
244000000.0 -1.010276000e+00 -1.097000000e-02
253000000.0 -1.008992000e+00 -1.029300000e-02
262000000.0 -1.006926000e+00 -7.356000000e-03
271000000.0 -1.006296000e+00 -5.891000000e-03
280000000.0 -1.003360000e+00 -6.362000000e-03
289000000.0 -1.002941000e+00 -3.288000000e-03
298000000.0 -9.995190000e-01 -1.850000000e-04
307000000.0 -1.001447000e+00 -1.135000000e-03
316000000.0 -1.005843000e+00 -6.360000000e-04
325000000.0 -1.008729000e+00 -1.783000000e-03
334000000.0 -1.010476000e+00 -1.723000000e-03
343000000.0 -1.009612000e+00 -3.509000000e-03
352000000.0 -1.013811000e+00 -5.448000000e-03
361000000.0 -1.022842000e+00 -3.961600000e-02
370000000.0 -1.015362000e+00 -5.194000000e-03
379000000.0 -1.013796000e+00 -4.200000000e-03
388000000.0 -9.751030000e-01 9.355500000e-02
397000000.0 -1.021560000e+00 -3.966500000e-02
406000000.0 -1.012355000e+00 -2.895000000e-03
415000000.0 -1.027913000e+00 -5.573800000e-02
424000000.0 -1.009827000e+00 -1.124000000e-03
433000000.0 -1.006861000e+00 -3.349000000e-03
442000000.0 -1.002608000e+00 2.730000000e-04
451000000.0 -1.001046000e+00 7.860000000e-04
460000000.0 -1.004055000e+00 3.300000000e-05
469000000.0 -1.007687000e+00 1.764000000e-03
478000000.0 -1.010737000e+00 1.575000000e-03
487000000.0 -1.012234000e+00 2.699000000e-03
496000000.0 -1.015487000e+00 2.336000000e-03
505000000.0 -1.016597000e+00 2.788000000e-03
514000000.0 -1.017687000e+00 3.635000000e-03
523000000.0 -1.018500000e+00 3.973000000e-03
532000000.0 -1.017068000e+00 5.217000000e-03
541000000.0 -1.016630000e+00 2.150000000e-03
550000000.0 -1.015362000e+00 1.301000000e-03
559000000.0 -1.012783000e+00 3.819000000e-03
568000000.0 -1.010013000e+00 2.250000000e-03
577000000.0 -1.007073000e+00 4.177000000e-03
586000000.0 -1.007974000e+00 3.354000000e-03
595000000.0 -1.001890000e+00 -1.000000000e-05
604000000.0 -1.003219000e+00 1.559000000e-03
613000000.0 -1.004958000e+00 1.651000000e-03
622000000.0 -1.007635000e+00 5.834000000e-03
631000000.0 -1.006227000e+00 1.300300000e-02
640000000.0 -1.009051000e+00 1.212000000e-02
649000000.0 -1.008780000e+00 1.149600000e-02
658000000.0 -1.006506000e+00 2.738600000e-02
667000000.0 -1.010774000e+00 1.390000000e-02
676000000.0 -1.010482000e+00 9.549000000e-03
685000000.0 -1.012719000e+00 1.116600000e-02
694000000.0 -1.004543000e+00 3.578000000e-02
703000000.0 -1.006935000e+00 6.088000000e-03
712000000.0 -1.011202000e+00 -7.826000000e-03
721000000.0 -1.005370000e+00 7.712000000e-03
730000000.0 -1.001397000e+00 2.589300000e-02
739000000.0 -1.003066000e+00 5.437000000e-03
748000000.0 -1.000895000e+00 3.952000000e-03
757000000.0 -1.002034000e+00 -1.516600000e-02
766000000.0 -9.983190000e-01 5.174000000e-03
775000000.0 -9.997300000e-01 9.249000000e-03
784000000.0 -9.969390000e-01 8.105000000e-03
793000000.0 -9.992090000e-01 7.097000000e-03
802000000.0 -9.986890000e-01 8.182000000e-03
811000000.0 -9.958500000e-01 5.209000000e-03
820000000.0 -9.996190000e-01 4.255000000e-03
829000000.0 -9.950440000e-01 5.580000000e-03
838000000.0 -9.971120000e-01 5.040000000e-03
847000000.0 -9.978110000e-01 9.792000000e-03
856000000.0 -9.970610000e-01 9.240000000e-04
865000000.0 -9.994670000e-01 4.904000000e-03
874000000.0 -9.992520000e-01 -1.160000000e-04
883000000.0 -9.983790000e-01 -1.900000000e-04
892000000.0 -9.959220000e-01 3.900000000e-03
901000000.0 -9.952550000e-01 5.320000000e-04
910000000.0 -9.981800000e-01 -3.316000000e-03
919000000.0 -9.986970000e-01 -1.174000000e-03
928000000.0 -1.000413000e+00 -7.528000000e-03
937000000.0 -9.983340000e-01 -4.538000000e-03
946000000.0 -9.995670000e-01 -4.739000000e-03
955000000.0 -1.000394000e+00 -4.337000000e-03
964000000.0 -1.000978000e+00 -3.797000000e-03
973000000.0 -1.001135000e+00 -8.920000000e-03
982000000.0 -1.000812000e+00 -3.158000000e-03
991000000.0 -1.002854000e+00 -7.664000000e-03
1000000000.0 -1.003092000e+00 -7.311000000e-03
1004500000.0 -1.001614000e+00 -7.458000000e-03
1009000000.0 -9.993250000e-01 -7.629000000e-03
1013500000.0 -1.002616000e+00 -9.080000000e-03
1018000000.0 -1.003957000e+00 -6.212000000e-03
1022500000.0 -1.003215000e+00 -2.105000000e-03
1027000000.0 -9.991450000e-01 -5.942000000e-03
1031500000.0 -9.997330000e-01 -7.177000000e-03
1036000000.0 -9.980390000e-01 -3.129000000e-03
1040500000.0 -9.997770000e-01 -2.245000000e-03
1045000000.0 -1.000465000e+00 3.210000000e-04
1049500000.0 -1.001305000e+00 -8.620000000e-04
1054000000.0 -9.987980000e-01 -4.707000000e-03
1058500000.0 -9.995270000e-01 -5.362000000e-03
1063000000.0 -1.001698000e+00 -7.559000000e-03
1067500000.0 -1.003676000e+00 -5.574000000e-03
1072000000.0 -1.002356000e+00 -8.323000000e-03
1076500000.0 -1.005181000e+00 -1.244900000e-02
1081000000.0 -1.007597000e+00 -7.152000000e-03
1085500000.0 -1.004777000e+00 -1.059500000e-02
1090000000.0 -1.006249000e+00 -1.122300000e-02
1094500000.0 -1.005751000e+00 -1.137800000e-02
1099000000.0 -1.007800000e+00 -5.377000000e-03
1103500000.0 -1.006994000e+00 -1.479300000e-02
1108000000.0 -1.007837000e+00 -1.177900000e-02
1112500000.0 -1.006295000e+00 -1.233800000e-02
1117000000.0 -1.006298000e+00 -1.000200000e-02
1121500000.0 -9.740140000e-01 9.611600000e-02
1126000000.0 -1.013206000e+00 -9.499000000e-03
1130500000.0 -1.006660000e+00 -1.531000000e-02
1135000000.0 -1.006491000e+00 -6.153000000e-03
1139500000.0 -9.939660000e-01 2.457100000e-02
1144000000.0 -1.013772000e+00 -9.279000000e-03
1148500000.0 -1.001965000e+00 -7.888000000e-03
1153000000.0 -1.001701000e+00 -3.088000000e-03
1157500000.0 -1.006567000e+00 -8.992000000e-03
1162000000.0 -1.003287000e+00 -3.019000000e-03
1166500000.0 -1.004206000e+00 -6.753000000e-03
1171000000.0 -1.001558000e+00 -2.924000000e-03
1175500000.0 -1.002520000e+00 -9.796000000e-03
1180000000.0 -1.002962000e+00 -6.039000000e-03
1184500000.0 -9.983790000e-01 -1.285000000e-02
1189000000.0 -9.969850000e-01 -8.788000000e-03
1193500000.0 -9.931600000e-01 4.780000000e-04
1198000000.0 -9.972220000e-01 -6.190000000e-04
1202500000.0 -9.966780000e-01 -7.155000000e-03
1207000000.0 -9.949070000e-01 -3.124000000e-03
1211500000.0 -9.984830000e-01 -2.707000000e-03
1216000000.0 -9.948960000e-01 -6.079000000e-03
1220500000.0 -9.948350000e-01 -7.472000000e-03
1225000000.0 -1.002997000e+00 4.311000000e-03
1229500000.0 -9.992000000e-01 -4.570000000e-03
1234000000.0 -1.004484000e+00 -6.540000000e-03
1238500000.0 -1.005463000e+00 -2.902000000e-03
1243000000.0 -1.002614000e+00 2.740000000e-04
1247500000.0 -1.001415000e+00 -2.427000000e-03
1252000000.0 -1.001505000e+00 -2.200000000e-05
1256500000.0 -1.004894000e+00 -2.450000000e-04
1261000000.0 -1.010605000e+00 -5.293000000e-03
1265500000.0 -1.007976000e+00 -1.425000000e-02
1270000000.0 -1.006482000e+00 -6.570000000e-04
1274500000.0 -1.007957000e+00 -7.409000000e-03
1279000000.0 -1.005694000e+00 -4.033000000e-03
1283500000.0 -1.001722000e+00 -2.070000000e-03
1288000000.0 -1.001732000e+00 -8.808000000e-03
1292500000.0 -1.007688000e+00 -4.192000000e-03
1297000000.0 -1.009442000e+00 -5.136000000e-03
1301500000.0 -1.004105000e+00 -5.713000000e-03
1306000000.0 -1.000251000e+00 -1.882000000e-03
1310500000.0 -1.003186000e+00 -5.614000000e-03
1315000000.0 -9.977170000e-01 -7.831000000e-03
1319500000.0 -1.003837000e+00 8.770000000e-04
1324000000.0 -1.001911000e+00 -3.468000000e-03
1328500000.0 -9.925390000e-01 -1.528000000e-03
1333000000.0 -1.002640000e+00 -8.136000000e-03
1337500000.0 -9.919010000e-01 -8.055000000e-03
1342000000.0 -9.946040000e-01 -1.497000000e-03
1346500000.0 -9.921840000e-01 -6.490000000e-03
1351000000.0 -9.888790000e-01 -1.466000000e-03
1355500000.0 -9.876760000e-01 -4.167000000e-03
1360000000.0 -9.945740000e-01 5.710000000e-03
1364500000.0 -9.974240000e-01 -1.672000000e-03
1369000000.0 -9.991700000e-01 -7.766000000e-03
1373500000.0 -1.003207000e+00 4.930000000e-04
1378000000.0 -1.000219000e+00 -2.431000000e-03
1382500000.0 -1.001712000e+00 -1.184000000e-03
1387000000.0 -1.000431000e+00 3.829000000e-03
1391500000.0 -1.003143000e+00 1.500000000e-05
1396000000.0 -1.006236000e+00 -4.713000000e-03
1400500000.0 -1.004917000e+00 4.620000000e-04
1405000000.0 -1.012535000e+00 -3.192000000e-03
1409500000.0 -1.012368000e+00 1.279000000e-03
1414000000.0 -1.007290000e+00 -3.054000000e-03
1418500000.0 -1.006676000e+00 -2.937000000e-03
1423000000.0 -1.009122000e+00 -1.110000000e-03
1427500000.0 -1.019187000e+00 -7.366000000e-03
1432000000.0 -1.010656000e+00 -7.720000000e-03
1436500000.0 -1.009523000e+00 -8.182000000e-03
1441000000.0 -1.008114000e+00 -3.449000000e-03
1445500000.0 -1.013215000e+00 -4.191000000e-03
1450000000.0 -1.010024000e+00 -2.260000000e-04
