! prueba_sol / sol_corto / r01
# HZ S RI R 50
50000.0 -9.998580000e-01 -3.589500000e-02
59500.0 -9.946640000e-01 -1.715000000e-02
69000.0 -9.982480000e-01 -6.446000000e-03
78500.0 -9.984020000e-01 -1.735000000e-03
88000.0 -1.000025000e+00 1.283000000e-03
97500.0 -9.989720000e-01 5.530000000e-04
107000.0 -1.000567000e+00 -1.961000000e-03
116500.0 -1.000148000e+00 -5.199000000e-03
126000.0 -1.000117000e+00 -1.025800000e-02
135500.0 -1.000326000e+00 -1.521800000e-02
145000.0 -1.001446000e+00 -2.318200000e-02
154500.0 -1.000418000e+00 -2.904400000e-02
164000.0 -9.996760000e-01 -3.587600000e-02
173500.0 -1.000059000e+00 -4.330100000e-02
183000.0 -1.000546000e+00 -5.192100000e-02
192500.0 -1.000204000e+00 -5.947500000e-02
202000.0 -9.997150000e-01 -6.814000000e-02
211500.0 -1.000195000e+00 -7.697200000e-02
221000.0 -9.994710000e-01 -8.575300000e-02
230500.0 -1.000072000e+00 -9.437800000e-02
240000.0 -1.000522000e+00 -1.035700000e-01
249500.0 -1.000595000e+00 -1.131710000e-01
259000.0 -1.001583000e+00 -1.219610000e-01
268500.0 -1.001887000e+00 -1.306390000e-01
278000.0 -1.001563000e+00 -1.405030000e-01
287500.0 -1.002142000e+00 -1.505090000e-01
297000.0 -1.002033000e+00 -1.583190000e-01
306500.0 -1.002654000e+00 -1.688720000e-01
316000.0 -1.001679000e+00 -1.783260000e-01
325500.0 -1.003135000e+00 -1.869120000e-01
335000.0 -1.003703000e+00 -1.956520000e-01
344500.0 -1.002900000e+00 -2.050200000e-01
354000.0 -1.003545000e+00 -2.146790000e-01
363500.0 -1.003983000e+00 -2.233510000e-01
373000.0 -1.003812000e+00 -2.327650000e-01
382500.0 -1.003858000e+00 -2.433130000e-01
392000.0 -1.004360000e+00 -2.515110000e-01
401500.0 -1.004781000e+00 -2.607540000e-01
411000.0 -1.004747000e+00 -2.701100000e-01
420500.0 -1.004943000e+00 -2.800880000e-01
430000.0 -1.004921000e+00 -2.897350000e-01
439500.0 -1.004558000e+00 -2.984300000e-01
449000.0 -1.004673000e+00 -3.082760000e-01
458500.0 -1.004958000e+00 -3.166120000e-01
468000.0 -1.005738000e+00 -3.263090000e-01
477500.0 -1.005953000e+00 -3.365530000e-01
487000.0 -1.005627000e+00 -3.445350000e-01
496500.0 -1.007207000e+00 -3.549250000e-01
506000.0 -1.007598000e+00 -3.642070000e-01
515500.0 -1.007431000e+00 -3.730120000e-01
525000.0 -1.007429000e+00 -3.824200000e-01
534500.0 -1.007519000e+00 -3.917060000e-01
544000.0 -1.007074000e+00 -4.005290000e-01
553500.0 -1.008291000e+00 -4.101050000e-01
563000.0 -1.008946000e+00 -4.189950000e-01
572500.0 -1.009364000e+00 -4.289630000e-01
582000.0 -1.008961000e+00 -4.373280000e-01
591500.0 -1.010119000e+00 -4.464130000e-01
601000.0 -1.011149000e+00 -4.551000000e-01
610500.0 -1.011130000e+00 -4.655860000e-01
620000.0 -1.012133000e+00 -4.739100000e-01
629500.0 -1.012246000e+00 -4.836880000e-01
639000.0 -1.012073000e+00 -4.918490000e-01
648500.0 -1.013686000e+00 -5.005940000e-01
658000.0 -1.014486000e+00 -5.103510000e-01
667500.0 -1.015350000e+00 -5.185540000e-01
677000.0 -1.014901000e+00 -5.285760000e-01
686500.0 -1.017066000e+00 -5.370500000e-01
696000.0 -1.016842000e+00 -5.459180000e-01
705500.0 -1.017769000e+00 -5.548820000e-01
715000.0 -1.018397000e+00 -5.640020000e-01
724500.0 -1.019898000e+00 -5.717180000e-01
734000.0 -1.020692000e+00 -5.821080000e-01
743500.0 -1.020656000e+00 -5.915940000e-01
753000.0 -1.022811000e+00 -6.007650000e-01
762500.0 -1.022996000e+00 -6.087660000e-01
772000.0 -1.023599000e+00 -6.180420000e-01
781500.0 -1.025510000e+00 -6.267980000e-01
791000.0 -1.026020000e+00 -6.349090000e-01
800500.0 -1.026966000e+00 -6.446650000e-01
810000.0 -1.029088000e+00 -6.537220000e-01
819500.0 -1.030378000e+00 -6.614120000e-01
829000.0 -1.031623000e+00 -6.708410000e-01
838500.0 -1.032146000e+00 -6.797480000e-01
848000.0 -1.033252000e+00 -6.882840000e-01
857500.0 -1.036353000e+00 -6.970250000e-01
867000.0 -1.037972000e+00 -7.049880000e-01
876500.0 -1.039032000e+00 -7.141490000e-01
886000.0 -1.040991000e+00 -7.224990000e-01
895500.0 -1.041991000e+00 -7.306280000e-01
905000.0 -1.045072000e+00 -7.399850000e-01
914500.0 -1.046193000e+00 -7.486170000e-01
924000.0 -1.048485000e+00 -7.577130000e-01
933500.0 -1.051268000e+00 -7.655080000e-01
943000.0 -1.052278000e+00 -7.742030000e-01
952500.0 -1.055925000e+00 -7.829080000e-01
962000.0 -1.056658000e+00 -7.921170000e-01
971500.0 -1.060912000e+00 -7.991670000e-01
981000.0 -1.061961000e+00 -8.077990000e-01
990500.0 -1.064977000e+00 -8.164020000e-01
1000000.0 -1.067215000e+00 -8.250760000e-01
1090000.0 -1.097182000e+00 -9.008310000e-01
1180000.0 -1.133807000e+00 -9.743450000e-01
1270000.0 -1.181108000e+00 -1.044770000e+00
1360000.0 -1.236332000e+00 -1.105399000e+00
1450000.0 -1.304337000e+00 -1.155760000e+00
1540000.0 -1.383688000e+00 -1.193114000e+00
1630000.0 -1.466989000e+00 -1.214232000e+00
1720000.0 -1.557033000e+00 -1.210623000e+00
1810000.0 -1.649099000e+00 -1.189263000e+00
1900000.0 -1.733001000e+00 -1.147486000e+00
1990000.0 -1.802525000e+00 -1.080623000e+00
2080000.0 -1.858917000e+00 -1.000922000e+00
2170000.0 -1.897881000e+00 -9.141090000e-01
2260000.0 -1.915819000e+00 -8.230910000e-01
2350000.0 -1.915278000e+00 -7.344370000e-01
2440000.0 -1.902373000e+00 -6.470880000e-01
2530000.0 -1.875873000e+00 -5.701630000e-01
2620000.0 -1.840221000e+00 -5.000030000e-01
2710000.0 -1.802081000e+00 -4.400830000e-01
2800000.0 -1.759951000e+00 -3.863600000e-01
2890000.0 -1.717027000e+00 -3.413750000e-01
2980000.0 -1.674809000e+00 -3.044120000e-01
3070000.0 -1.633643000e+00 -2.694760000e-01
3160000.0 -1.595684000e+00 -2.423180000e-01
3250000.0 -1.557601000e+00 -2.152630000e-01
3340000.0 -1.523324000e+00 -1.915480000e-01
3430000.0 -1.488521000e+00 -1.727680000e-01
3520000.0 -1.456965000e+00 -1.536310000e-01
3610000.0 -1.429987000e+00 -1.372430000e-01
3700000.0 -1.404198000e+00 -1.220930000e-01
3790000.0 -1.379132000e+00 -1.064810000e-01
3880000.0 -1.356260000e+00 -9.230100000e-02
3970000.0 -1.334306000e+00 -8.001200000e-02
4060000.0 -1.314787000e+00 -6.745400000e-02
4150000.0 -1.295946000e+00 -5.558300000e-02
4240000.0 -1.278872000e+00 -4.254300000e-02
4330000.0 -1.263759000e+00 -3.061900000e-02
4420000.0 -1.249220000e+00 -1.734200000e-02
4510000.0 -1.237174000e+00 -6.807000000e-03
4600000.0 -1.224202000e+00 3.296000000e-03
4690000.0 -1.213306000e+00 1.601900000e-02
4780000.0 -1.202685000e+00 2.755600000e-02
4870000.0 -1.195885000e+00 3.742400000e-02
4960000.0 -1.186698000e+00 4.942400000e-02
5050000.0 -1.172905000e+00 5.831400000e-02
5140000.0 -1.167115000e+00 6.939700000e-02
5230000.0 -1.162319000e+00 7.980300000e-02
5320000.0 -1.157061000e+00 9.069600000e-02
5410000.0 -1.152868000e+00 1.008500000e-01
5500000.0 -1.147027000e+00 1.113160000e-01
5590000.0 -1.142856000e+00 1.214340000e-01
5680000.0 -1.139561000e+00 1.312100000e-01
5770000.0 -1.136152000e+00 1.407580000e-01
5860000.0 -1.132113000e+00 1.504600000e-01
5950000.0 -1.128437000e+00 1.596140000e-01
6040000.0 -1.125847000e+00 1.677240000e-01
6130000.0 -1.122440000e+00 1.769150000e-01
6220000.0 -1.119413000e+00 1.853850000e-01
6310000.0 -1.117088000e+00 1.923990000e-01
6400000.0 -1.114203000e+00 1.996070000e-01
6490000.0 -1.113619000e+00 2.065300000e-01
6580000.0 -1.111511000e+00 2.120950000e-01
6670000.0 -1.109177000e+00 2.189810000e-01
6760000.0 -1.108383000e+00 2.243650000e-01
6850000.0 -1.105590000e+00 2.288730000e-01
6940000.0 -1.104513000e+00 2.327860000e-01
7030000.0 -1.104616000e+00 2.364860000e-01
7120000.0 -1.103244000e+00 2.392000000e-01
7210000.0 -1.103199000e+00 2.409030000e-01
7300000.0 -1.101915000e+00 2.424030000e-01
7390000.0 -1.101413000e+00 2.423490000e-01
7480000.0 -1.102711000e+00 2.418970000e-01
7570000.0 1.960650000e-01 1.073519000e+00
7660000.0 1.941840000e-01 1.073246000e+00
7750000.0 1.945960000e-01 1.074235000e+00
7840000.0 1.930630000e-01 1.074795000e+00
7930000.0 1.919190000e-01 1.074199000e+00
8020000.0 1.923230000e-01 1.075529000e+00
8110000.0 1.913040000e-01 1.076215000e+00
8200000.0 1.902600000e-01 1.075555000e+00
8290000.0 1.891900000e-01 1.076512000e+00
8380000.0 1.877680000e-01 1.077327000e+00
8470000.0 1.883200000e-01 1.076914000e+00
8560000.0 1.872490000e-01 1.077917000e+00
8650000.0 1.869230000e-01 1.078457000e+00
8740000.0 1.860810000e-01 1.079074000e+00
8830000.0 1.850060000e-01 1.078907000e+00
8920000.0 1.850230000e-01 1.079982000e+00
9010000.0 1.844390000e-01 1.081047000e+00
9100000.0 1.826350000e-01 1.081326000e+00
9190000.0 1.823880000e-01 1.080727000e+00
9280000.0 1.808980000e-01 1.081103000e+00
9370000.0 1.802720000e-01 1.082724000e+00
9460000.0 1.803730000e-01 1.083392000e+00
9550000.0 1.782730000e-01 1.084089000e+00
9640000.0 1.793290000e-01 1.085046000e+00
9730000.0 1.779230000e-01 1.086211000e+00
9820000.0 1.774380000e-01 1.085666000e+00
9910000.0 1.770910000e-01 1.085799000e+00
10000000.0 1.765810000e-01 1.086646000e+00
10900000.0 1.702800000e-01 1.094287000e+00
11800000.0 1.634750000e-01 1.102351000e+00
12700000.0 1.574590000e-01 1.110844000e+00
13600000.0 1.502500000e-01 1.117696000e+00
14500000.0 1.442940000e-01 1.127222000e+00
15400000.0 1.382110000e-01 1.135377000e+00
16300000.0 1.314270000e-01 1.145125000e+00
17200000.0 1.240910000e-01 1.155665000e+00
18100000.0 1.171200000e-01 1.164145000e+00
19000000.0 1.098790000e-01 1.172712000e+00
19900000.0 1.009800000e-01 1.182781000e+00
20800000.0 9.344500000e-02 1.191634000e+00
21700000.0 8.391700000e-02 1.201711000e+00
22600000.0 7.561700000e-02 1.211860000e+00
23500000.0 6.626300000e-02 1.222244000e+00
24400000.0 5.664400000e-02 1.232665000e+00
25300000.0 4.750700000e-02 1.241975000e+00
26200000.0 3.572200000e-02 1.251818000e+00
27100000.0 2.465200000e-02 1.261330000e+00
28000000.0 1.459300000e-02 1.271185000e+00
28900000.0 4.674700000e-02 1.268928000e+00
29800000.0 -8.577000000e-03 1.292742000e+00
30700000.0 -2.208200000e-02 1.301266000e+00
31600000.0 -3.458000000e-02 1.311812000e+00
32500000.0 -4.838300000e-02 1.322955000e+00
33400000.0 -6.163800000e-02 1.331686000e+00
34300000.0 -7.635100000e-02 1.342805000e+00
35200000.0 -9.045200000e-02 1.351451000e+00
36100000.0 -1.058530000e-01 1.360903000e+00
37000000.0 -1.214030000e-01 1.370322000e+00
37900000.0 -1.384330000e-01 1.379974000e+00
38800000.0 -1.550490000e-01 1.387916000e+00
39700000.0 -1.712430000e-01 1.396755000e+00
40600000.0 -1.877260000e-01 1.405710000e+00
41500000.0 -2.070660000e-01 1.413093000e+00
42400000.0 -2.248570000e-01 1.421511000e+00
43300000.0 -2.433190000e-01 1.427488000e+00
44200000.0 -2.631370000e-01 1.434690000e+00
45100000.0 -2.820830000e-01 1.441154000e+00
46000000.0 -3.031010000e-01 1.449742000e+00
46900000.0 -3.230180000e-01 1.455115000e+00
47800000.0 -3.438220000e-01 1.459928000e+00
48700000.0 -3.654610000e-01 1.464086000e+00
49600000.0 -3.867800000e-01 1.468997000e+00
50500000.0 -4.098310000e-01 1.471811000e+00
51400000.0 -4.323100000e-01 1.474679000e+00
52300000.0 -4.547820000e-01 1.477391000e+00
53200000.0 -4.765910000e-01 1.478598000e+00
54100000.0 -4.996200000e-01 1.481571000e+00
55000000.0 -5.226590000e-01 1.481846000e+00
55900000.0 -5.461460000e-01 1.479976000e+00
56800000.0 -5.693620000e-01 1.482046000e+00
57700000.0 -5.941140000e-01 1.481272000e+00
58600000.0 -6.200980000e-01 1.479045000e+00
59500000.0 -6.426550000e-01 1.474526000e+00
60400000.0 -6.662930000e-01 1.472708000e+00
61300000.0 -6.919280000e-01 1.467908000e+00
62200000.0 -7.151490000e-01 1.462675000e+00
63100000.0 -7.407160000e-01 1.456561000e+00
64000000.0 -7.638950000e-01 1.450401000e+00
64900000.0 -7.892300000e-01 1.444524000e+00
65800000.0 -7.869500000e-01 1.443838000e+00
66700000.0 -8.355120000e-01 1.427083000e+00
67600000.0 -8.604480000e-01 1.418441000e+00
68500000.0 -8.834290000e-01 1.407471000e+00
69400000.0 -9.061100000e-01 1.398153000e+00
70300000.0 -9.297760000e-01 1.386343000e+00
71200000.0 -9.793810000e-01 1.362880000e+00
72100000.0 -9.748820000e-01 1.361721000e+00
73000000.0 -9.980360000e-01 1.349418000e+00
73900000.0 -1.018113000e+00 1.334009000e+00
74800000.0 -1.038955000e+00 1.321060000e+00
75700000.0 -1.060387000e+00 1.303419000e+00
76600000.0 -1.080929000e+00 1.288293000e+00
77500000.0 -1.101252000e+00 1.273567000e+00
78400000.0 -1.121797000e+00 1.254637000e+00
79300000.0 -1.139981000e+00 1.239516000e+00
80200000.0 -1.157417000e+00 1.218608000e+00
81100000.0 -1.175375000e+00 1.201521000e+00
82000000.0 -1.192476000e+00 1.180967000e+00
82900000.0 -1.208337000e+00 1.162430000e+00
83800000.0 -1.225539000e+00 1.141691000e+00
84700000.0 -1.240722000e+00 1.121672000e+00
85600000.0 -1.254430000e+00 1.100566000e+00
86500000.0 -1.269178000e+00 1.079435000e+00
87400000.0 -1.281273000e+00 1.058189000e+00
88300000.0 -1.293598000e+00 1.037134000e+00
89200000.0 -1.308136000e+00 1.014055000e+00
90100000.0 -1.317266000e+00 9.918830000e-01
91000000.0 -1.328944000e+00 9.685980000e-01
91900000.0 -1.339387000e+00 9.455280000e-01
92800000.0 -1.346902000e+00 9.237610000e-01
93700000.0 -1.352576000e+00 8.995320000e-01
94600000.0 -1.362283000e+00 8.772120000e-01
95500000.0 -1.368862000e+00 8.528850000e-01
96400000.0 -1.375183000e+00 8.311780000e-01
97300000.0 -1.380033000e+00 8.068010000e-01
98200000.0 -1.385205000e+00 7.831370000e-01
99100000.0 -1.388924000e+00 7.607200000e-01
100000000.0 -1.391742000e+00 7.374350000e-01
109000000.0 -1.397865000e+00 4.976250000e-01
118000000.0 -1.340176000e+00 3.164020000e-01
127000000.0 -1.256635000e+00 1.798170000e-01
136000000.0 -1.133686000e+00 1.015000000e-01
145000000.0 -1.046156000e+00 3.000000000e-02
154000000.0 -1.000147000e+00 -1.382000000e-03
163000000.0 -1.001756000e+00 -3.361000000e-03
172000000.0 -1.004259000e+00 -5.270000000e-03
181000000.0 -1.006184000e+00 -8.412000000e-03
190000000.0 -1.007491000e+00 -8.213000000e-03
199000000.0 -1.008007000e+00 -1.071700000e-02
208000000.0 -1.009877000e+00 -1.165600000e-02
217000000.0 -1.010522000e+00 -1.200400000e-02
226000000.0 -1.010390000e+00 -1.138500000e-02
235000000.0 -1.010238000e+00 -1.161800000e-02
244000000.0 -1.009817000e+00 -1.187400000e-02
253000000.0 -1.008780000e+00 -9.124000000e-03
262000000.0 -1.007781000e+00 -8.488000000e-03
271000000.0 -1.007370000e+00 -7.513000000e-03
280000000.0 -1.003945000e+00 -7.464000000e-03
289000000.0 -1.002058000e+00 -2.001000000e-03
298000000.0 -1.000836000e+00 9.120000000e-04
307000000.0 -1.001682000e+00 -7.480000000e-04
316000000.0 -1.004434000e+00 -2.805000000e-03
325000000.0 -1.009203000e+00 -2.407000000e-03
334000000.0 -1.010298000e+00 -2.976000000e-03
343000000.0 -1.010585000e+00 -2.480000000e-03
352000000.0 -1.011562000e+00 -3.656000000e-03
361000000.0 -1.022202000e+00 -3.929200000e-02
370000000.0 -1.013941000e+00 -5.922000000e-03
379000000.0 -1.016624000e+00 -2.179600000e-02
388000000.0 -1.031824000e+00 -5.352700000e-02
397000000.0 -1.015161000e+00 -2.129200000e-02
406000000.0 -1.012282000e+00 -1.653000000e-03
415000000.0 -1.009835000e+00 -3.375000000e-03
424000000.0 -1.008506000e+00 -3.420000000e-04
433000000.0 -1.006140000e+00 -1.257000000e-03
442000000.0 -1.002474000e+00 4.900000000e-05
451000000.0 -1.000942000e+00 2.208000000e-03
460000000.0 -1.004288000e+00 -1.479000000e-03
469000000.0 -1.007988000e+00 1.171000000e-03
478000000.0 -1.010293000e+00 -4.420000000e-04
487000000.0 -1.012989000e+00 2.672000000e-03
496000000.0 -1.014135000e+00 8.380000000e-04
505000000.0 -1.016238000e+00 3.853000000e-03
514000000.0 -1.017026000e+00 1.140000000e-03
523000000.0 -1.018612000e+00 3.183000000e-03
532000000.0 -1.017283000e+00 4.799000000e-03
541000000.0 -1.015859000e+00 3.019000000e-03
550000000.0 -1.015982000e+00 2.997000000e-03
559000000.0 -1.011737000e+00 4.479000000e-03
568000000.0 -1.009057000e+00 -2.970000000e-04
577000000.0 -1.010302000e+00 1.422000000e-03
586000000.0 -1.005324000e+00 2.366000000e-03
595000000.0 -1.002726000e+00 3.703000000e-03
604000000.0 -1.002311000e+00 1.216000000e-03
613000000.0 -1.004654000e+00 5.388000000e-03
622000000.0 -1.006469000e+00 7.683000000e-03
631000000.0 -1.010144000e+00 8.122000000e-03
640000000.0 -1.008955000e+00 1.153400000e-02
649000000.0 -1.009415000e+00 9.529000000e-03
658000000.0 -1.014427000e+00 1.313300000e-02
667000000.0 -1.011068000e+00 1.409600000e-02
676000000.0 -1.013488000e+00 1.335800000e-02
685000000.0 -1.014134000e+00 9.257000000e-03
694000000.0 -1.010706000e+00 1.226200000e-02
703000000.0 -1.008325000e+00 1.734500000e-02
712000000.0 -1.005715000e+00 7.624000000e-03
721000000.0 -1.008389000e+00 8.729000000e-03
730000000.0 -1.004128000e+00 8.443000000e-03
739000000.0 -1.000319000e+00 8.761000000e-03
748000000.0 -9.980100000e-01 2.130000000e-03
757000000.0 -9.977930000e-01 2.493000000e-03
766000000.0 -1.000776000e+00 4.169000000e-03
775000000.0 -1.001291000e+00 4.573000000e-03
784000000.0 -1.000429000e+00 6.668000000e-03
793000000.0 -9.948950000e-01 7.316000000e-03
802000000.0 -9.997980000e-01 9.186000000e-03
811000000.0 -9.986720000e-01 1.270800000e-02
820000000.0 -1.001338000e+00 1.352100000e-02
829000000.0 -9.971480000e-01 9.244000000e-03
838000000.0 -9.968440000e-01 9.782000000e-03
847000000.0 -9.965830000e-01 7.675000000e-03
856000000.0 -9.983240000e-01 2.299000000e-03
865000000.0 -9.999850000e-01 4.562000000e-03
874000000.0 -9.956790000e-01 6.352000000e-03
883000000.0 -9.967570000e-01 -2.985000000e-03
892000000.0 -1.001008000e+00 -2.500000000e-04
901000000.0 -1.000656000e+00 -3.718000000e-03
910000000.0 -9.994730000e-01 1.025000000e-03
919000000.0 -9.992140000e-01 -6.726000000e-03
928000000.0 -9.982300000e-01 4.060000000e-04
937000000.0 -1.001087000e+00 -6.149000000e-03
946000000.0 -9.983320000e-01 -9.406000000e-03
955000000.0 -1.001831000e+00 -4.879000000e-03
964000000.0 -1.002227000e+00 -5.392000000e-03
973000000.0 -1.001655000e+00 -5.617000000e-03
982000000.0 -1.001436000e+00 -6.690000000e-03
991000000.0 -1.000422000e+00 -7.789000000e-03
1000000000.0 -1.001783000e+00 -2.834000000e-03
1004500000.0 -1.002473000e+00 -8.786000000e-03
1009000000.0 -1.000630000e+00 -3.413000000e-03
1013500000.0 -1.000847000e+00 -6.917000000e-03
1018000000.0 -1.004010000e+00 -5.838000000e-03
1022500000.0 -1.002325000e+00 -9.014000000e-03
1027000000.0 -1.000789000e+00 -2.239000000e-03
1031500000.0 -1.000998000e+00 -3.628000000e-03
1036000000.0 -1.003364000e+00 -6.759000000e-03
1040500000.0 -1.003435000e+00 -6.391000000e-03
1045000000.0 -1.001431000e+00 -2.500000000e-03
1049500000.0 -9.980250000e-01 -4.081000000e-03
1054000000.0 -1.001946000e+00 -1.564000000e-03
1058500000.0 -1.000375000e+00 -3.531000000e-03
1063000000.0 -9.987910000e-01 -5.269000000e-03
1067500000.0 -1.004898000e+00 -1.009100000e-02
1072000000.0 -1.005657000e+00 -1.021300000e-02
1076500000.0 -1.006349000e+00 -5.081000000e-03
1081000000.0 -1.004179000e+00 -7.157000000e-03
1085500000.0 -1.007283000e+00 -1.348800000e-02
1090000000.0 -1.010788000e+00 -9.057000000e-03
1094500000.0 -1.006431000e+00 -1.338800000e-02
1099000000.0 -1.006234000e+00 -1.334800000e-02
1103500000.0 -1.007357000e+00 -5.163000000e-03
1108000000.0 -1.009052000e+00 -3.865000000e-03
1112500000.0 -1.004128000e+00 -8.253000000e-03
1117000000.0 -1.009586000e+00 -1.217000000e-03
1121500000.0 -1.010114000e+00 -1.010800000e-02
1126000000.0 -1.010786000e+00 -1.036800000e-02
1130500000.0 -1.006715000e+00 -2.897500000e-02
1135000000.0 -1.011291000e+00 -3.006600000e-02
1139500000.0 -1.007914000e+00 -8.756000000e-03
1144000000.0 -1.008655000e+00 -4.919000000e-03
1148500000.0 -1.003963000e+00 -1.522000000e-03
1153000000.0 -1.013569000e+00 -2.480900000e-02
1157500000.0 -1.011048000e+00 -9.232000000e-03
1162000000.0 -1.006113000e+00 -7.645000000e-03
1166500000.0 -1.004916000e+00 -7.634000000e-03
1171000000.0 -1.004441000e+00 -8.105000000e-03
1175500000.0 -1.002424000e+00 -3.637000000e-03
1180000000.0 -1.002747000e+00 -8.324000000e-03
1184500000.0 -9.995760000e-01 -6.425000000e-03
1189000000.0 -1.000467000e+00 -3.083000000e-03
1193500000.0 -9.964690000e-01 -1.423000000e-03
1198000000.0 -9.961900000e-01 1.300000000e-05
1202500000.0 -1.001958000e+00 -2.790000000e-03
1207000000.0 -9.983550000e-01 1.555000000e-03
1211500000.0 -9.958430000e-01 5.000000000e-06
1216000000.0 -9.932480000e-01 3.460000000e-04
1220500000.0 -9.997520000e-01 -4.885000000e-03
1225000000.0 -1.003492000e+00 3.470000000e-03
1229500000.0 -1.000398000e+00 -5.307000000e-03
1234000000.0 -1.000935000e+00 -1.260000000e-04
1238500000.0 -1.002247000e+00 1.594000000e-03
1243000000.0 -1.008584000e+00 -1.826000000e-03
1247500000.0 -1.005438000e+00 -1.002400000e-02
1252000000.0 -1.009940000e+00 -5.932000000e-03
1256500000.0 -1.003826000e+00 -6.470000000e-03
1261000000.0 -9.983700000e-01 -4.762000000e-03
1265500000.0 -1.005933000e+00 -5.427000000e-03
1270000000.0 -1.003849000e+00 -6.704000000e-03
1274500000.0 -1.003827000e+00 -7.907000000e-03
1279000000.0 -1.005877000e+00 -6.568000000e-03
1283500000.0 -1.006941000e+00 -6.949000000e-03
1288000000.0 -1.003801000e+00 -5.613000000e-03
1292500000.0 -1.003264000e+00 5.670000000e-04
1297000000.0 -1.006828000e+00 4.775000000e-03
1301500000.0 -9.998180000e-01 -4.545000000e-03
1306000000.0 -9.997690000e-01 -2.495000000e-03
1310500000.0 -9.994430000e-01 -1.551000000e-03
1315000000.0 -1.004749000e+00 -2.225000000e-03
1319500000.0 -9.977720000e-01 -6.374000000e-03
1324000000.0 -9.986570000e-01 -3.345000000e-03
1328500000.0 -9.961630000e-01 1.833000000e-03
1333000000.0 -9.952970000e-01 -1.086200000e-02
1337500000.0 -1.000508000e+00 -1.900000000e-04
1342000000.0 -9.988480000e-01 3.042000000e-03
1346500000.0 -9.914000000e-01 6.704000000e-03
1351000000.0 -9.915100000e-01 -1.713000000e-03
1355500000.0 -9.967780000e-01 -6.801000000e-03
1360000000.0 -9.950070000e-01 -6.889000000e-03
1364500000.0 -9.998110000e-01 -6.117000000e-03
1369000000.0 -9.978190000e-01 1.357000000e-03
1373500000.0 -9.918000000e-01 -7.047000000e-03
1378000000.0 -1.000645000e+00 1.700000000e-05
1382500000.0 -1.005191000e+00 2.269000000e-03
1387000000.0 -1.003280000e+00 4.096000000e-03
1391500000.0 -1.002673000e+00 7.984000000e-03
1396000000.0 -1.004397000e+00 -2.456000000e-03
1400500000.0 -1.009916000e+00 -1.156000000e-03
1405000000.0 -1.011422000e+00 -3.506000000e-03
1409500000.0 -1.004757000e+00 -5.354000000e-03
1414000000.0 -1.008852000e+00 6.600000000e-05
1418500000.0 -1.012709000e+00 -7.960000000e-04
1423000000.0 -1.012538000e+00 -2.278000000e-03
1427500000.0 -1.016236000e+00 -6.690000000e-03
1432000000.0 -1.011042000e+00 -2.785000000e-03
1436500000.0 -1.010403000e+00 -1.360000000e-03
1441000000.0 -1.009569000e+00 -7.809000000e-03
1445500000.0 -1.010663000e+00 -2.025000000e-03
1450000000.0 -1.009585000e+00 -7.007000000e-03
