! prueba_sol / sol_corto / r05
# HZ S RI R 50
50000.0 -9.981730000e-01 -3.765700000e-02
59500.0 -9.997020000e-01 -1.759800000e-02
69000.0 -9.986520000e-01 -8.025000000e-03
78500.0 -9.982380000e-01 -1.193000000e-03
88000.0 -9.990410000e-01 5.620000000e-04
97500.0 -1.000336000e+00 -8.000000000e-06
107000.0 -9.998720000e-01 -1.747000000e-03
116500.0 -9.996450000e-01 -5.943000000e-03
126000.0 -1.000719000e+00 -1.043900000e-02
135500.0 -1.000642000e+00 -1.612900000e-02
145000.0 -9.993930000e-01 -2.179000000e-02
154500.0 -1.000654000e+00 -2.910700000e-02
164000.0 -9.998730000e-01 -3.631300000e-02
173500.0 -9.996380000e-01 -4.384000000e-02
183000.0 -1.000033000e+00 -5.122700000e-02
192500.0 -9.998740000e-01 -5.994100000e-02
202000.0 -1.000058000e+00 -6.833100000e-02
211500.0 -1.000744000e+00 -7.713000000e-02
221000.0 -1.000463000e+00 -8.548200000e-02
230500.0 -1.000911000e+00 -9.447000000e-02
240000.0 -1.010775000e+00 -1.030150000e-01
249500.0 -1.000324000e+00 -1.126230000e-01
259000.0 -1.001040000e+00 -1.214090000e-01
268500.0 -1.000914000e+00 -1.300910000e-01
278000.0 -1.001555000e+00 -1.403430000e-01
287500.0 -1.001491000e+00 -1.491220000e-01
297000.0 -1.002002000e+00 -1.584430000e-01
306500.0 -1.002427000e+00 -1.682010000e-01
316000.0 -1.002222000e+00 -1.770450000e-01
325500.0 -1.003316000e+00 -1.860540000e-01
335000.0 -1.002534000e+00 -1.959860000e-01
344500.0 -1.002986000e+00 -2.052820000e-01
354000.0 -1.003440000e+00 -2.137250000e-01
363500.0 -1.003787000e+00 -2.233280000e-01
373000.0 -1.004210000e+00 -2.327830000e-01
382500.0 -1.003818000e+00 -2.420140000e-01
392000.0 -1.004267000e+00 -2.514640000e-01
401500.0 -1.004901000e+00 -2.610480000e-01
411000.0 -1.005023000e+00 -2.698220000e-01
420500.0 -1.005156000e+00 -2.795060000e-01
430000.0 -1.004557000e+00 -2.890460000e-01
439500.0 -1.005344000e+00 -2.973560000e-01
449000.0 -1.006269000e+00 -3.071920000e-01
458500.0 -1.005691000e+00 -3.165760000e-01
468000.0 -1.005667000e+00 -3.262330000e-01
477500.0 -1.006497000e+00 -3.352980000e-01
487000.0 -1.006660000e+00 -3.449030000e-01
496500.0 -1.006511000e+00 -3.533490000e-01
506000.0 -1.007248000e+00 -3.630450000e-01
515500.0 -1.007689000e+00 -3.730690000e-01
525000.0 -1.007960000e+00 -3.816580000e-01
534500.0 -1.007595000e+00 -3.905420000e-01
544000.0 -1.007942000e+00 -3.993170000e-01
553500.0 -1.008087000e+00 -4.091870000e-01
563000.0 -1.008589000e+00 -4.181010000e-01
572500.0 -1.009214000e+00 -4.276680000e-01
582000.0 -1.009406000e+00 -4.362620000e-01
591500.0 -1.009126000e+00 -4.455790000e-01
601000.0 -1.010550000e+00 -4.546540000e-01
610500.0 -1.011059000e+00 -4.631860000e-01
620000.0 -1.010952000e+00 -4.728870000e-01
629500.0 -1.011307000e+00 -4.822420000e-01
639000.0 -1.012758000e+00 -4.908780000e-01
648500.0 -1.013223000e+00 -5.013760000e-01
658000.0 -1.013020000e+00 -5.092430000e-01
667500.0 -1.014390000e+00 -5.179890000e-01
677000.0 -1.014831000e+00 -5.265080000e-01
686500.0 -1.015837000e+00 -5.355470000e-01
696000.0 -1.016484000e+00 -5.451600000e-01
705500.0 -1.016830000e+00 -5.539330000e-01
715000.0 -1.017784000e+00 -5.632240000e-01
724500.0 -1.019466000e+00 -5.721480000e-01
734000.0 -1.019900000e+00 -5.806880000e-01
743500.0 -1.021362000e+00 -5.891970000e-01
753000.0 -1.022351000e+00 -5.975170000e-01
762500.0 -1.021468000e+00 -6.080480000e-01
772000.0 -1.022800000e+00 -6.171840000e-01
781500.0 -1.024811000e+00 -6.251560000e-01
791000.0 -1.027276000e+00 -6.353910000e-01
800500.0 -1.027145000e+00 -6.433260000e-01
810000.0 -1.028651000e+00 -6.514840000e-01
819500.0 -1.029058000e+00 -6.602260000e-01
829000.0 -1.031980000e+00 -6.691780000e-01
838500.0 -1.032245000e+00 -6.789850000e-01
848000.0 -1.033579000e+00 -6.867660000e-01
857500.0 -1.036401000e+00 -6.953100000e-01
867000.0 -1.035242000e+00 -7.043880000e-01
876500.0 -1.038558000e+00 -7.136820000e-01
886000.0 -1.040506000e+00 -7.206520000e-01
895500.0 -1.042113000e+00 -7.303990000e-01
905000.0 -1.043050000e+00 -7.371780000e-01
914500.0 -1.044559000e+00 -7.475070000e-01
924000.0 -1.048430000e+00 -7.558290000e-01
933500.0 -1.049260000e+00 -7.646990000e-01
943000.0 -1.051019000e+00 -7.730940000e-01
952500.0 -1.054399000e+00 -7.810690000e-01
962000.0 -1.056596000e+00 -7.897140000e-01
971500.0 -1.059115000e+00 -7.984300000e-01
981000.0 -1.061973000e+00 -8.069660000e-01
990500.0 -1.063305000e+00 -8.149730000e-01
1000000.0 -1.067020000e+00 -8.236020000e-01
1090000.0 -1.094701000e+00 -9.005750000e-01
1180000.0 -1.132510000e+00 -9.753440000e-01
1270000.0 -1.178460000e+00 -1.042759000e+00
1360000.0 -1.236656000e+00 -1.103198000e+00
1450000.0 -1.304913000e+00 -1.153443000e+00
1540000.0 -1.379353000e+00 -1.190758000e+00
1630000.0 -1.466101000e+00 -1.211814000e+00
1720000.0 -1.556286000e+00 -1.213238000e+00
1810000.0 -1.643348000e+00 -1.189056000e+00
1900000.0 -1.727581000e+00 -1.146943000e+00
1990000.0 -1.799568000e+00 -1.084702000e+00
2080000.0 -1.858999000e+00 -1.006685000e+00
2170000.0 -1.893360000e+00 -9.185840000e-01
2260000.0 -1.915265000e+00 -8.242470000e-01
2350000.0 -1.915541000e+00 -7.368820000e-01
2440000.0 -1.901366000e+00 -6.506270000e-01
2530000.0 -1.878443000e+00 -5.716290000e-01
2620000.0 -1.832585000e+00 -5.499590000e-01
2710000.0 -1.802497000e+00 -4.418780000e-01
2800000.0 -1.759529000e+00 -3.895970000e-01
2890000.0 -1.720186000e+00 -3.428950000e-01
2980000.0 -1.674464000e+00 -3.041740000e-01
3070000.0 -1.635344000e+00 -2.741290000e-01
3160000.0 -1.596780000e+00 -2.430190000e-01
3250000.0 -1.558085000e+00 -2.151480000e-01
3340000.0 -1.522541000e+00 -1.932180000e-01
3430000.0 -1.490850000e+00 -1.723570000e-01
3520000.0 -1.459972000e+00 -1.554710000e-01
3610000.0 -1.431502000e+00 -1.358920000e-01
3700000.0 -1.404274000e+00 -1.224780000e-01
3790000.0 -1.379742000e+00 -1.073800000e-01
3880000.0 -1.356884000e+00 -9.347700000e-02
3970000.0 -1.333558000e+00 -7.990100000e-02
4060000.0 -1.316279000e+00 -6.652100000e-02
4150000.0 -1.296233000e+00 -5.455600000e-02
4240000.0 -1.279530000e+00 -4.238300000e-02
4330000.0 -1.264656000e+00 -3.109100000e-02
4420000.0 -1.249253000e+00 -1.886400000e-02
4510000.0 -1.236721000e+00 -6.060000000e-03
4600000.0 -1.224970000e+00 4.772000000e-03
4690000.0 -1.213068000e+00 1.525400000e-02
4780000.0 -1.202864000e+00 2.790400000e-02
4870000.0 -1.194837000e+00 3.784600000e-02
4960000.0 -1.187069000e+00 4.887300000e-02
5050000.0 -1.172048000e+00 5.902500000e-02
5140000.0 -1.167194000e+00 7.030600000e-02
5230000.0 -1.162511000e+00 8.083100000e-02
5320000.0 -1.157778000e+00 9.177800000e-02
5410000.0 -1.152528000e+00 1.009530000e-01
5500000.0 -1.149422000e+00 1.117380000e-01
5590000.0 -1.143658000e+00 1.213530000e-01
5680000.0 -1.140053000e+00 1.318060000e-01
5770000.0 -1.136324000e+00 1.398640000e-01
5860000.0 -1.132557000e+00 1.511660000e-01
5950000.0 -1.128997000e+00 1.589020000e-01
6040000.0 -1.126505000e+00 1.697450000e-01
6130000.0 -1.122258000e+00 1.760890000e-01
6220000.0 -1.119275000e+00 1.853320000e-01
6310000.0 -1.118222000e+00 1.928950000e-01
6400000.0 -1.114838000e+00 1.998760000e-01
6490000.0 -1.112401000e+00 2.062090000e-01
6580000.0 -1.110686000e+00 2.125900000e-01
6670000.0 -1.109549000e+00 2.185450000e-01
6760000.0 -1.107821000e+00 2.240710000e-01
6850000.0 -1.106050000e+00 2.295550000e-01
6940000.0 -1.103663000e+00 2.337020000e-01
7030000.0 -1.103926000e+00 2.362910000e-01
7120000.0 -1.103249000e+00 2.391450000e-01
7210000.0 -1.102941000e+00 2.402670000e-01
7300000.0 -1.101934000e+00 2.425870000e-01
7390000.0 -1.101500000e+00 2.426010000e-01
7480000.0 -1.102051000e+00 2.428160000e-01
7570000.0 1.957720000e-01 1.075159000e+00
7660000.0 1.947270000e-01 1.075181000e+00
7750000.0 1.951890000e-01 1.073709000e+00
7840000.0 1.937960000e-01 1.075993000e+00
7930000.0 1.926310000e-01 1.075335000e+00
8020000.0 1.921350000e-01 1.075811000e+00
8110000.0 1.905180000e-01 1.075932000e+00
8200000.0 1.905020000e-01 1.077074000e+00
8290000.0 1.898210000e-01 1.076475000e+00
8380000.0 1.889560000e-01 1.076214000e+00
8470000.0 1.892190000e-01 1.077416000e+00
8560000.0 1.866440000e-01 1.078138000e+00
8650000.0 1.866260000e-01 1.078827000e+00
8740000.0 1.848590000e-01 1.078532000e+00
8830000.0 1.864250000e-01 1.080557000e+00
8920000.0 1.850800000e-01 1.080160000e+00
9010000.0 1.835460000e-01 1.079944000e+00
9100000.0 1.831030000e-01 1.081285000e+00
9190000.0 1.826910000e-01 1.081733000e+00
9280000.0 1.817750000e-01 1.081476000e+00
9370000.0 1.816940000e-01 1.082698000e+00
9460000.0 1.805180000e-01 1.083630000e+00
9550000.0 1.796170000e-01 1.084414000e+00
9640000.0 1.791500000e-01 1.085542000e+00
9730000.0 1.779430000e-01 1.084943000e+00
9820000.0 1.774080000e-01 1.086275000e+00
9910000.0 1.771420000e-01 1.087061000e+00
10000000.0 1.761770000e-01 1.087512000e+00
10900000.0 1.704980000e-01 1.094574000e+00
11800000.0 1.634370000e-01 1.101691000e+00
12700000.0 1.570330000e-01 1.109685000e+00
13600000.0 1.507700000e-01 1.118555000e+00
14500000.0 1.446870000e-01 1.127939000e+00
15400000.0 1.375850000e-01 1.137248000e+00
16300000.0 1.308750000e-01 1.144583000e+00
17200000.0 1.235700000e-01 1.153800000e+00
18100000.0 1.162970000e-01 1.163743000e+00
19000000.0 1.094420000e-01 1.172189000e+00
19900000.0 1.009900000e-01 1.183066000e+00
20800000.0 9.337700000e-02 1.192159000e+00
21700000.0 8.445000000e-02 1.203136000e+00
22600000.0 7.489300000e-02 1.211858000e+00
23500000.0 6.669300000e-02 1.220626000e+00
24400000.0 5.666700000e-02 1.231796000e+00
25300000.0 4.677200000e-02 1.241543000e+00
26200000.0 3.651900000e-02 1.251309000e+00
27100000.0 2.617400000e-02 1.261912000e+00
28000000.0 1.383400000e-02 1.272639000e+00
28900000.0 2.113000000e-03 1.282631000e+00
29800000.0 -1.096600000e-02 1.291985000e+00
30700000.0 -2.247000000e-02 1.302430000e+00
31600000.0 -3.417300000e-02 1.312749000e+00
32500000.0 -4.649300000e-02 1.321771000e+00
33400000.0 -6.272800000e-02 1.331739000e+00
34300000.0 -7.546600000e-02 1.341346000e+00
35200000.0 -9.086800000e-02 1.350692000e+00
36100000.0 -1.051210000e-01 1.360879000e+00
37000000.0 -1.221250000e-01 1.370443000e+00
37900000.0 -1.372920000e-01 1.378606000e+00
38800000.0 -1.537890000e-01 1.388686000e+00
39700000.0 -1.952180000e-01 1.396675000e+00
40600000.0 -1.888160000e-01 1.404475000e+00
41500000.0 -2.061910000e-01 1.413763000e+00
42400000.0 -2.245700000e-01 1.420907000e+00
43300000.0 -2.426800000e-01 1.428636000e+00
44200000.0 -2.633000000e-01 1.435550000e+00
45100000.0 -3.077120000e-01 1.440659000e+00
46000000.0 -3.025290000e-01 1.447441000e+00
46900000.0 -3.224860000e-01 1.454143000e+00
47800000.0 -3.429060000e-01 1.459576000e+00
48700000.0 -3.655100000e-01 1.464322000e+00
49600000.0 -3.866890000e-01 1.467274000e+00
50500000.0 -4.087520000e-01 1.471612000e+00
51400000.0 -4.318170000e-01 1.475015000e+00
52300000.0 -4.544140000e-01 1.478190000e+00
53200000.0 -4.759140000e-01 1.478884000e+00
54100000.0 -5.001750000e-01 1.480256000e+00
55000000.0 -5.234940000e-01 1.480867000e+00
55900000.0 -5.471690000e-01 1.482199000e+00
56800000.0 -5.712680000e-01 1.482275000e+00
57700000.0 -5.946410000e-01 1.477889000e+00
58600000.0 -6.195380000e-01 1.478065000e+00
59500000.0 -6.421140000e-01 1.475624000e+00
60400000.0 -6.676400000e-01 1.472063000e+00
61300000.0 -6.904040000e-01 1.467006000e+00
62200000.0 -7.169380000e-01 1.461793000e+00
63100000.0 -7.408730000e-01 1.457303000e+00
64000000.0 -7.640960000e-01 1.449787000e+00
64900000.0 -7.891060000e-01 1.442588000e+00
65800000.0 -8.123700000e-01 1.436154000e+00
66700000.0 -8.362990000e-01 1.425941000e+00
67600000.0 -8.597670000e-01 1.419040000e+00
68500000.0 -8.833010000e-01 1.408864000e+00
69400000.0 -9.064010000e-01 1.397351000e+00
70300000.0 -9.289110000e-01 1.385608000e+00
71200000.0 -9.526600000e-01 1.374104000e+00
72100000.0 -9.760770000e-01 1.363163000e+00
73000000.0 -9.974060000e-01 1.348325000e+00
73900000.0 -1.019871000e+00 1.334278000e+00
74800000.0 -1.039367000e+00 1.319695000e+00
75700000.0 -1.062179000e+00 1.304485000e+00
76600000.0 -1.081319000e+00 1.289527000e+00
77500000.0 -1.102378000e+00 1.272851000e+00
78400000.0 -1.120309000e+00 1.254250000e+00
79300000.0 -1.138097000e+00 1.237989000e+00
80200000.0 -1.159000000e+00 1.217676000e+00
81100000.0 -1.175218000e+00 1.199803000e+00
82000000.0 -1.192849000e+00 1.182255000e+00
82900000.0 -1.208829000e+00 1.163285000e+00
83800000.0 -1.222601000e+00 1.140692000e+00
84700000.0 -1.242088000e+00 1.120800000e+00
85600000.0 -1.255156000e+00 1.100991000e+00
86500000.0 -1.269791000e+00 1.080626000e+00
87400000.0 -1.283578000e+00 1.058024000e+00
88300000.0 -1.293358000e+00 1.036131000e+00
89200000.0 -1.305701000e+00 1.013434000e+00
90100000.0 -1.316419000e+00 9.912490000e-01
91000000.0 -1.328396000e+00 9.693530000e-01
91900000.0 -1.337891000e+00 9.453950000e-01
92800000.0 -1.347567000e+00 9.230950000e-01
93700000.0 -1.354982000e+00 8.997080000e-01
94600000.0 -1.362074000e+00 8.769320000e-01
95500000.0 -1.369024000e+00 8.536570000e-01
96400000.0 -1.373850000e+00 8.303110000e-01
97300000.0 -1.380473000e+00 8.075670000e-01
98200000.0 -1.383819000e+00 7.827040000e-01
99100000.0 -1.387181000e+00 7.614470000e-01
100000000.0 -1.392608000e+00 7.388960000e-01
109000000.0 -1.385151000e+00 5.205670000e-01
118000000.0 -1.331002000e+00 3.401670000e-01
127000000.0 -1.249432000e+00 2.000500000e-01
136000000.0 -1.134734000e+00 9.988900000e-02
145000000.0 -1.046723000e+00 3.006000000e-02
154000000.0 -1.000017000e+00 -5.560000000e-04
163000000.0 -1.002625000e+00 -3.504000000e-03
172000000.0 -1.004362000e+00 -5.720000000e-03
181000000.0 -1.005956000e+00 -8.610000000e-03
190000000.0 -1.007428000e+00 -9.243000000e-03
199000000.0 -1.008383000e+00 -9.086000000e-03
208000000.0 -1.009938000e+00 -1.109800000e-02
217000000.0 -1.011055000e+00 -1.184600000e-02
226000000.0 -1.010909000e+00 -1.131200000e-02
235000000.0 -1.009936000e+00 -1.289700000e-02
244000000.0 -1.009208000e+00 -1.156200000e-02
253000000.0 -1.008924000e+00 -7.610000000e-03
262000000.0 -1.008191000e+00 -8.947000000e-03
271000000.0 -1.006919000e+00 -6.773000000e-03
280000000.0 -1.003520000e+00 -6.514000000e-03
289000000.0 -1.002926000e+00 -2.964000000e-03
298000000.0 -9.992430000e-01 6.280000000e-04
307000000.0 -1.002838000e+00 -1.014000000e-03
316000000.0 -1.004981000e+00 -1.944000000e-03
325000000.0 -1.008007000e+00 -1.014000000e-03
334000000.0 -1.009441000e+00 -2.479000000e-03
343000000.0 -1.009158000e+00 -2.286000000e-03
352000000.0 -1.014103000e+00 -4.079000000e-03
361000000.0 -1.013609000e+00 -3.763000000e-03
370000000.0 -9.947620000e-01 4.494000000e-02
379000000.0 -1.015058000e+00 -1.853000000e-03
388000000.0 -1.013708000e+00 -3.470000000e-03
397000000.0 -1.003877000e+00 3.017200000e-02
406000000.0 -1.013174000e+00 -4.441000000e-03
415000000.0 -1.019491000e+00 -3.845400000e-02
424000000.0 -1.017111000e+00 -3.721300000e-02
433000000.0 -1.003882000e+00 -3.130000000e-03
442000000.0 -1.002269000e+00 -7.840000000e-04
451000000.0 -9.991270000e-01 2.290000000e-03
460000000.0 -1.004236000e+00 1.003000000e-03
469000000.0 -1.008251000e+00 1.967000000e-03
478000000.0 -1.009352000e+00 9.750000000e-04
487000000.0 -1.011815000e+00 3.167000000e-03
496000000.0 -1.015088000e+00 2.138000000e-03
505000000.0 -1.015542000e+00 1.545000000e-03
514000000.0 -1.017620000e+00 2.079000000e-03
523000000.0 -1.016011000e+00 2.431000000e-03
532000000.0 -1.017805000e+00 4.872000000e-03
541000000.0 -1.016130000e+00 1.747000000e-03
550000000.0 -1.015349000e+00 9.820000000e-04
559000000.0 -1.012775000e+00 6.668000000e-03
568000000.0 -1.008645000e+00 9.640000000e-04
577000000.0 -1.008965000e+00 -1.098000000e-03
586000000.0 -1.006040000e+00 9.010000000e-04
595000000.0 -1.002453000e+00 3.192000000e-03
604000000.0 -1.001774000e+00 2.391000000e-03
613000000.0 -1.003400000e+00 3.250000000e-03
622000000.0 -1.007542000e+00 7.766000000e-03
631000000.0 -1.010404000e+00 6.217000000e-03
640000000.0 -1.009849000e+00 9.992000000e-03
649000000.0 -1.011717000e+00 1.472200000e-02
658000000.0 -1.012427000e+00 1.184700000e-02
667000000.0 -1.010853000e+00 1.323000000e-02
676000000.0 -1.011090000e+00 1.359500000e-02
685000000.0 -1.012412000e+00 1.017600000e-02
694000000.0 -1.010283000e+00 1.088800000e-02
703000000.0 -1.009780000e+00 1.205200000e-02
712000000.0 -1.007174000e+00 1.627000000e-02
721000000.0 -1.007158000e+00 1.011300000e-02
730000000.0 -1.005319000e+00 5.868000000e-03
739000000.0 -1.003686000e+00 3.944000000e-03
748000000.0 -9.983030000e-01 -4.390000000e-04
757000000.0 -1.000194000e+00 1.435000000e-03
766000000.0 -9.987200000e-01 5.121000000e-03
775000000.0 -9.996240000e-01 4.877000000e-03
784000000.0 -9.962380000e-01 8.161000000e-03
793000000.0 -9.986610000e-01 5.950000000e-03
802000000.0 -9.976710000e-01 1.161100000e-02
811000000.0 -1.001751000e+00 7.506000000e-03
820000000.0 -1.000513000e+00 7.435000000e-03
829000000.0 -9.948730000e-01 5.803000000e-03
838000000.0 -9.970680000e-01 9.588000000e-03
847000000.0 -9.975370000e-01 8.994000000e-03
856000000.0 -9.984570000e-01 6.753000000e-03
865000000.0 -9.988290000e-01 3.587000000e-03
874000000.0 -9.955540000e-01 1.458000000e-03
883000000.0 -9.971550000e-01 4.156000000e-03
892000000.0 -9.985610000e-01 -2.698000000e-03
901000000.0 -9.939000000e-01 -1.196000000e-03
910000000.0 -9.972570000e-01 -4.148000000e-03
919000000.0 -9.995850000e-01 -5.109000000e-03
928000000.0 -9.999090000e-01 -8.565000000e-03
937000000.0 -1.001343000e+00 -7.140000000e-03
946000000.0 -1.001739000e+00 -4.672000000e-03
955000000.0 -1.001899000e+00 -6.212000000e-03
964000000.0 -1.002161000e+00 -1.043700000e-02
973000000.0 -1.000838000e+00 -9.507000000e-03
982000000.0 -1.002641000e+00 -9.878000000e-03
991000000.0 -9.985910000e-01 -6.600000000e-03
1000000000.0 -1.002246000e+00 -6.956000000e-03
1004500000.0 -1.001939000e+00 -7.513000000e-03
1009000000.0 -1.001827000e+00 -1.776000000e-03
1013500000.0 -1.003778000e+00 -7.767000000e-03
1018000000.0 -9.992140000e-01 -4.121000000e-03
1022500000.0 -9.995970000e-01 -7.956000000e-03
1027000000.0 -1.002137000e+00 -3.417000000e-03
1031500000.0 -1.002577000e+00 -6.657000000e-03
1036000000.0 -1.001069000e+00 -6.774000000e-03
1040500000.0 -1.002911000e+00 -4.653000000e-03
1045000000.0 -1.002680000e+00 -5.333000000e-03
1049500000.0 -1.000392000e+00 -6.750000000e-03
1054000000.0 -1.000427000e+00 -9.063000000e-03
1058500000.0 -1.000135000e+00 -3.037000000e-03
1063000000.0 -1.003933000e+00 -8.779000000e-03
1067500000.0 -1.002816000e+00 -8.768000000e-03
1072000000.0 -1.004262000e+00 -1.259500000e-02
1076500000.0 -1.002015000e+00 -6.874000000e-03
1081000000.0 -1.005621000e+00 -3.350000000e-04
1085500000.0 -1.005398000e+00 -5.461000000e-03
1090000000.0 -1.007260000e+00 -1.368700000e-02
1094500000.0 -1.009920000e+00 -8.913000000e-03
1099000000.0 -1.004694000e+00 -7.444000000e-03
1103500000.0 -1.007274000e+00 -1.475200000e-02
1108000000.0 -1.007098000e+00 -8.642000000e-03
1112500000.0 -1.007649000e+00 -6.023000000e-03
1117000000.0 -1.004004000e+00 -1.070000000e-02
1121500000.0 -1.005379000e+00 -4.418000000e-03
1126000000.0 -1.002124000e+00 1.045300000e-02
1130500000.0 -1.005941000e+00 -2.279000000e-03
1135000000.0 -1.007589000e+00 -8.928000000e-03
1139500000.0 -1.008665000e+00 -1.393400000e-02
1144000000.0 -1.002528000e+00 -5.927000000e-03
1148500000.0 -1.011210000e+00 -9.206000000e-03
1153000000.0 -9.999820000e-01 2.612900000e-02
1157500000.0 -1.015932000e+00 -4.618400000e-02
1162000000.0 -1.004296000e+00 -1.487000000e-02
1166500000.0 -1.003648000e+00 3.400000000e-05
1171000000.0 -9.987990000e-01 -1.386500000e-02
1175500000.0 -1.000760000e+00 -4.181000000e-03
1180000000.0 -1.002064000e+00 -5.708000000e-03
1184500000.0 -9.964860000e-01 -1.074300000e-02
1189000000.0 -1.001617000e+00 -3.345000000e-03
1193500000.0 -9.996400000e-01 -1.178700000e-02
1198000000.0 -9.947230000e-01 1.584000000e-03
1202500000.0 -1.001393000e+00 5.800000000e-04
1207000000.0 -9.966950000e-01 2.220000000e-04
1211500000.0 -9.967640000e-01 -5.252000000e-03
1216000000.0 -9.991380000e-01 -3.633000000e-03
1220500000.0 -1.001497000e+00 -2.332000000e-03
1225000000.0 -1.001099000e+00 4.112000000e-03
1229500000.0 -1.003984000e+00 -5.430000000e-04
1234000000.0 -1.003391000e+00 -6.641000000e-03
1238500000.0 -1.001786000e+00 -5.565000000e-03
1243000000.0 -1.004894000e+00 -1.276200000e-02
1247500000.0 -1.005390000e+00 -1.061800000e-02
1252000000.0 -1.004105000e+00 -8.024000000e-03
1256500000.0 -1.003777000e+00 -6.769000000e-03
1261000000.0 -1.000802000e+00 -7.552000000e-03
1265500000.0 -1.004049000e+00 3.067000000e-03
1270000000.0 -1.003290000e+00 -7.908000000e-03
1274500000.0 -1.008184000e+00 -6.029000000e-03
1279000000.0 -1.006051000e+00 -2.260000000e-03
1283500000.0 -1.005808000e+00 -2.326000000e-03
1288000000.0 -1.003798000e+00 1.854000000e-03
1292500000.0 -1.001460000e+00 -3.214000000e-03
1297000000.0 -1.010072000e+00 -9.544000000e-03
1301500000.0 -1.005832000e+00 -2.733000000e-03
1306000000.0 -1.002235000e+00 -2.290600000e-02
1310500000.0 -9.966840000e-01 5.160000000e-04
1315000000.0 -1.003871000e+00 -4.518000000e-03
1319500000.0 -1.002046000e+00 8.460000000e-04
1324000000.0 -9.983390000e-01 -3.063000000e-03
1328500000.0 -9.938490000e-01 -2.330000000e-04
1333000000.0 -9.930320000e-01 -6.863000000e-03
1337500000.0 -9.972190000e-01 -4.308000000e-03
1342000000.0 -9.947710000e-01 -7.981000000e-03
1346500000.0 -9.940460000e-01 1.295000000e-03
1351000000.0 -9.931510000e-01 -6.162000000e-03
1355500000.0 -9.944640000e-01 -1.569400000e-02
1360000000.0 -1.002554000e+00 6.070000000e-04
1364500000.0 -9.950300000e-01 6.984000000e-03
1369000000.0 -1.000629000e+00 -1.423700000e-02
1373500000.0 -9.986100000e-01 -1.416200000e-02
1378000000.0 -1.004040000e+00 -2.240000000e-04
1382500000.0 -1.003321000e+00 1.730200000e-02
1387000000.0 -1.003673000e+00 1.218000000e-03
1391500000.0 -1.004317000e+00 9.767000000e-03
1396000000.0 -1.002399000e+00 1.840000000e-04
1400500000.0 -1.005352000e+00 2.629000000e-03
1405000000.0 -1.012691000e+00 -4.020000000e-03
1409500000.0 -1.007906000e+00 -4.564000000e-03
1414000000.0 -1.009967000e+00 -4.664000000e-03
1418500000.0 -1.006163000e+00 -3.034000000e-03
1423000000.0 -1.014120000e+00 -3.379000000e-03
1427500000.0 -1.017105000e+00 -8.186000000e-03
1432000000.0 -1.013976000e+00 -5.618000000e-03
1436500000.0 -1.009648000e+00 -1.336000000e-03
1441000000.0 -1.009729000e+00 -4.742000000e-03
1445500000.0 -1.009336000e+00 -7.139000000e-03
1450000000.0 -1.010883000e+00 -5.641000000e-03
