! piloto_saltos / abierto_51puntos / r08
# HZ S RI R 50
50000.0 1.006136000e+00 -6.970000000e-02
69000.0 1.002966000e+00 -4.046300000e-02
88000.0 1.000612000e+00 -1.641700000e-02
107000.0 1.000912000e+00 8.843000000e-03
126000.0 9.975670000e-01 3.364900000e-02
145000.0 1.001195000e+00 5.769000000e-02
164000.0 1.001355000e+00 8.230600000e-02
183000.0 1.002719000e+00 1.056170000e-01
202000.0 1.004200000e+00 1.294860000e-01
221000.0 1.004485000e+00 1.523080000e-01
240000.0 1.005153000e+00 1.751900000e-01
259000.0 1.004940000e+00 1.971410000e-01
278000.0 1.005960000e+00 2.204850000e-01
297000.0 1.005941000e+00 2.424480000e-01
316000.0 1.006680000e+00 2.649470000e-01
335000.0 1.007821000e+00 2.861380000e-01
354000.0 1.008072000e+00 3.079790000e-01
373000.0 1.008230000e+00 3.283690000e-01
392000.0 1.008440000e+00 3.495500000e-01
411000.0 1.008755000e+00 3.705860000e-01
430000.0 1.010660000e+00 3.918650000e-01
449000.0 1.010635000e+00 4.119130000e-01
468000.0 1.011689000e+00 4.329230000e-01
487000.0 9.948630000e-01 3.875430000e-01
506000.0 1.013873000e+00 4.735370000e-01
525000.0 9.934290000e-01 5.159830000e-01
544000.0 1.013765000e+00 5.125490000e-01
563000.0 1.015644000e+00 5.334750000e-01
582000.0 1.016140000e+00 5.534270000e-01
601000.0 1.017803000e+00 5.715260000e-01
620000.0 1.017967000e+00 5.915660000e-01
639000.0 1.019642000e+00 6.109470000e-01
658000.0 1.020975000e+00 6.307720000e-01
677000.0 1.022595000e+00 6.500590000e-01
696000.0 1.024534000e+00 6.678560000e-01
715000.0 1.027081000e+00 6.872120000e-01
734000.0 1.028370000e+00 7.050370000e-01
753000.0 1.031799000e+00 7.249600000e-01
772000.0 1.033675000e+00 7.427520000e-01
791000.0 1.035419000e+00 7.620830000e-01
810000.0 1.039254000e+00 7.802740000e-01
829000.0 1.040894000e+00 7.992640000e-01
848000.0 1.045889000e+00 8.172060000e-01
867000.0 1.048752000e+00 8.355510000e-01
886000.0 1.052876000e+00 8.551730000e-01
905000.0 1.057062000e+00 8.720320000e-01
924000.0 1.061008000e+00 8.888560000e-01
943000.0 1.064569000e+00 9.073560000e-01
962000.0 1.070359000e+00 9.254040000e-01
981000.0 1.076245000e+00 9.431120000e-01
1000000.0 1.082135000e+00 9.604900000e-01
1180000.0 1.149798000e+00 1.114090000e+00
1360000.0 1.261334000e+00 1.249041000e+00
1540000.0 1.413077000e+00 1.335869000e+00
1720000.0 1.591318000e+00 1.355364000e+00
1900000.0 1.765968000e+00 1.293829000e+00
2080000.0 1.901835000e+00 1.160136000e+00
2260000.0 1.965575000e+00 9.796100000e-01
2440000.0 1.960324000e+00 8.073630000e-01
2620000.0 1.911982000e+00 6.523320000e-01
2800000.0 1.838525000e+00 5.362420000e-01
2980000.0 1.761429000e+00 4.437660000e-01
3160000.0 1.623613000e+00 2.620410000e-01
3340000.0 1.617996000e+00 2.949590000e-01
3520000.0 1.552034000e+00 2.599440000e-01
3700000.0 1.499645000e+00 2.310480000e-01
3880000.0 1.452677000e+00 1.971500000e-01
4060000.0 1.411592000e+00 1.670440000e-01
4240000.0 1.378786000e+00 1.368930000e-01
4420000.0 1.349498000e+00 1.087320000e-01
4600000.0 1.324308000e+00 8.133400000e-02
4780000.0 1.305497000e+00 5.504900000e-02
4960000.0 1.290902000e+00 3.023200000e-02
5140000.0 1.270924000e+00 4.696000000e-03
5320000.0 1.263026000e+00 -1.770800000e-02
5500000.0 1.254678000e+00 -4.304500000e-02
5680000.0 1.247032000e+00 -6.480000000e-02
5860000.0 1.241891000e+00 -8.655200000e-02
6040000.0 1.235866000e+00 -1.062170000e-01
6220000.0 1.231402000e+00 -1.252970000e-01
6400000.0 1.228271000e+00 -1.433320000e-01
6580000.0 1.225106000e+00 -1.577570000e-01
6760000.0 1.221257000e+00 -1.712450000e-01
6940000.0 1.220812000e+00 -1.823610000e-01
7120000.0 1.218594000e+00 -1.893100000e-01
7300000.0 1.219780000e+00 -1.925380000e-01
7480000.0 1.219583000e+00 -1.927660000e-01
7660000.0 -2.413270000e-01 -1.258440000e+00
7840000.0 -2.411720000e-01 -1.259898000e+00
8020000.0 -2.384950000e-01 -1.259412000e+00
8200000.0 -2.376450000e-01 -1.261191000e+00
8380000.0 -2.367290000e-01 -1.262464000e+00
8560000.0 -2.345110000e-01 -1.264572000e+00
8740000.0 -2.329420000e-01 -1.265657000e+00
8920000.0 -2.331980000e-01 -1.267133000e+00
9100000.0 -2.303750000e-01 -1.267763000e+00
9280000.0 -2.304010000e-01 -1.269263000e+00
9460000.0 -2.278030000e-01 -1.271779000e+00
9640000.0 -2.251940000e-01 -1.271739000e+00
9820000.0 -2.256330000e-01 -1.274012000e+00
10000000.0 -2.236730000e-01 -1.275819000e+00
11800000.0 -2.117330000e-01 -1.293585000e+00
13600000.0 -2.010080000e-01 -1.314718000e+00
15400000.0 -1.872420000e-01 -1.335005000e+00
17200000.0 -1.754050000e-01 -1.361034000e+00
19000000.0 -1.605400000e-01 -1.385179000e+00
20800000.0 -1.439380000e-01 -1.410128000e+00
22600000.0 -1.267030000e-01 -1.436418000e+00
24400000.0 -1.079760000e-01 -1.463003000e+00
26200000.0 -8.733600000e-02 -1.490189000e+00
28000000.0 -6.474100000e-02 -1.518809000e+00
29800000.0 -3.690900000e-02 -1.547585000e+00
31600000.0 -1.136100000e-02 -1.577052000e+00
33400000.0 4.787700000e-02 -1.615234000e+00
35200000.0 -7.398000000e-03 -1.624608000e+00
37000000.0 9.073500000e-02 -1.667045000e+00
38800000.0 1.256940000e-01 -1.694382000e+00
40600000.0 1.663980000e-01 -1.721184000e+00
42400000.0 2.113100000e-01 -1.749744000e+00
44200000.0 2.598090000e-01 -1.774934000e+00
46000000.0 3.113640000e-01 -1.800723000e+00
47800000.0 3.682350000e-01 -1.823616000e+00
49600000.0 4.283800000e-01 -1.843114000e+00
51400000.0 4.893420000e-01 -1.858821000e+00
53200000.0 5.550140000e-01 -1.872386000e+00
55000000.0 6.258350000e-01 -1.882447000e+00
56800000.0 6.981570000e-01 -1.887597000e+00
58600000.0 7.745120000e-01 -1.886001000e+00
60400000.0 8.500120000e-01 -1.876102000e+00
62200000.0 9.285510000e-01 -1.861867000e+00
64000000.0 1.004506000e+00 -1.839136000e+00
65800000.0 1.083656000e+00 -1.810676000e+00
67600000.0 1.160013000e+00 -1.775019000e+00
69400000.0 1.232881000e+00 -1.733804000e+00
71200000.0 1.303558000e+00 -1.683828000e+00
73000000.0 1.367478000e+00 -1.626423000e+00
74800000.0 1.425623000e+00 -1.567000000e+00
76600000.0 1.481393000e+00 -1.500649000e+00
78400000.0 1.528765000e+00 -1.430631000e+00
80200000.0 1.568972000e+00 -1.358686000e+00
82000000.0 1.599042000e+00 -1.283063000e+00
83800000.0 1.625797000e+00 -1.209666000e+00
85600000.0 1.644856000e+00 -1.135701000e+00
87400000.0 1.657208000e+00 -1.060972000e+00
89200000.0 1.662816000e+00 -9.901180000e-01
91000000.0 1.663582000e+00 -9.215220000e-01
92800000.0 1.660518000e+00 -8.546590000e-01
94600000.0 1.653561000e+00 -7.903290000e-01
96400000.0 1.640060000e+00 -7.308480000e-01
98200000.0 1.626943000e+00 -6.737350000e-01
100000000.0 1.610235000e+00 -6.191160000e-01
118000000.0 1.378220000e+00 -2.454350000e-01
136000000.0 1.147755000e+00 -6.782900000e-02
154000000.0 1.001172000e+00 8.340000000e-04
172000000.0 1.002321000e+00 -1.020000000e-03
190000000.0 1.004452000e+00 -5.380000000e-04
208000000.0 1.005827000e+00 -1.426000000e-03
226000000.0 1.006308000e+00 -9.340000000e-04
244000000.0 1.006700000e+00 -7.880000000e-04
262000000.0 1.019328000e+00 1.301700000e-02
280000000.0 1.003867000e+00 -4.470000000e-04
298000000.0 1.001427000e+00 -1.120000000e-04
316000000.0 1.012086000e+00 3.525900000e-02
334000000.0 1.004555000e+00 4.940000000e-04
352000000.0 1.006027000e+00 -9.240000000e-04
370000000.0 1.005960000e+00 8.000000000e-05
388000000.0 1.006346000e+00 7.400000000e-04
406000000.0 1.004255000e+00 -5.300000000e-04
424000000.0 1.002560000e+00 5.540000000e-04
442000000.0 1.000565000e+00 2.279000000e-03
460000000.0 1.001066000e+00 3.152000000e-03
478000000.0 1.003653000e+00 1.687000000e-03
496000000.0 1.006395000e+00 3.656000000e-03
514000000.0 1.007950000e+00 5.237000000e-03
532000000.0 1.008423000e+00 8.713000000e-03
550000000.0 1.010099000e+00 9.858000000e-03
568000000.0 1.008659000e+00 8.053000000e-03
586000000.0 1.004253000e+00 8.885000000e-03
604000000.0 1.002187000e+00 5.192000000e-03
622000000.0 1.008542000e+00 9.075000000e-03
640000000.0 1.013126000e+00 7.915000000e-03
658000000.0 1.013493000e+00 8.796000000e-03
676000000.0 1.016347000e+00 7.409000000e-03
694000000.0 1.017152000e+00 9.780000000e-03
712000000.0 1.009405000e+00 2.223000000e-03
730000000.0 1.007044000e+00 3.517000000e-03
748000000.0 1.002563000e+00 6.800000000e-04
766000000.0 1.005327000e+00 -7.510000000e-04
784000000.0 1.012074000e+00 -2.335000000e-03
802000000.0 1.015523000e+00 -7.380000000e-03
820000000.0 1.017241000e+00 -5.165000000e-03
838000000.0 1.014930000e+00 -6.806000000e-03
856000000.0 1.013450000e+00 -4.323000000e-03
874000000.0 1.009926000e+00 -9.800000000e-04
892000000.0 1.005199000e+00 1.863000000e-03
910000000.0 9.979180000e-01 1.268000000e-03
928000000.0 1.003582000e+00 -3.588000000e-03
946000000.0 1.004361000e+00 -6.012000000e-03
964000000.0 1.004490000e+00 -8.689000000e-03
982000000.0 1.004168000e+00 -5.893000000e-03
1000000000.0 1.004410000e+00 -8.029000000e-03
1009000000.0 1.002374000e+00 -3.390000000e-03
1018000000.0 1.003910000e+00 -2.840000000e-03
1027000000.0 1.002848000e+00 -5.196000000e-03
1036000000.0 9.999450000e-01 1.220000000e-03
1045000000.0 9.964410000e-01 -4.290000000e-04
1054000000.0 1.000975000e+00 -2.461000000e-03
1063000000.0 9.987640000e-01 -2.890000000e-03
1072000000.0 1.000948000e+00 -2.928000000e-03
1081000000.0 1.001220000e+00 -1.550700000e-02
1090000000.0 1.001083000e+00 -6.030000000e-04
1099000000.0 9.963310000e-01 -4.278100000e-02
1108000000.0 1.005323000e+00 -2.931000000e-03
1117000000.0 1.002138000e+00 -3.500000000e-03
1126000000.0 1.006630000e+00 -1.884000000e-03
1135000000.0 1.005134000e+00 -5.023000000e-03
1144000000.0 1.007718000e+00 -4.961000000e-03
1153000000.0 1.003346000e+00 -8.311000000e-03
1162000000.0 1.005963000e+00 -3.949000000e-03
1171000000.0 9.990550000e-01 1.550000000e-04
1180000000.0 1.007159000e+00 2.020000000e-03
1189000000.0 1.006490000e+00 -8.189000000e-03
1198000000.0 1.003439000e+00 -6.951000000e-03
1207000000.0 1.003767000e+00 -4.277000000e-03
1216000000.0 1.005944000e+00 -1.028000000e-03
1225000000.0 9.999200000e-01 -2.940000000e-03
1234000000.0 1.006393000e+00 -2.964000000e-03
1243000000.0 1.007408000e+00 -3.672000000e-03
1252000000.0 1.007708000e+00 -5.730000000e-04
1261000000.0 1.003784000e+00 8.604000000e-03
1270000000.0 1.005311000e+00 -3.300000000e-05
1279000000.0 1.002396000e+00 -2.696000000e-03
1288000000.0 1.002970000e+00 5.060000000e-04
1297000000.0 9.996450000e-01 4.210000000e-03
1306000000.0 1.006529000e+00 -5.450000000e-03
1315000000.0 1.007253000e+00 2.679000000e-03
1324000000.0 1.009777000e+00 2.575000000e-03
1333000000.0 1.004800000e+00 5.264000000e-03
1342000000.0 1.003478000e+00 -2.765000000e-03
1351000000.0 1.001063000e+00 7.277000000e-03
1360000000.0 1.005712000e+00 4.675000000e-03
1369000000.0 1.008764000e+00 8.840000000e-04
1378000000.0 1.005014000e+00 1.017400000e-02
1387000000.0 1.001950000e+00 9.551000000e-03
1396000000.0 9.978130000e-01 1.828200000e-02
1405000000.0 1.004775000e+00 1.459500000e-02
1414000000.0 1.004610000e+00 1.451500000e-02
1423000000.0 1.004433000e+00 2.611700000e-02
1432000000.0 1.001362000e+00 1.661200000e-02
1441000000.0 1.003443000e+00 1.643700000e-02
1450000000.0 1.002462000e+00 1.123600000e-02
