! piloto_saltos / abierto_tramosB / r03
# HZ S RI R 50
50000.0 1.005792000e+00 -6.952800000e-02
52500.0 1.006578000e+00 -6.607300000e-02
55000.0 1.006240000e+00 -6.190900000e-02
57500.0 1.005428000e+00 -5.855000000e-02
60000.0 1.006849000e+00 -5.643600000e-02
62500.0 1.004727000e+00 -5.136600000e-02
65000.0 1.005309000e+00 -4.831900000e-02
67500.0 1.004005000e+00 -4.362600000e-02
70000.0 1.004193000e+00 -4.029700000e-02
72500.0 1.004733000e+00 -3.637300000e-02
75000.0 1.003679000e+00 -3.435800000e-02
77500.0 1.002878000e+00 -2.951700000e-02
80000.0 1.002795000e+00 -2.697000000e-02
82500.0 1.001205000e+00 -2.330200000e-02
85000.0 1.002962000e+00 -1.991600000e-02
87500.0 1.001532000e+00 -1.649100000e-02
90000.0 9.989160000e-01 -1.304200000e-02
92500.0 1.001222000e+00 -1.002600000e-02
95000.0 1.000703000e+00 -7.147000000e-03
97500.0 1.000381000e+00 -3.385000000e-03
100000.0 1.000642000e+00 -1.400000000e-04
102500.0 1.000601000e+00 3.875000000e-03
105000.0 1.000523000e+00 6.035000000e-03
107500.0 1.001863000e+00 9.734000000e-03
110000.0 1.000238000e+00 1.326900000e-02
112500.0 1.001199000e+00 1.616400000e-02
115000.0 9.999840000e-01 1.972100000e-02
117500.0 1.001622000e+00 2.303500000e-02
120000.0 9.992680000e-01 2.571900000e-02
122500.0 1.000388000e+00 2.884000000e-02
125000.0 1.000884000e+00 3.227300000e-02
127500.0 1.001179000e+00 3.558500000e-02
130000.0 1.001110000e+00 3.928000000e-02
132500.0 1.000954000e+00 4.247200000e-02
135000.0 1.000602000e+00 4.535800000e-02
137500.0 1.000669000e+00 5.298200000e-02
140000.0 1.001497000e+00 5.227500000e-02
142500.0 1.001801000e+00 5.506700000e-02
145000.0 1.001741000e+00 5.785100000e-02
147500.0 1.001768000e+00 6.157100000e-02
150000.0 1.003393000e+00 6.662100000e-02
152500.0 1.002596000e+00 6.855900000e-02
155000.0 1.001814000e+00 7.136300000e-02
157500.0 1.002402000e+00 7.478400000e-02
160000.0 1.002648000e+00 7.753300000e-02
162500.0 1.002490000e+00 8.039300000e-02
165000.0 1.002578000e+00 8.410800000e-02
167500.0 1.002570000e+00 8.754900000e-02
170000.0 1.002554000e+00 9.005400000e-02
172500.0 1.002939000e+00 9.343500000e-02
175000.0 1.002889000e+00 9.622500000e-02
177500.0 1.002610000e+00 9.919500000e-02
180000.0 1.002433000e+00 1.019600000e-01
182500.0 1.002643000e+00 1.060090000e-01
185000.0 1.003526000e+00 1.085810000e-01
187500.0 1.003406000e+00 1.114270000e-01
190000.0 1.003860000e+00 1.150140000e-01
192500.0 1.004140000e+00 1.179830000e-01
195000.0 1.003636000e+00 1.211510000e-01
197500.0 1.003320000e+00 1.243440000e-01
200000.0 1.003904000e+00 1.274080000e-01
202500.0 1.003755000e+00 1.295860000e-01
205000.0 1.004236000e+00 1.334370000e-01
207500.0 1.004068000e+00 1.369300000e-01
210000.0 1.004788000e+00 1.398840000e-01
212500.0 1.004597000e+00 1.423300000e-01
215000.0 1.005069000e+00 1.458620000e-01
217500.0 1.004413000e+00 1.482720000e-01
220000.0 1.004285000e+00 1.517130000e-01
222500.0 1.005125000e+00 1.545720000e-01
225000.0 1.004244000e+00 1.577310000e-01
227500.0 1.004507000e+00 1.606130000e-01
230000.0 1.004827000e+00 1.635750000e-01
232500.0 1.004139000e+00 1.669320000e-01
235000.0 1.004578000e+00 1.698400000e-01
237500.0 1.005535000e+00 1.725220000e-01
240000.0 1.004224000e+00 1.761820000e-01
242500.0 1.005617000e+00 1.783550000e-01
245000.0 1.005466000e+00 1.807530000e-01
247500.0 1.004964000e+00 1.841410000e-01
250000.0 1.004562000e+00 1.876850000e-01
252500.0 1.005795000e+00 1.909840000e-01
255000.0 1.005566000e+00 1.939860000e-01
257500.0 1.005786000e+00 1.968210000e-01
260000.0 1.005766000e+00 1.998690000e-01
262500.0 1.006077000e+00 2.022780000e-01
265000.0 1.005720000e+00 2.054260000e-01
267500.0 1.005548000e+00 2.088970000e-01
270000.0 1.006141000e+00 2.114210000e-01
272500.0 1.004946000e+00 2.142550000e-01
275000.0 1.005744000e+00 2.169220000e-01
277500.0 1.006577000e+00 2.200930000e-01
280000.0 1.006082000e+00 2.233460000e-01
282500.0 1.005801000e+00 2.259960000e-01
285000.0 1.007355000e+00 2.299010000e-01
287500.0 1.005907000e+00 2.313330000e-01
290000.0 1.006129000e+00 2.350070000e-01
292500.0 1.006376000e+00 2.375430000e-01
295000.0 1.006235000e+00 2.407230000e-01
297500.0 1.006227000e+00 2.436940000e-01
300000.0 1.007693000e+00 2.464340000e-01
327000.0 1.006604000e+00 2.753040000e-01
354000.0 1.006677000e+00 3.066410000e-01
381000.0 1.007642000e+00 3.371770000e-01
408000.0 1.007754000e+00 3.674910000e-01
435000.0 1.009548000e+00 3.964620000e-01
462000.0 1.010375000e+00 4.264900000e-01
489000.0 1.011502000e+00 4.550130000e-01
516000.0 1.012931000e+00 4.833260000e-01
543000.0 1.014065000e+00 5.115270000e-01
570000.0 1.015833000e+00 5.400940000e-01
597000.0 1.016617000e+00 5.676220000e-01
624000.0 1.018505000e+00 5.962390000e-01
651000.0 1.020430000e+00 6.232040000e-01
678000.0 1.022961000e+00 6.510720000e-01
705000.0 1.026388000e+00 6.787950000e-01
732000.0 1.028839000e+00 7.048290000e-01
759000.0 1.030801000e+00 7.309530000e-01
786000.0 1.035482000e+00 7.576700000e-01
813000.0 1.039940000e+00 7.842080000e-01
840000.0 1.044984000e+00 8.099530000e-01
867000.0 1.048275000e+00 8.376230000e-01
894000.0 1.055008000e+00 8.622760000e-01
921000.0 1.061491000e+00 8.872320000e-01
948000.0 1.068545000e+00 9.130520000e-01
975000.0 1.075250000e+00 9.387270000e-01
1002000.0 1.083264000e+00 9.634290000e-01
1029000.0 1.091759000e+00 9.861930000e-01
1056000.0 1.101493000e+00 1.011439000e+00
1083000.0 1.112952000e+00 1.037648000e+00
1110000.0 1.122299000e+00 1.061181000e+00
1137000.0 1.134890000e+00 1.082236000e+00
1164000.0 1.146449000e+00 1.104095000e+00
1191000.0 1.161269000e+00 1.129122000e+00
1218000.0 1.174949000e+00 1.148957000e+00
1245000.0 1.189954000e+00 1.169039000e+00
1272000.0 1.205073000e+00 1.190336000e+00
1299000.0 1.225104000e+00 1.208127000e+00
1326000.0 1.240671000e+00 1.228130000e+00
1353000.0 1.261559000e+00 1.244555000e+00
1380000.0 1.280103000e+00 1.261085000e+00
1407000.0 1.302329000e+00 1.277330000e+00
1434000.0 1.325235000e+00 1.290800000e+00
1461000.0 1.345269000e+00 1.303646000e+00
1488000.0 1.371071000e+00 1.316383000e+00
1515000.0 1.396860000e+00 1.325406000e+00
1542000.0 1.418716000e+00 1.335494000e+00
1569000.0 1.445658000e+00 1.342840000e+00
1596000.0 1.473719000e+00 1.347840000e+00
1623000.0 1.500600000e+00 1.352084000e+00
1650000.0 1.525717000e+00 1.355390000e+00
1677000.0 1.552136000e+00 1.355185000e+00
1704000.0 1.580706000e+00 1.354479000e+00
1731000.0 1.609222000e+00 1.352256000e+00
1758000.0 1.633058000e+00 1.345976000e+00
1785000.0 1.661170000e+00 1.339231000e+00
1812000.0 1.689526000e+00 1.327530000e+00
1839000.0 1.716506000e+00 1.323141000e+00
1866000.0 1.740485000e+00 1.305165000e+00
1893000.0 1.762739000e+00 1.294063000e+00
1920000.0 1.787301000e+00 1.277206000e+00
1947000.0 1.810482000e+00 1.258404000e+00
1974000.0 1.831972000e+00 1.238615000e+00
2001000.0 1.852313000e+00 1.217940000e+00
2028000.0 1.871595000e+00 1.195984000e+00
2055000.0 1.887945000e+00 1.171896000e+00
2082000.0 1.902643000e+00 1.149522000e+00
2109000.0 1.917837000e+00 1.122910000e+00
2136000.0 1.929217000e+00 1.098080000e+00
2163000.0 1.938488000e+00 1.071520000e+00
2190000.0 1.947295000e+00 1.047235000e+00
2217000.0 1.952956000e+00 1.022147000e+00
2244000.0 1.961931000e+00 9.910800000e-01
2271000.0 1.963921000e+00 9.647440000e-01
2298000.0 1.968650000e+00 9.351060000e-01
2325000.0 1.968608000e+00 9.121780000e-01
2352000.0 1.966614000e+00 8.866570000e-01
2379000.0 1.965268000e+00 8.606260000e-01
2406000.0 1.965253000e+00 8.348780000e-01
2433000.0 1.959188000e+00 8.085600000e-01
2460000.0 1.953449000e+00 7.823100000e-01
2487000.0 1.949867000e+00 7.597390000e-01
2514000.0 1.941647000e+00 7.379560000e-01
2541000.0 1.937582000e+00 7.145310000e-01
2568000.0 1.925689000e+00 6.917950000e-01
2595000.0 1.916597000e+00 6.727040000e-01
2622000.0 1.908612000e+00 6.518770000e-01
2649000.0 1.898909000e+00 6.305600000e-01
2676000.0 1.887353000e+00 6.102510000e-01
2703000.0 1.880299000e+00 5.928760000e-01
2730000.0 1.867081000e+00 5.770080000e-01
2757000.0 1.855097000e+00 5.570490000e-01
2784000.0 1.846492000e+00 5.434430000e-01
2811000.0 1.834179000e+00 5.261860000e-01
2838000.0 1.822224000e+00 5.132110000e-01
2865000.0 1.809041000e+00 4.971570000e-01
2892000.0 1.796810000e+00 4.840690000e-01
2919000.0 1.785035000e+00 4.695980000e-01
2946000.0 1.773645000e+00 4.586030000e-01
2973000.0 1.764413000e+00 4.443920000e-01
3000000.0 1.750722000e+00 4.334800000e-01
3270000.0 1.640196000e+00 3.351060000e-01
3540000.0 1.545659000e+00 2.650710000e-01
3810000.0 1.469047000e+00 2.099180000e-01
4080000.0 1.408071000e+00 1.613870000e-01
4350000.0 1.357446000e+00 1.199320000e-01
4620000.0 1.323284000e+00 7.957000000e-02
4890000.0 1.294894000e+00 3.817600000e-02
5160000.0 1.269202000e+00 3.829000000e-03
5430000.0 1.257306000e+00 -3.171400000e-02
5700000.0 1.246714000e+00 -6.702600000e-02
5970000.0 1.238338000e+00 -9.799300000e-02
6240000.0 1.230141000e+00 -1.289220000e-01
6510000.0 1.226303000e+00 -1.530480000e-01
6780000.0 1.222449000e+00 -1.729920000e-01
7050000.0 1.219759000e+00 -1.864110000e-01
7320000.0 1.218499000e+00 -1.930130000e-01
7590000.0 -2.431370000e-01 -1.258478000e+00
7860000.0 -2.397940000e-01 -1.259549000e+00
8130000.0 -2.386300000e-01 -1.260577000e+00
8400000.0 -2.357470000e-01 -1.263081000e+00
8670000.0 -2.334860000e-01 -1.264785000e+00
8940000.0 -2.316530000e-01 -1.266326000e+00
9210000.0 -2.287770000e-01 -1.269327000e+00
9480000.0 -2.282280000e-01 -1.270520000e+00
9750000.0 -2.261330000e-01 -1.273078000e+00
10020000.0 -2.245430000e-01 -1.275535000e+00
10290000.0 -2.218310000e-01 -1.278314000e+00
10560000.0 -2.204260000e-01 -1.280703000e+00
10830000.0 -2.186410000e-01 -1.284317000e+00
11100000.0 -2.171180000e-01 -1.285422000e+00
11370000.0 -2.157280000e-01 -1.288727000e+00
11640000.0 -2.136410000e-01 -1.292122000e+00
11910000.0 -2.111860000e-01 -1.295517000e+00
12180000.0 -2.106380000e-01 -1.298488000e+00
12450000.0 -2.071920000e-01 -1.300372000e+00
12720000.0 -2.072180000e-01 -1.304271000e+00
12990000.0 -2.047910000e-01 -1.307631000e+00
13260000.0 -2.032940000e-01 -1.311417000e+00
13530000.0 -2.015130000e-01 -1.313621000e+00
13800000.0 -1.988540000e-01 -1.318194000e+00
14070000.0 -1.981120000e-01 -1.321322000e+00
14340000.0 -1.957100000e-01 -1.324967000e+00
14610000.0 -1.931930000e-01 -1.326888000e+00
14880000.0 -1.937050000e-01 -1.330336000e+00
15150000.0 -1.902200000e-01 -1.333532000e+00
15420000.0 -1.872760000e-01 -1.336818000e+00
15690000.0 -1.875240000e-01 -1.341919000e+00
15960000.0 -1.841220000e-01 -1.343221000e+00
16230000.0 -1.823170000e-01 -1.346969000e+00
16500000.0 -1.814670000e-01 -1.351141000e+00
16770000.0 -1.777400000e-01 -1.354477000e+00
17040000.0 -1.771110000e-01 -1.357672000e+00
17310000.0 -1.739760000e-01 -1.362446000e+00
17580000.0 -1.711090000e-01 -1.365033000e+00
17850000.0 -1.706310000e-01 -1.369376000e+00
18120000.0 -1.678460000e-01 -1.373584000e+00
18390000.0 -1.660660000e-01 -1.376925000e+00
18660000.0 -1.639860000e-01 -1.380279000e+00
18930000.0 -1.615780000e-01 -1.385070000e+00
19200000.0 -1.588060000e-01 -1.387716000e+00
19470000.0 -1.580410000e-01 -1.391429000e+00
19740000.0 -1.544420000e-01 -1.395644000e+00
20010000.0 -1.514370000e-01 -1.399662000e+00
20280000.0 -1.509810000e-01 -1.403094000e+00
20550000.0 -1.476150000e-01 -1.404874000e+00
20820000.0 -1.447420000e-01 -1.409061000e+00
21090000.0 -1.415210000e-01 -1.414390000e+00
21360000.0 -1.397770000e-01 -1.417841000e+00
21630000.0 -1.374020000e-01 -1.421587000e+00
21900000.0 -1.351940000e-01 -1.425523000e+00
22170000.0 -1.315370000e-01 -1.429466000e+00
22440000.0 -1.296450000e-01 -1.433669000e+00
22710000.0 -1.274170000e-01 -1.437344000e+00
22980000.0 -1.246270000e-01 -1.440618000e+00
23250000.0 -1.194170000e-01 -1.445961000e+00
23520000.0 -1.178550000e-01 -1.450345000e+00
23790000.0 -1.155490000e-01 -1.453421000e+00
24060000.0 -1.133470000e-01 -1.457410000e+00
24330000.0 -1.086450000e-01 -1.462392000e+00
24600000.0 -1.066300000e-01 -1.465263000e+00
24870000.0 -1.027670000e-01 -1.470068000e+00
25140000.0 -9.874300000e-02 -1.475472000e+00
25410000.0 -9.763000000e-02 -1.477735000e+00
25680000.0 -9.382700000e-02 -1.481891000e+00
25950000.0 -9.055900000e-02 -1.487511000e+00
26220000.0 -8.751500000e-02 -1.490913000e+00
26490000.0 -8.449200000e-02 -1.494056000e+00
26760000.0 -7.955400000e-02 -1.500229000e+00
27030000.0 -7.666300000e-02 -1.503341000e+00
27300000.0 -7.340800000e-02 -1.507172000e+00
27570000.0 -7.019100000e-02 -1.512112000e+00
27840000.0 -6.633300000e-02 -1.515926000e+00
28110000.0 -6.323100000e-02 -1.520970000e+00
28380000.0 -5.940300000e-02 -1.524637000e+00
28650000.0 -5.544400000e-02 -1.528625000e+00
28920000.0 -5.197700000e-02 -1.532967000e+00
29190000.0 -4.817700000e-02 -1.537099000e+00
29460000.0 -4.436800000e-02 -1.542005000e+00
29730000.0 -3.909200000e-02 -1.547357000e+00
30000000.0 -3.520000000e-02 -1.551352000e+00
32700000.0 6.590000000e-03 -1.594333000e+00
35400000.0 5.496500000e-02 -1.639906000e+00
38100000.0 1.095430000e-01 -1.682829000e+00
40800000.0 1.720440000e-01 -1.726647000e+00
43500000.0 2.414890000e-01 -1.766161000e+00
46200000.0 3.183450000e-01 -1.802550000e+00
48900000.0 4.029630000e-01 -1.833930000e+00
51600000.0 4.965060000e-01 -1.861835000e+00
54300000.0 5.967760000e-01 -1.878707000e+00
57000000.0 7.038850000e-01 -1.883484000e+00
59700000.0 8.170650000e-01 -1.879674000e+00
62400000.0 9.359730000e-01 -1.859706000e+00
65100000.0 1.051674000e+00 -1.823085000e+00
67800000.0 1.170000000e+00 -1.773649000e+00
70500000.0 1.276597000e+00 -1.704282000e+00
73200000.0 1.376406000e+00 -1.620403000e+00
75900000.0 1.461117000e+00 -1.527712000e+00
78600000.0 1.532935000e+00 -1.424139000e+00
81300000.0 1.587917000e+00 -1.312611000e+00
84000000.0 1.627573000e+00 -1.201787000e+00
86700000.0 1.651043000e+00 -1.089707000e+00
89400000.0 1.662283000e+00 -9.826690000e-01
92100000.0 1.662251000e+00 -8.807670000e-01
94800000.0 1.652082000e+00 -7.843750000e-01
97500000.0 1.633227000e+00 -6.976570000e-01
100200000.0 1.609997000e+00 -6.136130000e-01
102900000.0 1.579290000e+00 -5.389650000e-01
105600000.0 1.545314000e+00 -4.717790000e-01
108300000.0 1.510530000e+00 -4.128970000e-01
111000000.0 1.474132000e+00 -3.596210000e-01
113700000.0 1.436108000e+00 -3.093730000e-01
116400000.0 1.400028000e+00 -2.680070000e-01
119100000.0 1.361600000e+00 -2.281270000e-01
121800000.0 1.325665000e+00 -1.941450000e-01
124500000.0 1.287733000e+00 -1.630000000e-01
127200000.0 1.254117000e+00 -1.363310000e-01
129900000.0 1.221107000e+00 -1.104480000e-01
132600000.0 1.187341000e+00 -8.856200000e-02
135300000.0 1.154910000e+00 -7.303400000e-02
138000000.0 1.124444000e+00 -5.524400000e-02
140700000.0 1.094043000e+00 -4.155600000e-02
143400000.0 1.065843000e+00 -2.693100000e-02
146100000.0 1.039703000e+00 -1.433700000e-02
148800000.0 1.011523000e+00 -3.760000000e-03
151500000.0 9.999390000e-01 8.790000000e-04
154200000.0 9.992760000e-01 7.890000000e-04
156900000.0 1.000579000e+00 6.860000000e-04
159600000.0 1.001032000e+00 6.990000000e-04
162300000.0 1.000425000e+00 -3.290000000e-04
165000000.0 1.002329000e+00 -4.710000000e-04
167700000.0 1.003283000e+00 -1.300000000e-03
170400000.0 1.002285000e+00 -2.930000000e-04
173100000.0 1.002819000e+00 -8.520000000e-04
175800000.0 1.001833000e+00 4.500000000e-04
178500000.0 1.003025000e+00 -1.218000000e-03
181200000.0 1.003318000e+00 5.600000000e-05
183900000.0 1.004019000e+00 3.800000000e-04
186600000.0 1.004129000e+00 -8.520000000e-04
189300000.0 1.005033000e+00 5.640000000e-04
192000000.0 1.004318000e+00 -9.780000000e-04
194700000.0 1.005890000e+00 -1.348000000e-03
197400000.0 1.005190000e+00 -2.033000000e-03
200100000.0 1.005190000e+00 -1.533000000e-03
202800000.0 1.004763000e+00 -2.063000000e-03
205500000.0 1.006149000e+00 -1.789000000e-03
208200000.0 1.005109000e+00 -1.776000000e-03
210900000.0 1.005740000e+00 -6.140000000e-04
213600000.0 1.006002000e+00 -1.723000000e-03
216300000.0 1.006860000e+00 -2.380000000e-03
219000000.0 1.007179000e+00 -2.302000000e-03
221700000.0 1.004473000e+00 -1.731000000e-03
224400000.0 1.006870000e+00 -1.299000000e-03
227100000.0 1.006409000e+00 -1.471000000e-03
229800000.0 1.006091000e+00 -2.048000000e-03
232500000.0 1.006001000e+00 -1.362000000e-03
235200000.0 1.005271000e+00 -7.840000000e-04
237900000.0 1.006402000e+00 -8.400000000e-05
240600000.0 1.006383000e+00 -4.990000000e-04
243300000.0 1.004762000e+00 -4.740000000e-04
246000000.0 1.005915000e+00 -1.536000000e-03
248700000.0 1.004560000e+00 -1.535000000e-03
251400000.0 1.006173000e+00 -1.424000000e-03
254100000.0 1.005024000e+00 -1.101000000e-03
256800000.0 1.004019000e+00 -1.385000000e-03
259500000.0 1.005646000e+00 -2.168000000e-03
262200000.0 1.004673000e+00 -9.020000000e-04
264900000.0 1.004925000e+00 -5.740000000e-04
267600000.0 1.004808000e+00 -1.634000000e-03
270300000.0 1.005703000e+00 3.200000000e-05
273000000.0 1.004331000e+00 -2.610000000e-04
275700000.0 1.004012000e+00 -3.330000000e-04
278400000.0 1.006814000e+00 1.505000000e-03
281100000.0 1.003521000e+00 -8.130000000e-04
283800000.0 1.003919000e+00 1.219000000e-03
286500000.0 1.002891000e+00 6.850000000e-04
289200000.0 1.002871000e+00 -4.090000000e-04
291900000.0 1.002154000e+00 -1.445000000e-03
294600000.0 9.995680000e-01 5.400000000e-04
297300000.0 1.002312000e+00 1.321000000e-03
300000000.0 1.003015000e+00 -2.700000000e-04
311500000.0 1.002409000e+00 1.227000000e-03
323000000.0 1.004614000e+00 -1.062000000e-03
334500000.0 1.004335000e+00 -1.119000000e-03
346000000.0 1.006449000e+00 3.000000000e-06
357500000.0 1.006618000e+00 -9.200000000e-04
369000000.0 1.007252000e+00 3.590000000e-04
380500000.0 1.006271000e+00 9.020000000e-04
392000000.0 1.006070000e+00 1.393000000e-03
403500000.0 1.006196000e+00 1.918000000e-03
415000000.0 1.005163000e+00 2.170000000e-03
426500000.0 1.003453000e+00 8.000000000e-06
438000000.0 1.001097000e+00 6.610000000e-04
449500000.0 9.990380000e-01 2.640000000e-04
461000000.0 1.001570000e+00 2.286000000e-03
472500000.0 1.002750000e+00 4.005000000e-03
484000000.0 1.005549000e+00 4.543000000e-03
495500000.0 1.005980000e+00 5.398000000e-03
507000000.0 1.008567000e+00 7.098000000e-03
518500000.0 1.009014000e+00 6.928000000e-03
530000000.0 1.009499000e+00 5.974000000e-03
541500000.0 1.007819000e+00 8.267000000e-03
553000000.0 1.008857000e+00 6.908000000e-03
564500000.0 1.007683000e+00 8.098000000e-03
576000000.0 1.004655000e+00 7.371000000e-03
587500000.0 1.004227000e+00 5.690000000e-03
599000000.0 1.002913000e+00 6.482000000e-03
610500000.0 1.005512000e+00 8.222000000e-03
622000000.0 1.009336000e+00 6.725000000e-03
633500000.0 1.019392000e+00 4.296600000e-02
645000000.0 1.013354000e+00 1.144500000e-02
656500000.0 1.020447000e+00 2.576000000e-02
668000000.0 1.015235000e+00 -1.279500000e-02
679500000.0 1.022357000e+00 4.000600000e-02
691000000.0 1.013894000e+00 1.047200000e-02
702500000.0 1.015722000e+00 1.081300000e-02
714000000.0 1.016245000e+00 6.780000000e-03
725500000.0 1.009523000e+00 3.657000000e-03
737000000.0 1.006397000e+00 3.269000000e-03
748500000.0 1.004493000e+00 1.223000000e-03
760000000.0 1.003023000e+00 -3.895000000e-03
771500000.0 1.008778000e+00 -3.178000000e-03
783000000.0 1.012458000e+00 -3.331000000e-03
794500000.0 1.015836000e+00 -4.366000000e-03
806000000.0 1.016228000e+00 -4.259000000e-03
817500000.0 1.018476000e+00 -1.162900000e-02
829000000.0 1.019895000e+00 -3.595000000e-03
840500000.0 1.018594000e+00 -2.920000000e-03
852000000.0 1.016767000e+00 -5.040000000e-04
863500000.0 1.013534000e+00 -8.232000000e-03
875000000.0 1.012322000e+00 -5.841000000e-03
886500000.0 1.005459000e+00 -2.349000000e-03
898000000.0 9.979230000e-01 2.390000000e-04
909500000.0 1.000472000e+00 -3.005000000e-03
921000000.0 1.001135000e+00 1.726000000e-03
932500000.0 1.004023000e+00 -6.904000000e-03
944000000.0 1.004958000e+00 -7.500000000e-03
955500000.0 1.002448000e+00 -6.448000000e-03
967000000.0 1.004020000e+00 -1.007900000e-02
978500000.0 1.004686000e+00 -8.663000000e-03
990000000.0 1.005301000e+00 -9.243000000e-03
1001500000.0 1.003728000e+00 -7.266000000e-03
1013000000.0 1.004688000e+00 -3.898000000e-03
1024500000.0 1.008189000e+00 -3.668000000e-03
1036000000.0 1.002881000e+00 2.826000000e-03
1047500000.0 1.000102000e+00 -5.066000000e-03
1059000000.0 1.001325000e+00 2.930000000e-04
1070500000.0 9.980820000e-01 -1.474000000e-03
1082000000.0 9.994670000e-01 -6.643000000e-03
1093500000.0 1.008161000e+00 -5.170000000e-04
1105000000.0 1.006454000e+00 -9.590000000e-03
1116500000.0 1.007642000e+00 -1.494000000e-03
1128000000.0 1.009420000e+00 -3.072400000e-02
1139500000.0 1.006365000e+00 -1.270700000e-02
1151000000.0 1.003791000e+00 -3.151000000e-03
1162500000.0 1.003820000e+00 -3.460000000e-03
1174000000.0 1.005010000e+00 -5.011000000e-03
1185500000.0 1.003784000e+00 -5.190000000e-03
1197000000.0 1.000226000e+00 -8.250000000e-04
1208500000.0 1.006535000e+00 -4.300000000e-05
1220000000.0 1.006407000e+00 -7.243000000e-03
1231500000.0 1.001984000e+00 -2.560000000e-03
1243000000.0 1.006472000e+00 -5.818000000e-03
1254500000.0 1.005336000e+00 4.887000000e-03
1266000000.0 1.008928000e+00 -3.532000000e-03
1277500000.0 1.003642000e+00 2.050000000e-04
1289000000.0 1.006178000e+00 -4.383000000e-03
1300500000.0 9.989350000e-01 -6.758000000e-03
1312000000.0 9.988460000e-01 -2.805000000e-03
1323500000.0 1.011458000e+00 1.812000000e-03
1335000000.0 1.001554000e+00 1.210000000e-04
1346500000.0 9.985630000e-01 4.020000000e-03
1358000000.0 9.983100000e-01 9.354000000e-03
1369500000.0 1.003783000e+00 1.284300000e-02
1381000000.0 9.973870000e-01 1.405600000e-02
1392500000.0 1.008019000e+00 1.557900000e-02
1404000000.0 1.007437000e+00 2.969800000e-02
1415500000.0 1.004971000e+00 1.732400000e-02
1427000000.0 1.000883000e+00 3.946000000e-03
1438500000.0 1.002233000e+00 2.438200000e-02
1450000000.0 1.002342000e+00 1.411900000e-02
