! piloto_saltos / abierto_pausado / r12
# HZ S RI R 50
50000.0 1.006468000e+00 -6.967500000e-02
59500.0 1.003222000e+00 -5.732800000e-02
69000.0 1.005283000e+00 -4.322300000e-02
78500.0 1.002995000e+00 -2.933500000e-02
88000.0 1.001014000e+00 -1.702800000e-02
97500.0 9.999760000e-01 -3.962000000e-03
107000.0 9.995940000e-01 8.230000000e-03
116500.0 1.000821000e+00 2.039100000e-02
126000.0 9.993580000e-01 3.131700000e-02
135500.0 1.001242000e+00 4.563600000e-02
145000.0 1.001137000e+00 5.692900000e-02
154500.0 1.001622000e+00 6.949000000e-02
164000.0 1.002175000e+00 8.107100000e-02
173500.0 1.002372000e+00 9.325700000e-02
183000.0 1.002892000e+00 1.050130000e-01
192500.0 1.002944000e+00 1.165780000e-01
202000.0 1.003115000e+00 1.283600000e-01
211500.0 1.004257000e+00 1.398990000e-01
221000.0 1.004121000e+00 1.511530000e-01
230500.0 1.004428000e+00 1.627310000e-01
240000.0 9.818800000e-01 1.069500000e-01
249500.0 1.005844000e+00 1.856810000e-01
259000.0 1.005868000e+00 1.970080000e-01
268500.0 1.004920000e+00 2.078280000e-01
278000.0 1.005608000e+00 2.191220000e-01
287500.0 1.005861000e+00 2.304670000e-01
297000.0 1.006994000e+00 2.415120000e-01
306500.0 1.006232000e+00 2.518790000e-01
316000.0 1.006430000e+00 2.631720000e-01
325500.0 1.006891000e+00 2.734630000e-01
335000.0 1.006992000e+00 2.852640000e-01
344500.0 1.007874000e+00 2.957910000e-01
354000.0 1.006951000e+00 3.056010000e-01
363500.0 1.006691000e+00 3.174840000e-01
373000.0 1.007919000e+00 3.267020000e-01
382500.0 1.008368000e+00 3.374060000e-01
392000.0 1.007894000e+00 3.475490000e-01
401500.0 1.008365000e+00 3.585950000e-01
411000.0 1.009609000e+00 3.694950000e-01
420500.0 1.008461000e+00 3.790320000e-01
430000.0 1.009426000e+00 3.898460000e-01
439500.0 1.009971000e+00 3.997150000e-01
449000.0 1.009715000e+00 4.099650000e-01
458500.0 1.010444000e+00 4.204910000e-01
468000.0 1.011093000e+00 4.304090000e-01
477500.0 1.011011000e+00 4.412170000e-01
487000.0 1.011572000e+00 4.507940000e-01
496500.0 1.011979000e+00 4.613620000e-01
506000.0 1.011798000e+00 4.710010000e-01
515500.0 1.011506000e+00 4.806940000e-01
525000.0 1.011990000e+00 4.905960000e-01
534500.0 1.012918000e+00 5.000340000e-01
544000.0 1.013747000e+00 5.108750000e-01
553500.0 1.014291000e+00 5.198080000e-01
563000.0 1.014590000e+00 5.298420000e-01
572500.0 1.015766000e+00 5.403140000e-01
582000.0 1.014494000e+00 5.498830000e-01
591500.0 1.015571000e+00 5.588710000e-01
601000.0 1.015879000e+00 5.688370000e-01
610500.0 1.016153000e+00 5.799530000e-01
620000.0 1.018208000e+00 5.890410000e-01
629500.0 1.018222000e+00 5.991140000e-01
639000.0 1.018196000e+00 6.084390000e-01
648500.0 1.019245000e+00 6.168040000e-01
658000.0 1.020573000e+00 6.272960000e-01
667500.0 1.020524000e+00 6.369020000e-01
677000.0 1.021225000e+00 6.461450000e-01
686500.0 1.022877000e+00 6.557200000e-01
696000.0 1.023720000e+00 6.640940000e-01
705500.0 1.023848000e+00 6.751810000e-01
715000.0 1.024939000e+00 6.849900000e-01
724500.0 1.026249000e+00 6.933610000e-01
734000.0 1.027051000e+00 7.032080000e-01
743500.0 1.028775000e+00 7.121390000e-01
753000.0 1.028880000e+00 7.205430000e-01
762500.0 1.030672000e+00 7.313250000e-01
772000.0 1.032103000e+00 7.404190000e-01
781500.0 1.032786000e+00 7.491580000e-01
791000.0 1.034763000e+00 7.586960000e-01
800500.0 1.035559000e+00 7.686710000e-01
810000.0 1.037191000e+00 7.772020000e-01
819500.0 1.038462000e+00 7.861540000e-01
829000.0 1.040238000e+00 7.941610000e-01
838500.0 1.042657000e+00 8.046580000e-01
848000.0 1.043667000e+00 8.137860000e-01
857500.0 1.045227000e+00 8.244850000e-01
867000.0 1.046498000e+00 8.317470000e-01
876500.0 1.048404000e+00 8.408400000e-01
886000.0 1.050111000e+00 8.501800000e-01
895500.0 1.052386000e+00 8.591060000e-01
905000.0 1.054360000e+00 8.669390000e-01
914500.0 1.056529000e+00 8.763860000e-01
924000.0 1.058963000e+00 8.860850000e-01
933500.0 1.060149000e+00 8.946720000e-01
943000.0 1.064041000e+00 9.033280000e-01
952500.0 1.065330000e+00 9.127880000e-01
962000.0 1.069169000e+00 9.216440000e-01
971500.0 1.070612000e+00 9.290910000e-01
981000.0 1.072755000e+00 9.378920000e-01
990500.0 1.075149000e+00 9.459640000e-01
1000000.0 1.078300000e+00 9.563490000e-01
1090000.0 1.107215000e+00 1.035604000e+00
1180000.0 1.146183000e+00 1.112341000e+00
1270000.0 1.193596000e+00 1.182312000e+00
1360000.0 1.254981000e+00 1.242902000e+00
1450000.0 1.324533000e+00 1.295291000e+00
1540000.0 1.400710000e+00 1.332111000e+00
1630000.0 1.489124000e+00 1.354988000e+00
1720000.0 1.579315000e+00 1.358443000e+00
1810000.0 1.669169000e+00 1.335885000e+00
1900000.0 1.756382000e+00 1.297178000e+00
1990000.0 1.827395000e+00 1.239622000e+00
2080000.0 1.891454000e+00 1.166408000e+00
2170000.0 1.932381000e+00 1.078024000e+00
2260000.0 1.957432000e+00 9.902350000e-01
2350000.0 1.965985000e+00 9.021780000e-01
2440000.0 1.956691000e+00 8.177670000e-01
2530000.0 1.940423000e+00 7.362570000e-01
2620000.0 1.915185000e+00 6.618230000e-01
2710000.0 1.884590000e+00 5.903090000e-01
2800000.0 1.844314000e+00 5.421690000e-01
2890000.0 1.804912000e+00 4.921150000e-01
2980000.0 1.767128000e+00 4.469510000e-01
3070000.0 1.727353000e+00 4.093440000e-01
3160000.0 1.690290000e+00 3.747120000e-01
3250000.0 1.652622000e+00 3.451040000e-01
3340000.0 1.620442000e+00 3.188860000e-01
3430000.0 1.587877000e+00 2.943340000e-01
3520000.0 1.557678000e+00 2.725380000e-01
3610000.0 1.529574000e+00 2.516080000e-01
3700000.0 1.503934000e+00 2.324060000e-01
3790000.0 1.477233000e+00 2.153570000e-01
3880000.0 1.455347000e+00 1.980160000e-01
3970000.0 1.434752000e+00 1.812770000e-01
4060000.0 1.414851000e+00 1.663810000e-01
4150000.0 1.396340000e+00 1.511640000e-01
4240000.0 1.380408000e+00 1.362560000e-01
4330000.0 1.364408000e+00 1.230220000e-01
4420000.0 1.349932000e+00 1.081710000e-01
4510000.0 1.338760000e+00 9.422100000e-02
4600000.0 1.326396000e+00 8.180500000e-02
4690000.0 1.316004000e+00 6.735800000e-02
4780000.0 1.307381000e+00 5.605100000e-02
4870000.0 1.298375000e+00 4.379200000e-02
4960000.0 1.291941000e+00 3.017100000e-02
5050000.0 1.277669000e+00 1.687200000e-02
5140000.0 1.271863000e+00 4.347000000e-03
5230000.0 1.267594000e+00 -7.087000000e-03
5320000.0 1.263364000e+00 -1.912100000e-02
5410000.0 1.259907000e+00 -3.125400000e-02
5500000.0 1.256359000e+00 -4.257100000e-02
5590000.0 1.251696000e+00 -5.500500000e-02
5680000.0 1.248449000e+00 -6.523000000e-02
5770000.0 1.244754000e+00 -7.640800000e-02
5860000.0 1.241857000e+00 -8.758100000e-02
5950000.0 1.239995000e+00 -9.831400000e-02
6040000.0 1.237403000e+00 -1.080130000e-01
6130000.0 1.233978000e+00 -1.176760000e-01
6220000.0 1.231522000e+00 -1.274660000e-01
6310000.0 1.228834000e+00 -1.363090000e-01
6400000.0 1.227220000e+00 -1.438940000e-01
6490000.0 1.225940000e+00 -1.507670000e-01
6580000.0 1.225158000e+00 -1.597920000e-01
6670000.0 1.223554000e+00 -1.654090000e-01
6760000.0 1.223201000e+00 -1.712570000e-01
6850000.0 1.222032000e+00 -1.778860000e-01
6940000.0 1.221764000e+00 -1.816300000e-01
7030000.0 1.220274000e+00 -1.841700000e-01
7120000.0 1.218805000e+00 -1.898400000e-01
7210000.0 1.219864000e+00 -1.914870000e-01
7300000.0 1.219252000e+00 -1.941760000e-01
7390000.0 1.218713000e+00 -1.934780000e-01
7480000.0 1.220507000e+00 -1.938260000e-01
7570000.0 -2.426620000e-01 -1.258169000e+00
7660000.0 -2.424890000e-01 -1.259765000e+00
7750000.0 -2.403190000e-01 -1.259822000e+00
7840000.0 -2.397580000e-01 -1.260456000e+00
7930000.0 -2.406810000e-01 -1.261007000e+00
8020000.0 -2.390740000e-01 -1.260687000e+00
8110000.0 -2.385680000e-01 -1.261883000e+00
8200000.0 -2.373970000e-01 -1.262378000e+00
8290000.0 -2.373780000e-01 -1.262399000e+00
8380000.0 -2.351920000e-01 -1.263923000e+00
8470000.0 -2.372930000e-01 -1.263578000e+00
8560000.0 -2.348020000e-01 -1.263671000e+00
8650000.0 -2.339550000e-01 -1.264582000e+00
8740000.0 -2.332310000e-01 -1.265893000e+00
8830000.0 -2.335510000e-01 -1.266649000e+00
8920000.0 -2.320450000e-01 -1.266996000e+00
9010000.0 -2.306250000e-01 -1.267423000e+00
9100000.0 -2.306950000e-01 -1.268097000e+00
9190000.0 -2.293080000e-01 -1.268271000e+00
9280000.0 -2.293980000e-01 -1.269112000e+00
9370000.0 -2.282410000e-01 -1.269317000e+00
9460000.0 -2.284140000e-01 -1.271172000e+00
9550000.0 -2.286480000e-01 -1.272968000e+00
9640000.0 -2.268800000e-01 -1.272701000e+00
9730000.0 -2.268840000e-01 -1.273076000e+00
9820000.0 -2.247840000e-01 -1.274693000e+00
9910000.0 -2.253850000e-01 -1.274605000e+00
10000000.0 -2.241240000e-01 -1.275108000e+00
10900000.0 -2.177830000e-01 -1.285710000e+00
11800000.0 -2.125670000e-01 -1.294062000e+00
12700000.0 -2.063760000e-01 -1.304433000e+00
13600000.0 -2.005070000e-01 -1.315052000e+00
14500000.0 -1.951670000e-01 -1.325734000e+00
15400000.0 -1.878980000e-01 -1.337192000e+00
16300000.0 -1.823210000e-01 -1.348859000e+00
17200000.0 -1.760870000e-01 -1.360368000e+00
18100000.0 -1.688300000e-01 -1.373071000e+00
19000000.0 -1.604520000e-01 -1.385705000e+00
19900000.0 -1.526790000e-01 -1.397803000e+00
20800000.0 -1.441200000e-01 -1.410736000e+00
21700000.0 -1.367400000e-01 -1.423439000e+00
22600000.0 -1.273590000e-01 -1.435655000e+00
23500000.0 -1.184870000e-01 -1.449684000e+00
24400000.0 -1.086950000e-01 -1.461663000e+00
25300000.0 -9.795200000e-02 -1.477378000e+00
26200000.0 -8.663900000e-02 -1.490685000e+00
27100000.0 -7.570000000e-02 -1.504723000e+00
28000000.0 -6.341400000e-02 -1.518766000e+00
28900000.0 -5.189200000e-02 -1.533122000e+00
29800000.0 -3.867900000e-02 -1.547578000e+00
30700000.0 -2.547600000e-02 -1.561718000e+00
31600000.0 -1.136700000e-02 -1.577288000e+00
32500000.0 3.331000000e-03 -1.590787000e+00
33400000.0 1.963700000e-02 -1.606742000e+00
34300000.0 3.387000000e-02 -1.620395000e+00
35200000.0 5.097200000e-02 -1.635478000e+00
36100000.0 6.964500000e-02 -1.650993000e+00
37000000.0 8.842400000e-02 -1.665044000e+00
37900000.0 1.036630000e-01 -1.678846000e+00
38800000.0 1.262840000e-01 -1.694816000e+00
39700000.0 1.458290000e-01 -1.707671000e+00
40600000.0 1.682920000e-01 -1.721725000e+00
41500000.0 1.875650000e-01 -1.737666000e+00
42400000.0 2.126780000e-01 -1.750030000e+00
43300000.0 2.349630000e-01 -1.763642000e+00
44200000.0 2.599160000e-01 -1.775778000e+00
45100000.0 2.862600000e-01 -1.788956000e+00
46000000.0 3.114220000e-01 -1.799269000e+00
46900000.0 3.384910000e-01 -1.813042000e+00
47800000.0 3.674670000e-01 -1.822710000e+00
48700000.0 3.947600000e-01 -1.832695000e+00
49600000.0 4.264370000e-01 -1.841967000e+00
50500000.0 4.557830000e-01 -1.852527000e+00
51400000.0 4.890830000e-01 -1.860400000e+00
52300000.0 5.218590000e-01 -1.866315000e+00
53200000.0 5.560270000e-01 -1.873574000e+00
54100000.0 5.906980000e-01 -1.877464000e+00
55000000.0 6.253510000e-01 -1.882523000e+00
55900000.0 6.610430000e-01 -1.883342000e+00
56800000.0 6.992650000e-01 -1.885015000e+00
57700000.0 7.357910000e-01 -1.885790000e+00
58600000.0 7.720160000e-01 -1.883751000e+00
59500000.0 8.120470000e-01 -1.881275000e+00
60400000.0 8.487780000e-01 -1.875509000e+00
61300000.0 8.881370000e-01 -1.870923000e+00
62200000.0 9.287040000e-01 -1.863154000e+00
63100000.0 9.661350000e-01 -1.851007000e+00
64000000.0 1.005940000e+00 -1.841038000e+00
64900000.0 1.044892000e+00 -1.828213000e+00
65800000.0 1.085402000e+00 -1.812677000e+00
66700000.0 1.121821000e+00 -1.797217000e+00
67600000.0 1.159589000e+00 -1.777027000e+00
68500000.0 1.197246000e+00 -1.758026000e+00
69400000.0 1.235579000e+00 -1.733719000e+00
70300000.0 1.268153000e+00 -1.710351000e+00
71200000.0 1.301915000e+00 -1.684427000e+00
72100000.0 1.336986000e+00 -1.657622000e+00
73000000.0 1.368730000e+00 -1.629426000e+00
73900000.0 1.397974000e+00 -1.598377000e+00
74800000.0 1.427530000e+00 -1.566603000e+00
75700000.0 1.456540000e+00 -1.533331000e+00
76600000.0 1.480318000e+00 -1.501184000e+00
77500000.0 1.507199000e+00 -1.466390000e+00
78400000.0 1.528502000e+00 -1.431981000e+00
79300000.0 1.545464000e+00 -1.395659000e+00
80200000.0 1.567308000e+00 -1.356730000e+00
81100000.0 1.583698000e+00 -1.323143000e+00
82000000.0 1.600255000e+00 -1.285044000e+00
82900000.0 1.612713000e+00 -1.248718000e+00
83800000.0 1.624483000e+00 -1.210290000e+00
84700000.0 1.635143000e+00 -1.172971000e+00
85600000.0 1.644282000e+00 -1.137498000e+00
86500000.0 1.650930000e+00 -1.099656000e+00
87400000.0 1.656511000e+00 -1.063133000e+00
88300000.0 1.662358000e+00 -1.026056000e+00
89200000.0 1.662333000e+00 -9.909500000e-01
90100000.0 1.663656000e+00 -9.558110000e-01
91000000.0 1.664373000e+00 -9.219680000e-01
91900000.0 1.662585000e+00 -8.880640000e-01
92800000.0 1.661129000e+00 -8.556940000e-01
93700000.0 1.656427000e+00 -8.239290000e-01
94600000.0 1.652147000e+00 -7.923320000e-01
95500000.0 1.647379000e+00 -7.589720000e-01
96400000.0 1.641344000e+00 -7.318330000e-01
97300000.0 1.636207000e+00 -7.028680000e-01
98200000.0 1.626401000e+00 -6.747510000e-01
99100000.0 1.618423000e+00 -6.466340000e-01
100000000.0 1.610898000e+00 -6.197410000e-01
109000000.0 1.502811000e+00 -3.986990000e-01
118000000.0 1.377347000e+00 -2.436970000e-01
127000000.0 1.256828000e+00 -1.394540000e-01
136000000.0 1.147714000e+00 -6.970600000e-02
145000000.0 1.049311000e+00 -1.932700000e-02
154000000.0 1.000042000e+00 1.950000000e-04
163000000.0 1.002039000e+00 -3.890000000e-04
172000000.0 1.003291000e+00 6.900000000e-05
181000000.0 1.003234000e+00 -9.550000000e-04
190000000.0 1.004294000e+00 -1.678000000e-03
199000000.0 1.004950000e+00 -1.764000000e-03
208000000.0 1.005913000e+00 -1.849000000e-03
217000000.0 1.007460000e+00 -4.970000000e-04
226000000.0 1.005514000e+00 -1.866000000e-03
235000000.0 1.006088000e+00 -9.140000000e-04
244000000.0 1.006108000e+00 -4.120000000e-04
253000000.0 1.005838000e+00 -1.803000000e-03
262000000.0 1.005468000e+00 -1.327000000e-03
271000000.0 1.005048000e+00 1.440000000e-04
280000000.0 1.004582000e+00 -2.710000000e-04
289000000.0 1.003400000e+00 2.650000000e-04
298000000.0 1.001741000e+00 -2.256000000e-03
307000000.0 1.003217000e+00 8.390000000e-04
316000000.0 1.002939000e+00 2.080000000e-04
325000000.0 1.004019000e+00 9.000000000e-05
334000000.0 1.005338000e+00 1.252000000e-03
343000000.0 1.005744000e+00 -6.500000000e-04
352000000.0 1.008052000e+00 1.560000000e-03
361000000.0 1.007887000e+00 2.610000000e-04
370000000.0 1.006930000e+00 1.850000000e-04
379000000.0 1.007381000e+00 9.400000000e-04
388000000.0 1.006030000e+00 2.980000000e-04
397000000.0 9.966800000e-01 -3.450700000e-02
406000000.0 1.019933000e+00 3.311300000e-02
415000000.0 1.003984000e+00 1.416000000e-03
424000000.0 1.003399000e+00 2.324000000e-03
433000000.0 1.001104000e+00 1.050000000e-03
442000000.0 1.000833000e+00 1.154000000e-03
451000000.0 1.000309000e+00 2.138000000e-03
460000000.0 1.001649000e+00 4.650000000e-04
469000000.0 1.002159000e+00 4.831000000e-03
478000000.0 1.004243000e+00 2.286000000e-03
487000000.0 1.004865000e+00 6.085000000e-03
496000000.0 1.006904000e+00 4.911000000e-03
505000000.0 1.006900000e+00 5.328000000e-03
514000000.0 1.007671000e+00 5.060000000e-03
523000000.0 1.008753000e+00 8.055000000e-03
532000000.0 1.008229000e+00 9.842000000e-03
541000000.0 1.007894000e+00 8.430000000e-03
550000000.0 1.007748000e+00 1.225700000e-02
559000000.0 1.006309000e+00 8.951000000e-03
568000000.0 1.006534000e+00 8.541000000e-03
577000000.0 1.007669000e+00 8.476000000e-03
586000000.0 1.003825000e+00 6.159000000e-03
595000000.0 1.005251000e+00 6.197000000e-03
604000000.0 1.002796000e+00 5.384000000e-03
613000000.0 1.006983000e+00 6.709000000e-03
622000000.0 1.011126000e+00 9.560000000e-03
631000000.0 1.009137000e+00 8.541000000e-03
640000000.0 1.014400000e+00 6.678000000e-03
649000000.0 1.012692000e+00 7.445000000e-03
658000000.0 1.016493000e+00 9.034000000e-03
667000000.0 1.022753000e+00 1.131400000e-02
676000000.0 1.016589000e+00 7.135000000e-03
685000000.0 1.020610000e+00 1.065100000e-02
694000000.0 1.014658000e+00 8.810000000e-03
703000000.0 1.016103000e+00 6.355000000e-03
712000000.0 1.006433000e+00 8.020000000e-04
721000000.0 1.014481000e+00 4.407000000e-03
730000000.0 1.009619000e+00 3.748000000e-03
739000000.0 1.005945000e+00 1.994000000e-03
748000000.0 1.003335000e+00 4.013000000e-03
757000000.0 1.006288000e+00 -3.120000000e-04
766000000.0 1.007699000e+00 -2.666000000e-03
775000000.0 1.008946000e+00 -4.099000000e-03
784000000.0 1.011195000e+00 -2.870000000e-03
793000000.0 1.012891000e+00 -3.608000000e-03
802000000.0 1.016144000e+00 -8.926000000e-03
811000000.0 1.018664000e+00 -7.501000000e-03
820000000.0 1.018122000e+00 -4.673000000e-03
829000000.0 1.016314000e+00 -8.957000000e-03
838000000.0 1.016969000e+00 -7.851000000e-03
847000000.0 1.018640000e+00 -7.306000000e-03
856000000.0 1.015076000e+00 -4.476000000e-03
865000000.0 1.013561000e+00 -2.205000000e-03
874000000.0 1.010655000e+00 -8.477000000e-03
883000000.0 1.006305000e+00 -1.169000000e-03
892000000.0 1.002519000e+00 -5.300000000e-05
901000000.0 1.000365000e+00 -2.152000000e-03
910000000.0 9.993860000e-01 -2.803000000e-03
919000000.0 1.004014000e+00 -1.198000000e-03
928000000.0 1.003052000e+00 -4.568000000e-03
937000000.0 1.003947000e+00 -5.027000000e-03
946000000.0 1.007569000e+00 -4.227000000e-03
955000000.0 1.004006000e+00 -1.076400000e-02
964000000.0 1.006666000e+00 -8.947000000e-03
973000000.0 1.007134000e+00 -7.325000000e-03
982000000.0 1.003364000e+00 -1.129600000e-02
991000000.0 1.004380000e+00 -8.675000000e-03
1000000000.0 1.004599000e+00 -6.784000000e-03
1004500000.0 1.002731000e+00 -3.694000000e-03
1009000000.0 1.004640000e+00 -8.841000000e-03
1013500000.0 1.004744000e+00 -8.435000000e-03
1018000000.0 1.003217000e+00 -8.710000000e-03
1022500000.0 1.003443000e+00 -3.260000000e-04
1027000000.0 1.002651000e+00 -3.114000000e-03
1031500000.0 1.000034000e+00 -6.457000000e-03
1036000000.0 1.000261000e+00 -1.621000000e-03
1040500000.0 1.001463000e+00 -2.190000000e-03
1045000000.0 1.000983000e+00 7.320000000e-04
1049500000.0 1.001423000e+00 2.011000000e-03
1054000000.0 1.000479000e+00 -1.710000000e-03
1058500000.0 9.993150000e-01 2.809000000e-03
1063000000.0 1.000831000e+00 -2.710000000e-03
1067500000.0 1.002518000e+00 -3.225000000e-03
1072000000.0 1.002432000e+00 4.059000000e-03
1076500000.0 9.993600000e-01 2.822000000e-03
1081000000.0 1.004193000e+00 -2.458000000e-03
1085500000.0 1.004785000e+00 5.820000000e-04
1090000000.0 1.003646000e+00 -2.653000000e-03
1094500000.0 1.003046000e+00 -9.250000000e-04
1099000000.0 1.002039000e+00 -3.967000000e-03
1103500000.0 1.000450000e+00 -2.992000000e-03
1108000000.0 1.004021000e+00 -6.102000000e-03
1112500000.0 1.007219000e+00 1.791000000e-03
1117000000.0 1.003935000e+00 7.456000000e-03
1121500000.0 1.007430000e+00 5.790000000e-04
1126000000.0 1.007876000e+00 -1.587000000e-03
1130500000.0 1.008495000e+00 -8.216000000e-03
1135000000.0 1.005449000e+00 1.607600000e-02
1139500000.0 1.013011000e+00 3.155500000e-02
1144000000.0 9.936400000e-01 -4.249600000e-02
1148500000.0 1.013504000e+00 3.400300000e-02
1153000000.0 9.992650000e-01 -2.629000000e-02
1157500000.0 1.002071000e+00 -4.550000000e-03
1162000000.0 1.002797000e+00 1.937000000e-03
1166500000.0 1.008651000e+00 -5.106000000e-03
1171000000.0 9.997380000e-01 -1.279000000e-03
1175500000.0 1.006611000e+00 5.590000000e-04
1180000000.0 1.000607000e+00 -8.614000000e-03
1184500000.0 1.006026000e+00 -4.000000000e-06
1189000000.0 1.003228000e+00 -4.052000000e-03
1193500000.0 1.002094000e+00 -8.949000000e-03
1198000000.0 9.998520000e-01 -2.692000000e-03
1202500000.0 1.004615000e+00 3.410000000e-03
1207000000.0 1.003053000e+00 -1.609000000e-03
1211500000.0 1.002067000e+00 -4.307000000e-03
1216000000.0 1.005774000e+00 2.914000000e-03
1220500000.0 1.003535000e+00 -9.520000000e-04
1225000000.0 1.005507000e+00 -1.081900000e-02
1229500000.0 1.008442000e+00 4.543000000e-03
1234000000.0 9.998010000e-01 -2.408000000e-03
1238500000.0 1.004722000e+00 7.403000000e-03
1243000000.0 1.003638000e+00 -1.507000000e-03
1247500000.0 1.005564000e+00 -5.514000000e-03
1252000000.0 1.009539000e+00 2.020000000e-04
1256500000.0 1.003803000e+00 -3.465000000e-03
1261000000.0 9.992860000e-01 -3.324000000e-03
1265500000.0 9.994980000e-01 -1.058100000e-02
1270000000.0 1.003700000e+00 -5.404000000e-03
1274500000.0 1.004937000e+00 6.793000000e-03
1279000000.0 1.010530000e+00 1.370000000e-04
1283500000.0 1.004921000e+00 1.100000000e-03
1288000000.0 1.008942000e+00 -6.860000000e-04
1292500000.0 1.004956000e+00 -2.726000000e-03
1297000000.0 1.009956000e+00 -6.587000000e-03
1301500000.0 1.006553000e+00 1.639000000e-03
1306000000.0 1.005230000e+00 -2.121000000e-03
1310500000.0 1.001633000e+00 4.608000000e-03
1315000000.0 1.004366000e+00 -1.290400000e-02
1319500000.0 9.996490000e-01 2.004000000e-03
1324000000.0 9.987070000e-01 3.204000000e-03
1328500000.0 9.980690000e-01 4.357000000e-03
1333000000.0 9.976640000e-01 -6.310000000e-04
1337500000.0 1.006670000e+00 5.436000000e-03
1342000000.0 1.005328000e+00 6.008000000e-03
1346500000.0 1.009926000e+00 7.724000000e-03
1351000000.0 1.000372000e+00 -3.006000000e-03
1355500000.0 1.003035000e+00 6.720000000e-03
1360000000.0 1.006619000e+00 -5.300000000e-04
1364500000.0 1.005765000e+00 6.750000000e-03
1369000000.0 1.002279000e+00 1.346700000e-02
1373500000.0 1.001053000e+00 1.024500000e-02
1378000000.0 9.992680000e-01 1.142200000e-02
1382500000.0 1.003607000e+00 6.678000000e-03
1387000000.0 1.000830000e+00 2.101000000e-03
1391500000.0 1.002614000e+00 1.246300000e-02
1396000000.0 1.007638000e+00 8.310000000e-03
1400500000.0 1.004674000e+00 -1.865000000e-03
1405000000.0 9.973100000e-01 -3.652000000e-03
1409500000.0 1.003231000e+00 1.236100000e-02
1414000000.0 1.010338000e+00 2.101400000e-02
1418500000.0 1.000395000e+00 1.868700000e-02
1423000000.0 1.003321000e+00 -6.910000000e-03
1427500000.0 1.009848000e+00 5.368000000e-03
1432000000.0 1.006439000e+00 3.316000000e-02
1436500000.0 1.001779000e+00 1.986700000e-02
1441000000.0 1.004011000e+00 1.763300000e-02
1445500000.0 1.004590000e+00 5.236000000e-03
1450000000.0 1.001691000e+00 4.169000000e-03
