! piloto_saltos / abierto_tramosB / r08
# HZ S RI R 50
50000.0 1.007755000e+00 -6.924900000e-02
52500.0 1.006865000e+00 -6.672300000e-02
55000.0 1.006154000e+00 -6.274400000e-02
57500.0 1.006166000e+00 -5.859600000e-02
60000.0 1.004892000e+00 -5.634900000e-02
62500.0 1.005509000e+00 -5.164400000e-02
65000.0 1.004970000e+00 -4.703200000e-02
67500.0 1.004632000e+00 -4.397600000e-02
70000.0 1.003704000e+00 -4.035400000e-02
72500.0 1.003626000e+00 -3.711900000e-02
75000.0 1.002646000e+00 -3.422600000e-02
77500.0 1.002896000e+00 -3.005700000e-02
80000.0 1.003526000e+00 -2.662300000e-02
82500.0 1.003150000e+00 -2.318400000e-02
85000.0 1.001728000e+00 -2.021800000e-02
87500.0 1.001701000e+00 -1.671300000e-02
90000.0 1.001126000e+00 -1.292500000e-02
92500.0 1.001495000e+00 -1.026400000e-02
95000.0 1.001692000e+00 -7.190000000e-03
97500.0 1.001507000e+00 -3.245000000e-03
100000.0 1.001005000e+00 9.600000000e-05
102500.0 1.110284000e+00 1.285150000e-01
105000.0 1.000720000e+00 7.231000000e-03
107500.0 1.000094000e+00 8.976000000e-03
110000.0 1.000778000e+00 1.313800000e-02
112500.0 1.000657000e+00 1.586500000e-02
115000.0 1.000552000e+00 1.932600000e-02
117500.0 1.001247000e+00 2.249800000e-02
120000.0 1.000145000e+00 2.640000000e-02
122500.0 1.000340000e+00 2.942200000e-02
125000.0 1.000921000e+00 3.270400000e-02
127500.0 1.001349000e+00 3.694400000e-02
130000.0 1.000618000e+00 3.963100000e-02
132500.0 1.000607000e+00 4.132500000e-02
135000.0 1.000375000e+00 4.594700000e-02
137500.0 1.004736000e+00 5.059800000e-02
140000.0 1.001586000e+00 5.211800000e-02
142500.0 1.000967000e+00 5.388800000e-02
145000.0 1.002227000e+00 5.815800000e-02
147500.0 1.002182000e+00 6.131700000e-02
150000.0 1.000890000e+00 6.340800000e-02
152500.0 1.002042000e+00 6.719000000e-02
155000.0 1.001564000e+00 7.088000000e-02
157500.0 1.001889000e+00 7.488900000e-02
160000.0 1.001724000e+00 7.788200000e-02
162500.0 1.002617000e+00 8.093100000e-02
165000.0 1.003061000e+00 8.365200000e-02
167500.0 1.002665000e+00 8.772300000e-02
170000.0 1.002837000e+00 8.901900000e-02
172500.0 1.002854000e+00 9.275600000e-02
175000.0 1.002866000e+00 9.671700000e-02
177500.0 1.003021000e+00 9.933700000e-02
180000.0 1.003390000e+00 1.030670000e-01
182500.0 1.003405000e+00 1.059230000e-01
185000.0 1.002986000e+00 1.085930000e-01
187500.0 1.003785000e+00 1.114640000e-01
190000.0 1.003175000e+00 1.153370000e-01
192500.0 1.003593000e+00 1.186180000e-01
195000.0 1.004244000e+00 1.206740000e-01
197500.0 1.004537000e+00 1.243220000e-01
200000.0 1.003552000e+00 1.277500000e-01
202500.0 1.003554000e+00 1.307960000e-01
205000.0 1.003782000e+00 1.336840000e-01
207500.0 1.004705000e+00 1.364030000e-01
210000.0 1.004483000e+00 1.399990000e-01
212500.0 1.003765000e+00 1.426910000e-01
215000.0 1.004241000e+00 1.453100000e-01
217500.0 1.004589000e+00 1.493180000e-01
220000.0 1.004189000e+00 1.516750000e-01
222500.0 1.004784000e+00 1.549490000e-01
225000.0 1.004078000e+00 1.582730000e-01
227500.0 1.005120000e+00 1.605430000e-01
230000.0 1.004383000e+00 1.637960000e-01
232500.0 1.004294000e+00 1.664260000e-01
235000.0 1.005077000e+00 1.704390000e-01
237500.0 1.004529000e+00 1.720830000e-01
240000.0 1.006115000e+00 1.751840000e-01
242500.0 1.004501000e+00 1.785860000e-01
245000.0 1.005295000e+00 1.818400000e-01
247500.0 1.004734000e+00 1.842040000e-01
250000.0 1.005228000e+00 1.878490000e-01
252500.0 1.005252000e+00 1.908360000e-01
255000.0 1.005829000e+00 1.933150000e-01
257500.0 1.005412000e+00 1.970600000e-01
260000.0 1.005102000e+00 1.996730000e-01
262500.0 1.005414000e+00 2.023070000e-01
265000.0 1.006866000e+00 2.056700000e-01
267500.0 1.005645000e+00 2.080240000e-01
270000.0 1.005720000e+00 2.108070000e-01
272500.0 1.005932000e+00 2.143680000e-01
275000.0 1.005629000e+00 2.167270000e-01
277500.0 1.005502000e+00 2.194480000e-01
280000.0 1.005663000e+00 2.228610000e-01
282500.0 1.005959000e+00 2.262970000e-01
285000.0 1.007061000e+00 2.284960000e-01
287500.0 1.006757000e+00 2.313080000e-01
290000.0 1.006719000e+00 2.347280000e-01
292500.0 1.006146000e+00 2.373590000e-01
295000.0 1.006279000e+00 2.403700000e-01
297500.0 1.006898000e+00 2.441560000e-01
300000.0 1.006088000e+00 2.457630000e-01
327000.0 1.005673000e+00 2.753590000e-01
354000.0 1.006888000e+00 3.065900000e-01
381000.0 1.007942000e+00 3.365480000e-01
408000.0 1.008891000e+00 3.665660000e-01
435000.0 1.009459000e+00 3.967780000e-01
462000.0 1.010189000e+00 4.262490000e-01
489000.0 1.011047000e+00 4.545290000e-01
516000.0 1.012176000e+00 4.831730000e-01
543000.0 1.013306000e+00 5.112640000e-01
570000.0 1.014913000e+00 5.390130000e-01
597000.0 1.016382000e+00 5.679610000e-01
624000.0 1.018458000e+00 5.952600000e-01
651000.0 1.020777000e+00 6.228990000e-01
678000.0 1.023120000e+00 6.507560000e-01
705000.0 1.025861000e+00 6.781600000e-01
732000.0 1.027837000e+00 7.032550000e-01
759000.0 1.031263000e+00 7.308330000e-01
786000.0 1.036416000e+00 7.582940000e-01
813000.0 1.039383000e+00 7.849930000e-01
840000.0 1.043901000e+00 8.093570000e-01
867000.0 1.049523000e+00 8.354770000e-01
894000.0 1.056054000e+00 8.599720000e-01
921000.0 1.061597000e+00 8.878690000e-01
948000.0 1.066958000e+00 9.132420000e-01
975000.0 1.075088000e+00 9.374970000e-01
1002000.0 1.083816000e+00 9.630060000e-01
1029000.0 1.092536000e+00 9.876320000e-01
1056000.0 1.100494000e+00 1.011443000e+00
1083000.0 1.110821000e+00 1.035081000e+00
1110000.0 1.121616000e+00 1.060064000e+00
1137000.0 1.134440000e+00 1.080167000e+00
1164000.0 1.146840000e+00 1.105605000e+00
1191000.0 1.161424000e+00 1.127083000e+00
1218000.0 1.173370000e+00 1.148103000e+00
1245000.0 1.189474000e+00 1.166923000e+00
1272000.0 1.204494000e+00 1.189865000e+00
1299000.0 1.222324000e+00 1.208289000e+00
1326000.0 1.241279000e+00 1.227517000e+00
1353000.0 1.262110000e+00 1.243667000e+00
1380000.0 1.279442000e+00 1.260394000e+00
1407000.0 1.304299000e+00 1.277189000e+00
1434000.0 1.322395000e+00 1.291434000e+00
1461000.0 1.346042000e+00 1.305002000e+00
1488000.0 1.368907000e+00 1.316078000e+00
1515000.0 1.393282000e+00 1.326855000e+00
1542000.0 1.418917000e+00 1.334531000e+00
1569000.0 1.442939000e+00 1.344105000e+00
1596000.0 1.471645000e+00 1.348872000e+00
1623000.0 1.496831000e+00 1.353501000e+00
1650000.0 1.523434000e+00 1.356069000e+00
1677000.0 1.554069000e+00 1.355295000e+00
1704000.0 1.578166000e+00 1.356756000e+00
1731000.0 1.607367000e+00 1.351353000e+00
1758000.0 1.634336000e+00 1.348772000e+00
1785000.0 1.658598000e+00 1.339882000e+00
1812000.0 1.685669000e+00 1.332995000e+00
1839000.0 1.713303000e+00 1.318434000e+00
1866000.0 1.739058000e+00 1.307400000e+00
1893000.0 1.763658000e+00 1.290508000e+00
1920000.0 1.785634000e+00 1.278029000e+00
1947000.0 1.808833000e+00 1.257079000e+00
1974000.0 1.831302000e+00 1.238087000e+00
2001000.0 1.850141000e+00 1.220833000e+00
2028000.0 1.867303000e+00 1.199677000e+00
2055000.0 1.887659000e+00 1.173933000e+00
2082000.0 1.902211000e+00 1.151644000e+00
2109000.0 1.913116000e+00 1.126372000e+00
2136000.0 1.929068000e+00 1.100708000e+00
2163000.0 1.936288000e+00 1.074310000e+00
2190000.0 1.947516000e+00 1.047631000e+00
2217000.0 1.956478000e+00 1.021851000e+00
2244000.0 1.956900000e+00 9.956300000e-01
2271000.0 1.962702000e+00 9.670900000e-01
2298000.0 1.968121000e+00 9.381730000e-01
2325000.0 1.966255000e+00 9.102900000e-01
2352000.0 1.967762000e+00 8.871400000e-01
2379000.0 1.967110000e+00 8.619310000e-01
2406000.0 1.961656000e+00 8.337480000e-01
2433000.0 1.958731000e+00 8.095140000e-01
2460000.0 1.955794000e+00 7.827830000e-01
2487000.0 1.948376000e+00 7.616740000e-01
2514000.0 1.940924000e+00 7.378550000e-01
2541000.0 1.934987000e+00 7.183150000e-01
2568000.0 1.928075000e+00 6.934550000e-01
2595000.0 1.919878000e+00 6.728890000e-01
2622000.0 1.908578000e+00 6.519390000e-01
2649000.0 1.907321000e+00 5.989360000e-01
2676000.0 1.881825000e+00 6.466270000e-01
2703000.0 1.877293000e+00 5.954440000e-01
2730000.0 1.860881000e+00 6.116500000e-01
2757000.0 1.862463000e+00 5.265070000e-01
2784000.0 1.839287000e+00 5.759460000e-01
2811000.0 1.839448000e+00 4.970630000e-01
2838000.0 1.814537000e+00 5.452350000e-01
2865000.0 1.816283000e+00 4.650770000e-01
2892000.0 1.798867000e+00 4.852010000e-01
2919000.0 1.786495000e+00 4.715620000e-01
2946000.0 1.774713000e+00 4.586040000e-01
2973000.0 1.764075000e+00 4.455750000e-01
3000000.0 1.751307000e+00 4.355900000e-01
3270000.0 1.641142000e+00 3.334640000e-01
3540000.0 1.546508000e+00 2.650670000e-01
3810000.0 1.469304000e+00 2.096280000e-01
4080000.0 1.407243000e+00 1.625740000e-01
4350000.0 1.357877000e+00 1.203130000e-01
4620000.0 1.322215000e+00 8.015200000e-02
4890000.0 1.295708000e+00 4.075600000e-02
5160000.0 1.268523000e+00 3.865000000e-03
5430000.0 1.257038000e+00 -3.361500000e-02
5700000.0 1.246439000e+00 -6.667600000e-02
5970000.0 1.238128000e+00 -9.837900000e-02
6240000.0 1.231238000e+00 -1.283930000e-01
6510000.0 1.225962000e+00 -1.537860000e-01
6780000.0 1.221563000e+00 -1.723380000e-01
7050000.0 1.220908000e+00 -1.860850000e-01
7320000.0 1.218853000e+00 -1.927510000e-01
7590000.0 -2.416930000e-01 -1.258899000e+00
7860000.0 -2.404230000e-01 -1.259787000e+00
8130000.0 -2.371540000e-01 -1.262085000e+00
8400000.0 -2.349350000e-01 -1.263495000e+00
8670000.0 -2.345340000e-01 -1.263984000e+00
8940000.0 -2.324520000e-01 -1.266226000e+00
9210000.0 -2.299750000e-01 -1.268788000e+00
9480000.0 -2.271910000e-01 -1.272133000e+00
9750000.0 -2.271900000e-01 -1.272384000e+00
10020000.0 -2.241880000e-01 -1.276028000e+00
10290000.0 -2.222900000e-01 -1.278866000e+00
10560000.0 -2.206410000e-01 -1.281243000e+00
10830000.0 -2.187410000e-01 -1.282320000e+00
11100000.0 -2.169910000e-01 -1.286827000e+00
11370000.0 -2.156220000e-01 -1.288936000e+00
11640000.0 -2.146120000e-01 -1.292271000e+00
11910000.0 -2.124090000e-01 -1.295163000e+00
12180000.0 -2.100650000e-01 -1.298143000e+00
12450000.0 -2.080370000e-01 -1.299992000e+00
12720000.0 -2.060480000e-01 -1.303600000e+00
12990000.0 -2.049730000e-01 -1.306776000e+00
13260000.0 -2.025380000e-01 -1.311224000e+00
13530000.0 -2.021840000e-01 -1.314116000e+00
13800000.0 -1.985470000e-01 -1.317385000e+00
14070000.0 -1.975910000e-01 -1.321079000e+00
14340000.0 -1.960750000e-01 -1.324044000e+00
14610000.0 -1.932510000e-01 -1.326510000e+00
14880000.0 -1.930780000e-01 -1.329612000e+00
15150000.0 -1.888770000e-01 -1.333449000e+00
15420000.0 -1.894230000e-01 -1.338228000e+00
15690000.0 -1.869670000e-01 -1.340124000e+00
15960000.0 -1.846150000e-01 -1.344414000e+00
16230000.0 -1.819860000e-01 -1.347098000e+00
16500000.0 -1.799570000e-01 -1.351524000e+00
16770000.0 -1.787630000e-01 -1.355134000e+00
17040000.0 -1.768980000e-01 -1.356739000e+00
17310000.0 -1.745200000e-01 -1.362432000e+00
17580000.0 -1.726040000e-01 -1.365440000e+00
17850000.0 -1.706600000e-01 -1.368862000e+00
18120000.0 -1.678050000e-01 -1.374152000e+00
18390000.0 -1.657300000e-01 -1.375836000e+00
18660000.0 -1.632940000e-01 -1.379067000e+00
18930000.0 -1.597370000e-01 -1.384671000e+00
19200000.0 -1.580980000e-01 -1.388384000e+00
19470000.0 -1.569240000e-01 -1.392243000e+00
19740000.0 -1.549730000e-01 -1.394774000e+00
20010000.0 -1.516630000e-01 -1.399363000e+00
20280000.0 -1.491760000e-01 -1.402690000e+00
20550000.0 -1.463520000e-01 -1.406854000e+00
20820000.0 -1.437550000e-01 -1.411039000e+00
21090000.0 -1.427760000e-01 -1.413241000e+00
21360000.0 -1.401860000e-01 -1.417072000e+00
21630000.0 -1.365320000e-01 -1.422374000e+00
21900000.0 -1.344890000e-01 -1.426250000e+00
22170000.0 -1.323460000e-01 -1.429633000e+00
22440000.0 -1.283020000e-01 -1.435404000e+00
22710000.0 -1.278440000e-01 -1.437958000e+00
22980000.0 -1.228890000e-01 -1.439993000e+00
23250000.0 -1.218390000e-01 -1.445881000e+00
23520000.0 -1.175010000e-01 -1.449079000e+00
23790000.0 -1.140530000e-01 -1.453420000e+00
24060000.0 -1.123460000e-01 -1.459106000e+00
24330000.0 -1.099210000e-01 -1.462183000e+00
24600000.0 -1.050430000e-01 -1.466347000e+00
24870000.0 -1.029650000e-01 -1.470460000e+00
25140000.0 -9.892700000e-02 -1.473183000e+00
25410000.0 -9.726700000e-02 -1.477243000e+00
25680000.0 -9.365100000e-02 -1.482995000e+00
25950000.0 -9.061200000e-02 -1.485926000e+00
26220000.0 -8.827400000e-02 -1.489709000e+00
26490000.0 -8.341400000e-02 -1.496070000e+00
26760000.0 -7.884000000e-02 -1.498080000e+00
27030000.0 -7.605900000e-02 -1.503106000e+00
27300000.0 -7.328800000e-02 -1.508110000e+00
27570000.0 -6.971500000e-02 -1.512417000e+00
27840000.0 -6.644700000e-02 -1.516781000e+00
28110000.0 -6.170400000e-02 -1.520542000e+00
28380000.0 -5.916300000e-02 -1.524240000e+00
28650000.0 -5.393600000e-02 -1.528216000e+00
28920000.0 -5.170500000e-02 -1.531661000e+00
29190000.0 -4.688100000e-02 -1.537457000e+00
29460000.0 -4.292100000e-02 -1.542445000e+00
29730000.0 -3.901600000e-02 -1.545839000e+00
30000000.0 -3.521800000e-02 -1.551104000e+00
32700000.0 6.776000000e-03 -1.594860000e+00
35400000.0 5.604800000e-02 -1.637924000e+00
38100000.0 1.107150000e-01 -1.683430000e+00
40800000.0 1.394280000e-01 -1.725188000e+00
43500000.0 2.411260000e-01 -1.765679000e+00
46200000.0 3.170550000e-01 -1.803322000e+00
48900000.0 4.027780000e-01 -1.835460000e+00
51600000.0 4.978020000e-01 -1.862224000e+00
54300000.0 5.981730000e-01 -1.877118000e+00
57000000.0 7.402900000e-01 -1.873041000e+00
59700000.0 8.202500000e-01 -1.879556000e+00
62400000.0 9.371530000e-01 -1.860016000e+00
65100000.0 1.054810000e+00 -1.824323000e+00
67800000.0 1.166816000e+00 -1.772588000e+00
70500000.0 1.274676000e+00 -1.704470000e+00
73200000.0 1.375811000e+00 -1.620356000e+00
75900000.0 1.460173000e+00 -1.528512000e+00
78600000.0 1.532820000e+00 -1.423672000e+00
81300000.0 1.587745000e+00 -1.314131000e+00
84000000.0 1.628799000e+00 -1.201195000e+00
86700000.0 1.651612000e+00 -1.090881000e+00
89400000.0 1.662363000e+00 -9.830090000e-01
92100000.0 1.662914000e+00 -8.806890000e-01
94800000.0 1.652084000e+00 -7.833740000e-01
97500000.0 1.632668000e+00 -6.952670000e-01
100200000.0 1.608943000e+00 -6.139250000e-01
102900000.0 1.577184000e+00 -5.401380000e-01
105600000.0 1.545245000e+00 -4.734860000e-01
108300000.0 1.508885000e+00 -4.118810000e-01
111000000.0 1.472440000e+00 -3.578660000e-01
113700000.0 1.437227000e+00 -3.120460000e-01
116400000.0 1.398988000e+00 -2.668630000e-01
119100000.0 1.361131000e+00 -2.288880000e-01
121800000.0 1.325677000e+00 -1.934550000e-01
124500000.0 1.288837000e+00 -1.634050000e-01
127200000.0 1.254041000e+00 -1.352440000e-01
129900000.0 1.219880000e+00 -1.104560000e-01
132600000.0 1.186491000e+00 -8.720100000e-02
135300000.0 1.157114000e+00 -7.418900000e-02
138000000.0 1.124681000e+00 -5.584400000e-02
140700000.0 1.094423000e+00 -4.045300000e-02
143400000.0 1.066773000e+00 -2.745700000e-02
146100000.0 1.038889000e+00 -1.474200000e-02
148800000.0 1.011070000e+00 -3.195000000e-03
151500000.0 9.998720000e-01 1.926000000e-03
154200000.0 1.001103000e+00 3.900000000e-05
156900000.0 1.000850000e+00 3.430000000e-04
159600000.0 1.000842000e+00 7.970000000e-04
162300000.0 1.001782000e+00 -1.186000000e-03
165000000.0 1.002289000e+00 -3.450000000e-04
167700000.0 1.001012000e+00 -6.750000000e-04
170400000.0 1.002192000e+00 -7.770000000e-04
173100000.0 1.003134000e+00 -4.390000000e-04
175800000.0 1.004792000e+00 -2.162000000e-03
178500000.0 1.003718000e+00 -4.380000000e-04
181200000.0 1.003527000e+00 -1.549000000e-03
183900000.0 1.003672000e+00 -1.080000000e-03
186600000.0 1.004938000e+00 -7.480000000e-04
189300000.0 1.003899000e+00 -9.260000000e-04
192000000.0 1.004984000e+00 -1.468000000e-03
194700000.0 1.003264000e+00 -9.100000000e-04
197400000.0 1.005777000e+00 -1.514000000e-03
200100000.0 1.005147000e+00 -9.090000000e-04
202800000.0 1.006013000e+00 -1.622000000e-03
205500000.0 1.005976000e+00 -1.711000000e-03
208200000.0 1.004796000e+00 -1.341000000e-03
210900000.0 1.005823000e+00 -1.837000000e-03
213600000.0 1.006049000e+00 -1.682000000e-03
216300000.0 1.005145000e+00 5.690000000e-04
219000000.0 1.005726000e+00 -2.760000000e-04
221700000.0 1.007208000e+00 -1.870000000e-03
224400000.0 1.006960000e+00 -1.427000000e-03
227100000.0 1.006304000e+00 -1.114000000e-03
229800000.0 1.006030000e+00 -9.030000000e-04
232500000.0 1.006285000e+00 -8.990000000e-04
235200000.0 1.007185000e+00 -5.370000000e-04
237900000.0 1.006135000e+00 -2.344000000e-03
240600000.0 1.005724000e+00 -1.346000000e-03
243300000.0 1.008005000e+00 -1.276000000e-03
246000000.0 1.005735000e+00 -8.530000000e-04
248700000.0 1.006132000e+00 -1.230000000e-04
251400000.0 1.006023000e+00 -1.146000000e-03
254100000.0 1.005522000e+00 -8.830000000e-04
256800000.0 1.005773000e+00 -1.765000000e-03
259500000.0 1.005812000e+00 -2.300000000e-04
262200000.0 1.006280000e+00 -1.035000000e-03
264900000.0 1.004869000e+00 -2.760000000e-04
267600000.0 1.005417000e+00 -7.000000000e-05
270300000.0 1.006194000e+00 -6.740000000e-04
273000000.0 1.004551000e+00 7.490000000e-04
275700000.0 1.003998000e+00 -1.005000000e-03
278400000.0 1.002343000e+00 9.240000000e-04
281100000.0 1.003174000e+00 -8.600000000e-04
283800000.0 1.003776000e+00 5.050000000e-04
286500000.0 1.002291000e+00 -9.480000000e-04
289200000.0 1.003023000e+00 -4.160000000e-04
291900000.0 1.002600000e+00 -8.340000000e-04
294600000.0 1.000326000e+00 -6.010000000e-04
297300000.0 1.001724000e+00 2.097000000e-03
300000000.0 1.001288000e+00 -9.400000000e-05
311500000.0 1.001942000e+00 7.400000000e-04
323000000.0 1.003419000e+00 1.614000000e-03
334500000.0 1.005391000e+00 5.300000000e-04
346000000.0 1.008047000e+00 9.790000000e-04
357500000.0 1.006362000e+00 -2.970000000e-04
369000000.0 1.006788000e+00 -1.700000000e-05
380500000.0 1.006074000e+00 2.945000000e-03
392000000.0 1.006136000e+00 3.891000000e-03
403500000.0 1.003820000e+00 7.030000000e-04
415000000.0 1.004331000e+00 -2.590000000e-04
426500000.0 1.004462000e+00 7.410000000e-04
438000000.0 1.000627000e+00 1.286000000e-03
449500000.0 1.000254000e+00 2.251000000e-03
461000000.0 1.000036000e+00 1.516000000e-03
472500000.0 1.003369000e+00 3.558000000e-03
484000000.0 1.005364000e+00 4.547000000e-03
495500000.0 1.007005000e+00 6.382000000e-03
507000000.0 1.007966000e+00 4.777000000e-03
518500000.0 1.008229000e+00 7.553000000e-03
530000000.0 1.008249000e+00 5.522000000e-03
541500000.0 1.009297000e+00 4.987000000e-03
553000000.0 1.008177000e+00 7.110000000e-03
564500000.0 1.008317000e+00 9.159000000e-03
576000000.0 1.005934000e+00 6.588000000e-03
587500000.0 1.006605000e+00 8.100000000e-03
599000000.0 1.002745000e+00 6.529000000e-03
610500000.0 1.006729000e+00 4.820000000e-03
622000000.0 1.016026000e+00 2.585300000e-02
633500000.0 1.007015000e+00 7.457000000e-03
645000000.0 1.013271000e+00 7.624000000e-03
656500000.0 1.015849000e+00 1.045500000e-02
668000000.0 1.014650000e+00 2.718000000e-03
679500000.0 1.013645000e+00 8.359000000e-03
691000000.0 1.016754000e+00 7.205000000e-03
702500000.0 1.014783000e+00 5.887000000e-03
714000000.0 1.017636000e+00 8.012000000e-03
725500000.0 1.010958000e+00 7.138000000e-03
737000000.0 1.006275000e+00 4.675000000e-03
748500000.0 1.007067000e+00 4.491000000e-03
760000000.0 1.006072000e+00 -2.458000000e-03
771500000.0 1.008025000e+00 -2.798000000e-03
783000000.0 1.012867000e+00 -6.830000000e-03
794500000.0 1.013718000e+00 -4.010000000e-03
806000000.0 1.016956000e+00 -6.281000000e-03
817500000.0 1.021632000e+00 -6.914000000e-03
829000000.0 1.016777000e+00 -6.095000000e-03
840500000.0 1.017401000e+00 -2.030000000e-03
852000000.0 1.012855000e+00 -9.318000000e-03
863500000.0 1.014137000e+00 -4.833000000e-03
875000000.0 1.014181000e+00 -1.024000000e-03
886500000.0 1.008233000e+00 1.054000000e-03
898000000.0 1.000667000e+00 -1.896000000e-03
909500000.0 1.000178000e+00 3.277000000e-03
921000000.0 1.005406000e+00 -3.216000000e-03
932500000.0 1.004465000e+00 -1.012000000e-03
944000000.0 1.004228000e+00 -4.019000000e-03
955500000.0 1.006935000e+00 -1.158300000e-02
967000000.0 1.007177000e+00 -8.559000000e-03
978500000.0 1.005266000e+00 -7.855000000e-03
990000000.0 1.004807000e+00 -4.304000000e-03
1001500000.0 1.005354000e+00 -1.088300000e-02
1013000000.0 1.003809000e+00 -6.922000000e-03
1024500000.0 1.008499000e+00 -1.795000000e-03
1036000000.0 1.002130000e+00 -4.762000000e-03
1047500000.0 1.003534000e+00 -1.908000000e-03
1059000000.0 9.981670000e-01 -5.620000000e-04
1070500000.0 1.002481000e+00 -2.432000000e-03
1082000000.0 9.979510000e-01 -5.500000000e-04
1093500000.0 9.988080000e-01 -1.357000000e-03
1105000000.0 1.002201000e+00 3.012000000e-03
1116500000.0 1.007359000e+00 -1.332000000e-03
1128000000.0 1.012498000e+00 -3.065300000e-02
1139500000.0 1.004445000e+00 -1.210000000e-03
1151000000.0 1.004010000e+00 -2.519000000e-03
1162500000.0 1.002253000e+00 -7.436000000e-03
1174000000.0 1.003654000e+00 -9.930000000e-04
1185500000.0 1.004561000e+00 -6.093000000e-03
1197000000.0 1.004367000e+00 -3.741000000e-03
1208500000.0 1.005402000e+00 -1.369000000e-03
1220000000.0 1.001057000e+00 -2.534000000e-03
1231500000.0 1.004414000e+00 -6.592000000e-03
1243000000.0 1.006440000e+00 -6.535000000e-03
1254500000.0 1.006997000e+00 -6.124000000e-03
1266000000.0 1.004452000e+00 5.127000000e-03
1277500000.0 1.005681000e+00 1.226000000e-03
1289000000.0 9.985630000e-01 6.504000000e-03
1300500000.0 1.005589000e+00 -3.457000000e-03
1312000000.0 1.002369000e+00 -1.150000000e-03
1323500000.0 1.003154000e+00 5.451000000e-03
1335000000.0 1.002342000e+00 5.286000000e-03
1346500000.0 1.005941000e+00 2.644000000e-03
1358000000.0 1.007187000e+00 8.140000000e-04
1369500000.0 1.006812000e+00 1.404200000e-02
1381000000.0 1.008533000e+00 1.863200000e-02
1392500000.0 1.004112000e+00 1.800000000e-03
1404000000.0 1.004977000e+00 3.389500000e-02
1415500000.0 1.006141000e+00 1.165800000e-02
1427000000.0 1.014362000e+00 1.407200000e-02
1438500000.0 1.000437000e+00 1.814000000e-02
1450000000.0 1.001174000e+00 1.506100000e-02
