! piloto_saltos / abierto_tramosA / r08
# HZ S RI R 50
50000.0 1.006095000e+00 -7.039200000e-02
59500.0 1.006557000e+00 -5.557600000e-02
69000.0 1.003332000e+00 -4.186800000e-02
78500.0 1.002850000e+00 -2.889700000e-02
88000.0 1.002100000e+00 -1.671900000e-02
97500.0 1.000720000e+00 -3.939000000e-03
107000.0 1.000417000e+00 8.222000000e-03
116500.0 9.998170000e-01 2.106400000e-02
126000.0 1.003102000e+00 3.492100000e-02
135500.0 1.001046000e+00 4.569500000e-02
145000.0 1.001113000e+00 5.813900000e-02
154500.0 1.002163000e+00 6.988300000e-02
164000.0 1.001872000e+00 8.181400000e-02
173500.0 1.002243000e+00 9.401200000e-02
183000.0 1.003274000e+00 1.059570000e-01
192500.0 1.003115000e+00 1.179170000e-01
202000.0 1.002843000e+00 1.293390000e-01
211500.0 1.004457000e+00 1.412790000e-01
221000.0 1.003801000e+00 1.520750000e-01
230500.0 1.004299000e+00 1.640790000e-01
240000.0 1.094981000e+00 3.181920000e-01
249500.0 1.004555000e+00 1.869220000e-01
259000.0 1.005527000e+00 1.976790000e-01
268500.0 1.005627000e+00 2.091980000e-01
278000.0 1.006992000e+00 2.206060000e-01
287500.0 1.006363000e+00 2.314620000e-01
297000.0 1.005975000e+00 2.420740000e-01
306500.0 1.006774000e+00 2.536380000e-01
316000.0 1.007600000e+00 2.645640000e-01
325500.0 1.006355000e+00 2.757160000e-01
335000.0 1.007443000e+00 2.850800000e-01
344500.0 1.007642000e+00 2.962930000e-01
354000.0 1.007754000e+00 3.085410000e-01
363500.0 1.007852000e+00 3.182580000e-01
373000.0 1.008714000e+00 3.288540000e-01
382500.0 1.008670000e+00 3.396920000e-01
392000.0 1.008971000e+00 3.503930000e-01
401500.0 1.009381000e+00 3.606950000e-01
411000.0 1.008634000e+00 3.718570000e-01
420500.0 1.010728000e+00 3.824780000e-01
430000.0 1.009967000e+00 3.915000000e-01
439500.0 1.010064000e+00 4.017730000e-01
449000.0 1.010783000e+00 4.123670000e-01
458500.0 1.010991000e+00 4.228860000e-01
468000.0 1.011537000e+00 4.325920000e-01
477500.0 1.011596000e+00 4.423910000e-01
487000.0 1.012144000e+00 4.534460000e-01
496500.0 1.012061000e+00 4.625200000e-01
506000.0 1.012742000e+00 4.731170000e-01
515500.0 1.014326000e+00 4.832370000e-01
525000.0 1.013481000e+00 4.941710000e-01
534500.0 1.013833000e+00 5.031800000e-01
544000.0 1.013600000e+00 5.136030000e-01
553500.0 1.015986000e+00 5.234840000e-01
563000.0 1.015779000e+00 5.331970000e-01
572500.0 1.015739000e+00 5.427160000e-01
582000.0 1.015046000e+00 5.527420000e-01
591500.0 1.017537000e+00 5.633130000e-01
601000.0 1.017083000e+00 5.725600000e-01
610500.0 1.017764000e+00 5.818220000e-01
620000.0 1.018153000e+00 5.909270000e-01
629500.0 1.018891000e+00 6.009290000e-01
639000.0 1.019423000e+00 6.111250000e-01
648500.0 1.019897000e+00 6.211450000e-01
658000.0 1.020797000e+00 6.296210000e-01
667500.0 1.021793000e+00 6.398130000e-01
677000.0 1.023169000e+00 6.497450000e-01
686500.0 1.023255000e+00 6.579720000e-01
696000.0 1.024267000e+00 6.673140000e-01
705500.0 1.025849000e+00 6.781960000e-01
715000.0 1.026378000e+00 6.870430000e-01
724500.0 1.027843000e+00 6.972650000e-01
734000.0 1.027921000e+00 7.068220000e-01
743500.0 1.030437000e+00 7.156850000e-01
753000.0 1.031139000e+00 7.249780000e-01
762500.0 1.032481000e+00 7.342620000e-01
772000.0 1.034509000e+00 7.427190000e-01
781500.0 1.035050000e+00 7.533560000e-01
791000.0 1.036943000e+00 7.623780000e-01
800500.0 1.038472000e+00 7.699500000e-01
810000.0 1.039590000e+00 7.803260000e-01
819500.0 1.041806000e+00 7.911240000e-01
829000.0 1.041928000e+00 7.990270000e-01
838500.0 1.042615000e+00 8.096660000e-01
848000.0 1.045339000e+00 8.181970000e-01
857500.0 1.047590000e+00 8.268090000e-01
867000.0 1.049149000e+00 8.360780000e-01
876500.0 1.050947000e+00 8.452480000e-01
886000.0 1.052925000e+00 8.539960000e-01
895500.0 1.054760000e+00 8.639230000e-01
905000.0 1.056293000e+00 8.726960000e-01
914500.0 1.058654000e+00 8.800210000e-01
924000.0 1.060266000e+00 8.896800000e-01
933500.0 1.063500000e+00 8.992820000e-01
943000.0 1.064997000e+00 9.087640000e-01
952500.0 1.068440000e+00 9.176080000e-01
962000.0 1.071720000e+00 9.262330000e-01
971500.0 1.074648000e+00 9.351530000e-01
981000.0 1.076400000e+00 9.415960000e-01
990500.0 1.080386000e+00 9.513800000e-01
1000000.0 1.081318000e+00 9.613700000e-01
1090000.0 1.111528000e+00 1.041596000e+00
1180000.0 1.151246000e+00 1.117408000e+00
1270000.0 1.201891000e+00 1.186091000e+00
1360000.0 1.262780000e+00 1.248556000e+00
1450000.0 1.335260000e+00 1.297920000e+00
1540000.0 1.415508000e+00 1.336059000e+00
1630000.0 1.504350000e+00 1.354076000e+00
1720000.0 1.589870000e+00 1.353837000e+00
1810000.0 1.682942000e+00 1.334314000e+00
1900000.0 1.767205000e+00 1.291646000e+00
1990000.0 1.843316000e+00 1.229221000e+00
2080000.0 1.901261000e+00 1.153808000e+00
2170000.0 1.942264000e+00 1.071155000e+00
2260000.0 1.963108000e+00 9.801930000e-01
2350000.0 1.969282000e+00 8.884700000e-01
2440000.0 1.961235000e+00 8.023450000e-01
2530000.0 1.938046000e+00 7.222840000e-01
2620000.0 1.910179000e+00 6.519440000e-01
2710000.0 1.877061000e+00 5.898180000e-01
2800000.0 1.838592000e+00 5.321340000e-01
2890000.0 1.801142000e+00 4.856810000e-01
2980000.0 1.759714000e+00 4.446130000e-01
3070000.0 1.722651000e+00 4.052020000e-01
3160000.0 1.684446000e+00 3.711240000e-01
3250000.0 1.647515000e+00 3.423630000e-01
3340000.0 1.613753000e+00 3.166780000e-01
3430000.0 1.583640000e+00 2.927050000e-01
3520000.0 1.553710000e+00 2.715030000e-01
3610000.0 1.524160000e+00 2.513600000e-01
3700000.0 1.498132000e+00 2.318070000e-01
3790000.0 1.474150000e+00 2.144170000e-01
3880000.0 1.453414000e+00 1.975550000e-01
3970000.0 1.430754000e+00 1.811900000e-01
4060000.0 1.411273000e+00 1.654760000e-01
4150000.0 1.393390000e+00 1.501390000e-01
4240000.0 1.377204000e+00 1.370800000e-01
4330000.0 1.363014000e+00 1.233300000e-01
4420000.0 1.348587000e+00 1.087370000e-01
4510000.0 1.336302000e+00 9.533000000e-02
4600000.0 1.324952000e+00 8.233300000e-02
4690000.0 1.315438000e+00 6.873300000e-02
4780000.0 1.305694000e+00 5.592700000e-02
4870000.0 1.297071000e+00 4.388800000e-02
4960000.0 1.290961000e+00 3.138800000e-02
5050000.0 1.275612000e+00 1.754000000e-02
5140000.0 1.269793000e+00 5.630000000e-03
5230000.0 1.266568000e+00 -6.564000000e-03
5320000.0 1.261348000e+00 -1.788100000e-02
5410000.0 1.257323000e+00 -2.996700000e-02
5500000.0 1.255138000e+00 -4.156300000e-02
5590000.0 1.250666000e+00 -5.455200000e-02
5680000.0 1.247037000e+00 -6.499800000e-02
5770000.0 1.244571000e+00 -7.612800000e-02
5860000.0 1.240661000e+00 -8.795900000e-02
5950000.0 1.238520000e+00 -9.619800000e-02
6040000.0 1.236821000e+00 -1.074240000e-01
6130000.0 1.234004000e+00 -1.180300000e-01
6220000.0 1.232366000e+00 -1.263620000e-01
6310000.0 1.229154000e+00 -1.357330000e-01
6400000.0 1.227877000e+00 -1.443940000e-01
6490000.0 1.226919000e+00 -1.513240000e-01
6580000.0 1.225350000e+00 -1.589000000e-01
6670000.0 1.223490000e+00 -1.648160000e-01
6760000.0 1.221761000e+00 -1.717310000e-01
6850000.0 1.221905000e+00 -1.749270000e-01
6940000.0 1.219966000e+00 -1.815800000e-01
7030000.0 1.220151000e+00 -1.849040000e-01
7120000.0 1.219775000e+00 -1.883290000e-01
7210000.0 1.217844000e+00 -1.926680000e-01
7300000.0 1.219104000e+00 -1.924260000e-01
7390000.0 1.218584000e+00 -1.937500000e-01
7480000.0 1.218831000e+00 -1.940890000e-01
7570000.0 -2.433480000e-01 -1.258331000e+00
7660000.0 -2.419150000e-01 -1.258620000e+00
7750000.0 -2.409820000e-01 -1.260058000e+00
7840000.0 -2.404980000e-01 -1.260576000e+00
7930000.0 -2.400080000e-01 -1.260430000e+00
8020000.0 -2.379680000e-01 -1.259715000e+00
8110000.0 -2.370210000e-01 -1.260469000e+00
8200000.0 -2.366200000e-01 -1.261851000e+00
8290000.0 -2.369280000e-01 -1.263104000e+00
8380000.0 -2.353380000e-01 -1.261512000e+00
8470000.0 -2.341940000e-01 -1.263345000e+00
8560000.0 -2.342470000e-01 -1.264199000e+00
8650000.0 -2.331730000e-01 -1.263519000e+00
8740000.0 -2.333360000e-01 -1.265982000e+00
8830000.0 -2.317490000e-01 -1.266712000e+00
8920000.0 -2.316050000e-01 -1.266170000e+00
9010000.0 -2.312430000e-01 -1.267651000e+00
9100000.0 -2.305520000e-01 -1.268329000e+00
9190000.0 -2.306130000e-01 -1.269107000e+00
9280000.0 -2.302500000e-01 -1.269153000e+00
9370000.0 -2.289870000e-01 -1.270457000e+00
9460000.0 -2.279570000e-01 -1.269956000e+00
9550000.0 -2.269670000e-01 -1.270802000e+00
9640000.0 -2.272010000e-01 -1.271795000e+00
9730000.0 -2.253000000e-01 -1.273721000e+00
9820000.0 -2.250640000e-01 -1.275058000e+00
9910000.0 -2.247320000e-01 -1.274579000e+00
10000000.0 -2.237960000e-01 -1.275112000e+00
10900000.0 -2.182270000e-01 -1.284953000e+00
11800000.0 -2.136100000e-01 -1.293430000e+00
12700000.0 -2.071000000e-01 -1.302846000e+00
13600000.0 -2.006390000e-01 -1.314027000e+00
14500000.0 -1.952670000e-01 -1.325640000e+00
15400000.0 -1.889410000e-01 -1.337621000e+00
16300000.0 -1.826950000e-01 -1.347834000e+00
17200000.0 -1.750410000e-01 -1.360524000e+00
18100000.0 -1.678290000e-01 -1.373449000e+00
19000000.0 -1.605400000e-01 -1.384583000e+00
19900000.0 -1.532600000e-01 -1.397629000e+00
20800000.0 -1.450600000e-01 -1.410725000e+00
21700000.0 -1.363230000e-01 -1.423549000e+00
22600000.0 -1.281860000e-01 -1.435710000e+00
23500000.0 -1.181180000e-01 -1.449946000e+00
24400000.0 -1.077700000e-01 -1.462440000e+00
25300000.0 -9.663000000e-02 -1.476435000e+00
26200000.0 -8.736100000e-02 -1.489817000e+00
27100000.0 -7.533200000e-02 -1.505842000e+00
28000000.0 -6.408500000e-02 -1.518064000e+00
28900000.0 -5.223500000e-02 -1.532358000e+00
29800000.0 -3.854200000e-02 -1.547289000e+00
30700000.0 -2.627300000e-02 -1.561053000e+00
31600000.0 -1.177500000e-02 -1.576729000e+00
32500000.0 2.854000000e-03 -1.591842000e+00
33400000.0 1.829200000e-02 -1.606363000e+00
34300000.0 3.374600000e-02 -1.619925000e+00
35200000.0 5.124100000e-02 -1.635486000e+00
36100000.0 6.968900000e-02 -1.650729000e+00
37000000.0 8.724300000e-02 -1.664768000e+00
37900000.0 1.061360000e-01 -1.679016000e+00
38800000.0 1.270690000e-01 -1.693372000e+00
39700000.0 1.474960000e-01 -1.707507000e+00
40600000.0 1.671130000e-01 -1.723511000e+00
41500000.0 1.897930000e-01 -1.736025000e+00
42400000.0 2.116980000e-01 -1.748096000e+00
43300000.0 2.342400000e-01 -1.762723000e+00
44200000.0 2.605550000e-01 -1.775590000e+00
45100000.0 2.870330000e-01 -1.789857000e+00
46000000.0 3.124790000e-01 -1.801372000e+00
46900000.0 3.377520000e-01 -1.812391000e+00
47800000.0 3.700290000e-01 -1.824498000e+00
48700000.0 3.960160000e-01 -1.831992000e+00
49600000.0 4.269220000e-01 -1.844683000e+00
50500000.0 4.575740000e-01 -1.850594000e+00
51400000.0 4.881220000e-01 -1.860922000e+00
52300000.0 5.220490000e-01 -1.865010000e+00
53200000.0 5.561540000e-01 -1.874593000e+00
54100000.0 5.905940000e-01 -1.876417000e+00
55000000.0 6.243710000e-01 -1.880370000e+00
55900000.0 6.610550000e-01 -1.885173000e+00
56800000.0 6.974820000e-01 -1.884732000e+00
57700000.0 7.336970000e-01 -1.883159000e+00
58600000.0 7.726240000e-01 -1.885599000e+00
59500000.0 8.113740000e-01 -1.880006000e+00
60400000.0 8.515330000e-01 -1.875240000e+00
61300000.0 8.878580000e-01 -1.870365000e+00
62200000.0 9.264840000e-01 -1.862528000e+00
63100000.0 9.665370000e-01 -1.851925000e+00
64000000.0 1.006345000e+00 -1.840870000e+00
64900000.0 1.044542000e+00 -1.828002000e+00
65800000.0 1.082406000e+00 -1.812173000e+00
66700000.0 1.120848000e+00 -1.794613000e+00
67600000.0 1.158698000e+00 -1.777518000e+00
68500000.0 1.197981000e+00 -1.755726000e+00
69400000.0 1.235082000e+00 -1.731954000e+00
70300000.0 1.269660000e+00 -1.708571000e+00
71200000.0 1.303670000e+00 -1.685350000e+00
72100000.0 1.334742000e+00 -1.657613000e+00
73000000.0 1.370072000e+00 -1.628392000e+00
73900000.0 1.400658000e+00 -1.598446000e+00
74800000.0 1.428975000e+00 -1.567531000e+00
75700000.0 1.455813000e+00 -1.534209000e+00
76600000.0 1.480618000e+00 -1.501358000e+00
77500000.0 1.505113000e+00 -1.467389000e+00
78400000.0 1.527213000e+00 -1.431542000e+00
79300000.0 1.549246000e+00 -1.397069000e+00
80200000.0 1.566365000e+00 -1.358974000e+00
81100000.0 1.583816000e+00 -1.320506000e+00
82000000.0 1.599151000e+00 -1.284662000e+00
82900000.0 1.615307000e+00 -1.247664000e+00
83800000.0 1.626648000e+00 -1.209254000e+00
84700000.0 1.634511000e+00 -1.173483000e+00
85600000.0 1.643763000e+00 -1.135639000e+00
86500000.0 1.649276000e+00 -1.098404000e+00
87400000.0 1.657079000e+00 -1.063324000e+00
88300000.0 1.659449000e+00 -1.025346000e+00
89200000.0 1.661601000e+00 -9.928740000e-01
90100000.0 1.663526000e+00 -9.563720000e-01
91000000.0 1.665160000e+00 -9.202790000e-01
91900000.0 1.660657000e+00 -8.885250000e-01
92800000.0 1.660729000e+00 -8.540040000e-01
93700000.0 1.656288000e+00 -8.220170000e-01
94600000.0 1.652470000e+00 -7.916910000e-01
95500000.0 1.649261000e+00 -7.610790000e-01
96400000.0 1.641541000e+00 -7.325640000e-01
97300000.0 1.633324000e+00 -7.034440000e-01
98200000.0 1.627509000e+00 -6.741420000e-01
99100000.0 1.618389000e+00 -6.473350000e-01
100000000.0 1.610209000e+00 -6.195800000e-01
109000000.0 1.503165000e+00 -3.989530000e-01
118000000.0 1.377576000e+00 -2.447450000e-01
127000000.0 1.256349000e+00 -1.384370000e-01
136000000.0 1.148118000e+00 -6.900800000e-02
145000000.0 1.049664000e+00 -1.955300000e-02
154000000.0 1.001244000e+00 6.030000000e-04
163000000.0 1.001668000e+00 -3.000000000e-05
172000000.0 1.002254000e+00 -3.900000000e-05
181000000.0 1.003657000e+00 -2.232000000e-03
190000000.0 1.004618000e+00 -9.040000000e-04
199000000.0 1.004968000e+00 -9.300000000e-04
208000000.0 1.005647000e+00 -1.419000000e-03
217000000.0 1.005800000e+00 -1.409000000e-03
226000000.0 1.005661000e+00 -1.063000000e-03
235000000.0 1.006454000e+00 -1.416000000e-03
244000000.0 1.006345000e+00 -1.356000000e-03
253000000.0 1.005190000e+00 -2.015000000e-03
262000000.0 1.005430000e+00 -1.347000000e-03
271000000.0 1.005458000e+00 -5.160000000e-04
280000000.0 1.004504000e+00 2.910000000e-04
289000000.0 1.004095000e+00 -9.330000000e-04
298000000.0 1.000174000e+00 8.780000000e-04
307000000.0 1.001510000e+00 -7.000000000e-06
316000000.0 1.002885000e+00 -3.660000000e-04
325000000.0 1.004565000e+00 1.760000000e-04
334000000.0 1.004896000e+00 8.000000000e-05
343000000.0 1.005214000e+00 5.840000000e-04
352000000.0 1.007411000e+00 2.001200000e-02
361000000.0 1.006483000e+00 -6.000000000e-06
370000000.0 1.007324000e+00 2.060000000e-04
379000000.0 1.022988000e+00 5.163000000e-02
388000000.0 1.005108000e+00 2.640000000e-04
397000000.0 1.006317000e+00 1.347000000e-03
406000000.0 1.005218000e+00 7.620000000e-04
415000000.0 1.001830000e+00 -1.826100000e-02
424000000.0 1.003226000e+00 2.000000000e-06
433000000.0 1.002862000e+00 4.600000000e-04
442000000.0 1.000678000e+00 1.755000000e-03
451000000.0 1.000424000e+00 2.429000000e-03
460000000.0 1.001067000e+00 4.060000000e-04
469000000.0 1.002516000e+00 3.060000000e-03
478000000.0 1.004251000e+00 4.657000000e-03
487000000.0 1.005700000e+00 4.258000000e-03
496000000.0 1.006062000e+00 5.352000000e-03
505000000.0 1.007208000e+00 5.949000000e-03
514000000.0 1.007134000e+00 8.017000000e-03
523000000.0 1.007208000e+00 6.518000000e-03
532000000.0 1.009085000e+00 4.987000000e-03
541000000.0 1.009714000e+00 8.630000000e-03
550000000.0 1.005093000e+00 6.572000000e-03
559000000.0 1.007991000e+00 7.401000000e-03
568000000.0 1.008393000e+00 9.445000000e-03
577000000.0 1.006550000e+00 1.066800000e-02
586000000.0 1.005472000e+00 7.109000000e-03
595000000.0 1.005272000e+00 4.473000000e-03
604000000.0 1.002954000e+00 5.601000000e-03
613000000.0 1.008506000e+00 4.817000000e-03
622000000.0 1.009599000e+00 8.163000000e-03
631000000.0 1.011379000e+00 3.824000000e-03
640000000.0 1.010423000e+00 9.700000000e-03
649000000.0 1.013964000e+00 9.770000000e-03
658000000.0 1.017868000e+00 9.660000000e-03
667000000.0 1.017284000e+00 1.236600000e-02
676000000.0 1.015140000e+00 7.996000000e-03
685000000.0 1.015360000e+00 1.012900000e-02
694000000.0 1.015440000e+00 5.703000000e-03
703000000.0 1.016162000e+00 7.915000000e-03
712000000.0 1.014812000e+00 9.290000000e-04
721000000.0 1.012065000e+00 1.038400000e-02
730000000.0 1.007142000e+00 5.552000000e-03
739000000.0 1.005611000e+00 8.327000000e-03
748000000.0 1.000385000e+00 4.695000000e-03
757000000.0 1.005017000e+00 1.326000000e-03
766000000.0 1.008265000e+00 7.860000000e-04
775000000.0 1.009951000e+00 -2.719000000e-03
784000000.0 1.014813000e+00 -2.723000000e-03
793000000.0 1.014033000e+00 -1.798000000e-03
802000000.0 1.017354000e+00 -6.711000000e-03
811000000.0 1.016792000e+00 -2.063000000e-03
820000000.0 1.017243000e+00 -1.521000000e-03
829000000.0 1.022342000e+00 8.986000000e-03
838000000.0 1.017058000e+00 -5.894000000e-03
847000000.0 1.019228000e+00 -8.225000000e-03
856000000.0 1.013349000e+00 -5.927000000e-03
865000000.0 1.013886000e+00 7.477000000e-03
874000000.0 1.008163000e+00 -1.758000000e-03
883000000.0 1.007047000e+00 -1.695700000e-02
892000000.0 1.005012000e+00 -9.250000000e-04
901000000.0 9.977480000e-01 1.661000000e-02
910000000.0 1.002565000e+00 -2.365000000e-03
919000000.0 1.002952000e+00 -5.802000000e-03
928000000.0 1.004380000e+00 -3.768000000e-03
937000000.0 1.002961000e+00 -9.788000000e-03
946000000.0 1.005535000e+00 -1.047200000e-02
955000000.0 1.006838000e+00 -1.174100000e-02
964000000.0 1.005705000e+00 -1.205200000e-02
973000000.0 1.005582000e+00 -1.295100000e-02
982000000.0 1.003669000e+00 -4.232000000e-03
991000000.0 1.005422000e+00 -8.909000000e-03
1000000000.0 1.003093000e+00 -5.466000000e-03
1004500000.0 1.004715000e+00 -6.282000000e-03
1009000000.0 1.005561000e+00 -6.267000000e-03
1013500000.0 1.000721000e+00 -4.292000000e-03
1018000000.0 1.000901000e+00 -7.658000000e-03
1022500000.0 1.001042000e+00 -6.341000000e-03
1027000000.0 1.003696000e+00 -6.553000000e-03
1031500000.0 9.996930000e-01 -3.621000000e-03
1036000000.0 1.004165000e+00 -7.377000000e-03
1040500000.0 9.986720000e-01 1.173000000e-03
1045000000.0 1.000739000e+00 3.265000000e-03
1049500000.0 9.987840000e-01 2.863000000e-03
1054000000.0 1.000575000e+00 -4.790000000e-03
1058500000.0 1.001184000e+00 -2.920000000e-03
1063000000.0 1.000650000e+00 2.500000000e-05
1067500000.0 1.001263000e+00 -5.031000000e-03
1072000000.0 1.001247000e+00 -5.306000000e-03
1076500000.0 1.003113000e+00 -4.001000000e-03
1081000000.0 1.003497000e+00 -7.088000000e-03
1085500000.0 1.001448000e+00 -6.968000000e-03
1090000000.0 1.001209000e+00 1.776000000e-03
1094500000.0 1.002126000e+00 -3.445000000e-03
1099000000.0 9.995950000e-01 8.040000000e-04
1103500000.0 1.004211000e+00 -2.736000000e-03
1108000000.0 1.006810000e+00 -2.000000000e-05
1112500000.0 1.005396000e+00 -5.880000000e-03
1117000000.0 9.990000000e-01 2.413000000e-03
1121500000.0 1.004404000e+00 -1.221100000e-02
1126000000.0 1.006712000e+00 1.319000000e-03
1130500000.0 1.003347000e+00 -4.660000000e-04
1135000000.0 1.003925000e+00 -5.243000000e-03
1139500000.0 1.002553000e+00 -6.043000000e-03
1144000000.0 1.004105000e+00 -4.330000000e-03
1148500000.0 1.009627000e+00 -4.286000000e-03
1153000000.0 1.006196000e+00 -6.736000000e-03
1157500000.0 1.004036000e+00 -4.223000000e-03
1162000000.0 1.007944000e+00 -2.079000000e-03
1166500000.0 1.005960000e+00 -5.986000000e-03
1171000000.0 1.006501000e+00 -7.344000000e-03
1175500000.0 1.003093000e+00 -9.915000000e-03
1180000000.0 1.006624000e+00 1.051000000e-03
1184500000.0 1.004305000e+00 -8.047000000e-03
1189000000.0 1.009297000e+00 2.460000000e-04
1193500000.0 1.004817000e+00 -1.950000000e-04
1198000000.0 1.002465000e+00 -9.140000000e-04
1202500000.0 1.004597000e+00 2.589000000e-03
1207000000.0 9.989810000e-01 3.080000000e-04
1211500000.0 1.006064000e+00 5.480000000e-04
1216000000.0 1.001606000e+00 -7.030000000e-03
1220500000.0 1.003691000e+00 2.235000000e-03
1225000000.0 9.986510000e-01 -1.161900000e-02
1229500000.0 1.005001000e+00 6.205000000e-03
1234000000.0 1.005056000e+00 1.245000000e-03
1238500000.0 1.001051000e+00 -4.509000000e-03
1243000000.0 1.005445000e+00 3.493000000e-03
1247500000.0 1.004046000e+00 -3.161000000e-03
1252000000.0 1.002879000e+00 -1.553000000e-03
1256500000.0 1.004592000e+00 -3.551000000e-03
1261000000.0 1.003436000e+00 3.821000000e-03
1265500000.0 1.005033000e+00 3.386000000e-03
1270000000.0 9.986360000e-01 -4.120000000e-04
1274500000.0 1.004071000e+00 1.432000000e-03
1279000000.0 1.004230000e+00 9.010000000e-04
1283500000.0 1.006344000e+00 6.683000000e-03
1288000000.0 1.004979000e+00 8.040000000e-04
1292500000.0 1.005390000e+00 -5.400000000e-04
1297000000.0 1.004542000e+00 1.074900000e-02
1301500000.0 1.005236000e+00 -4.973000000e-03
1306000000.0 1.001525000e+00 2.114400000e-02
1310500000.0 1.000378000e+00 4.400000000e-05
1315000000.0 9.955530000e-01 3.424000000e-03
1319500000.0 1.006155000e+00 8.070000000e-03
1324000000.0 1.002747000e+00 -2.945000000e-03
1328500000.0 9.969430000e-01 -4.510000000e-04
1333000000.0 1.004977000e+00 9.916000000e-03
1337500000.0 1.007209000e+00 -2.288000000e-03
1342000000.0 1.000397000e+00 5.013000000e-03
1346500000.0 1.006529000e+00 7.820000000e-04
1351000000.0 1.000021000e+00 -1.525000000e-03
1355500000.0 1.003237000e+00 1.149400000e-02
1360000000.0 1.003831000e+00 8.224000000e-03
1364500000.0 1.006355000e+00 -1.517000000e-03
1369000000.0 1.004937000e+00 1.132700000e-02
1373500000.0 1.001493000e+00 1.087500000e-02
1378000000.0 1.004316000e+00 5.270000000e-03
1382500000.0 1.005146000e+00 -2.306000000e-03
1387000000.0 1.005524000e+00 1.117100000e-02
1391500000.0 1.001097000e+00 1.306700000e-02
1396000000.0 1.008276000e+00 1.758100000e-02
1400500000.0 9.994230000e-01 7.601000000e-03
1405000000.0 1.006959000e+00 1.616400000e-02
1409500000.0 1.002229000e+00 1.567200000e-02
1414000000.0 1.000329000e+00 5.227000000e-03
1418500000.0 1.009262000e+00 1.738700000e-02
1423000000.0 9.994680000e-01 -2.166000000e-03
1427500000.0 1.004938000e+00 3.028000000e-03
1432000000.0 1.004215000e+00 1.986200000e-02
1436500000.0 1.003426000e+00 8.654000000e-03
1441000000.0 1.000113000e+00 1.224100000e-02
1445500000.0 1.003871000e+00 9.983000000e-03
1450000000.0 1.000721000e+00 1.337000000e-02
