! piloto_saltos / abierto_101puntos / r09
# HZ S RI R 50
50000.0 1.006675000e+00 -6.967700000e-02
59500.0 1.006919000e+00 -5.617800000e-02
69000.0 1.002687000e+00 -4.048800000e-02
78500.0 1.002328000e+00 -2.892800000e-02
88000.0 1.002042000e+00 -1.646200000e-02
97500.0 1.001489000e+00 -4.245000000e-03
107000.0 1.000854000e+00 8.802000000e-03
116500.0 1.000765000e+00 2.051700000e-02
126000.0 9.998030000e-01 3.178800000e-02
135500.0 1.001364000e+00 4.592500000e-02
145000.0 1.001743000e+00 5.707400000e-02
154500.0 1.001399000e+00 6.946100000e-02
164000.0 1.002073000e+00 8.229700000e-02
173500.0 1.002726000e+00 9.452100000e-02
183000.0 1.003510000e+00 1.058880000e-01
192500.0 1.003170000e+00 1.176220000e-01
202000.0 1.002953000e+00 1.294930000e-01
211500.0 1.004210000e+00 1.413700000e-01
221000.0 1.004278000e+00 1.520560000e-01
230500.0 1.004689000e+00 1.639900000e-01
240000.0 1.004392000e+00 1.757530000e-01
249500.0 1.005444000e+00 1.869090000e-01
259000.0 1.005121000e+00 1.978840000e-01
268500.0 1.005459000e+00 2.098120000e-01
278000.0 1.006090000e+00 2.207950000e-01
287500.0 1.006743000e+00 2.310620000e-01
297000.0 1.006200000e+00 2.421280000e-01
306500.0 1.006563000e+00 2.527630000e-01
316000.0 1.007353000e+00 2.649950000e-01
325500.0 1.007004000e+00 2.751820000e-01
335000.0 1.007624000e+00 2.857870000e-01
344500.0 1.007779000e+00 2.966340000e-01
354000.0 1.007818000e+00 3.070900000e-01
363500.0 1.007617000e+00 3.184210000e-01
373000.0 1.008006000e+00 3.293120000e-01
382500.0 1.008867000e+00 3.397710000e-01
392000.0 1.008955000e+00 3.499840000e-01
401500.0 1.009401000e+00 3.603810000e-01
411000.0 1.009214000e+00 3.719070000e-01
420500.0 1.009855000e+00 3.809160000e-01
430000.0 1.009225000e+00 3.914530000e-01
439500.0 1.009745000e+00 4.016830000e-01
449000.0 1.011227000e+00 4.115930000e-01
458500.0 1.012394000e+00 4.219200000e-01
468000.0 1.011104000e+00 4.322840000e-01
477500.0 1.011299000e+00 4.423870000e-01
487000.0 1.011779000e+00 4.534450000e-01
496500.0 1.012894000e+00 4.625760000e-01
506000.0 1.013265000e+00 4.733350000e-01
515500.0 1.013640000e+00 4.836420000e-01
525000.0 1.013811000e+00 4.922570000e-01
534500.0 1.013470000e+00 5.022360000e-01
544000.0 1.014681000e+00 5.128000000e-01
553500.0 1.014172000e+00 5.228090000e-01
563000.0 1.015343000e+00 5.325180000e-01
572500.0 1.004823000e+00 5.277820000e-01
582000.0 1.024163000e+00 5.326520000e-01
591500.0 1.008654000e+00 5.824130000e-01
601000.0 1.026042000e+00 5.531930000e-01
610500.0 1.009348000e+00 6.009950000e-01
620000.0 1.027211000e+00 5.728740000e-01
629500.0 1.018302000e+00 6.004700000e-01
639000.0 1.042332000e+00 6.391300000e-01
648500.0 1.020851000e+00 6.199550000e-01
658000.0 1.021568000e+00 6.296620000e-01
667500.0 1.020970000e+00 6.392810000e-01
677000.0 1.022802000e+00 6.484890000e-01
686500.0 1.025100000e+00 6.587990000e-01
696000.0 1.024538000e+00 6.675400000e-01
705500.0 1.025918000e+00 6.776680000e-01
715000.0 1.025484000e+00 6.876980000e-01
724500.0 1.027417000e+00 6.950330000e-01
734000.0 1.027066000e+00 7.056760000e-01
743500.0 1.029685000e+00 7.154230000e-01
753000.0 1.031843000e+00 7.248120000e-01
762500.0 1.032653000e+00 7.343700000e-01
772000.0 1.034070000e+00 7.437290000e-01
781500.0 1.034861000e+00 7.525340000e-01
791000.0 1.037191000e+00 7.606200000e-01
800500.0 1.037357000e+00 7.703990000e-01
810000.0 1.039194000e+00 7.812050000e-01
819500.0 1.040814000e+00 7.899030000e-01
829000.0 1.041851000e+00 7.984680000e-01
838500.0 1.043237000e+00 8.088070000e-01
848000.0 1.045207000e+00 8.160800000e-01
857500.0 1.046333000e+00 8.256180000e-01
867000.0 1.048982000e+00 8.347990000e-01
876500.0 1.050971000e+00 8.443270000e-01
886000.0 1.051609000e+00 8.538610000e-01
895500.0 1.055469000e+00 8.627250000e-01
905000.0 1.057968000e+00 8.723940000e-01
914500.0 1.058446000e+00 8.803230000e-01
924000.0 1.061908000e+00 8.882750000e-01
933500.0 1.064073000e+00 8.978990000e-01
943000.0 1.066192000e+00 9.075550000e-01
952500.0 1.068918000e+00 9.150900000e-01
962000.0 1.070519000e+00 9.248410000e-01
971500.0 1.073637000e+00 9.349040000e-01
981000.0 1.077110000e+00 9.426620000e-01
990500.0 1.078367000e+00 9.518140000e-01
1000000.0 1.082377000e+00 9.610220000e-01
1090000.0 1.110311000e+00 1.040547000e+00
1180000.0 1.148924000e+00 1.116933000e+00
1270000.0 1.200276000e+00 1.184501000e+00
1360000.0 1.260883000e+00 1.247119000e+00
1450000.0 1.329766000e+00 1.296995000e+00
1540000.0 1.413454000e+00 1.333687000e+00
1630000.0 1.500510000e+00 1.354793000e+00
1720000.0 1.591670000e+00 1.355185000e+00
1810000.0 1.682764000e+00 1.334535000e+00
1900000.0 1.767204000e+00 1.294238000e+00
1990000.0 1.839561000e+00 1.232652000e+00
2080000.0 1.899148000e+00 1.156361000e+00
2170000.0 1.940686000e+00 1.070941000e+00
2260000.0 1.963102000e+00 9.813250000e-01
2350000.0 1.966661000e+00 8.914660000e-01
2440000.0 1.959378000e+00 8.042220000e-01
2530000.0 1.940802000e+00 7.260260000e-01
2620000.0 1.911294000e+00 6.548320000e-01
2710000.0 1.878659000e+00 5.901860000e-01
2800000.0 1.840576000e+00 5.346740000e-01
2890000.0 1.799544000e+00 4.397810000e-01
2980000.0 1.761424000e+00 4.429100000e-01
3070000.0 1.724123000e+00 4.078990000e-01
3160000.0 1.686397000e+00 3.722840000e-01
3250000.0 1.650510000e+00 3.426320000e-01
3340000.0 1.614937000e+00 3.166730000e-01
3430000.0 1.585291000e+00 2.931580000e-01
3520000.0 1.552257000e+00 2.708100000e-01
3610000.0 1.526584000e+00 2.498050000e-01
3700000.0 1.499056000e+00 2.318470000e-01
3790000.0 1.476112000e+00 2.152920000e-01
3880000.0 1.452942000e+00 1.963790000e-01
3970000.0 1.431757000e+00 1.794830000e-01
4060000.0 1.411672000e+00 1.657870000e-01
4150000.0 1.394461000e+00 1.494680000e-01
4240000.0 1.377420000e+00 1.360870000e-01
4330000.0 1.361609000e+00 1.221210000e-01
4420000.0 1.348305000e+00 1.075320000e-01
4510000.0 1.337045000e+00 9.443300000e-02
4600000.0 1.323689000e+00 8.213600000e-02
4690000.0 1.314492000e+00 6.963900000e-02
4780000.0 1.305250000e+00 5.614000000e-02
4870000.0 1.295938000e+00 4.307200000e-02
4960000.0 1.289942000e+00 2.988000000e-02
5050000.0 1.275845000e+00 1.761500000e-02
5140000.0 1.270607000e+00 5.648000000e-03
5230000.0 1.266782000e+00 -6.488000000e-03
5320000.0 1.262316000e+00 -1.844500000e-02
5410000.0 1.257414000e+00 -2.982400000e-02
5500000.0 1.254444000e+00 -4.158600000e-02
5590000.0 1.250243000e+00 -5.385400000e-02
5680000.0 1.246540000e+00 -6.543600000e-02
5770000.0 1.244012000e+00 -7.620100000e-02
5860000.0 1.241367000e+00 -8.704900000e-02
5950000.0 1.238904000e+00 -9.691200000e-02
6040000.0 1.236443000e+00 -1.088410000e-01
6130000.0 1.233790000e+00 -1.172360000e-01
6220000.0 1.232068000e+00 -1.258290000e-01
6310000.0 1.228871000e+00 -1.352640000e-01
6400000.0 1.227193000e+00 -1.439810000e-01
6490000.0 1.226752000e+00 -1.512920000e-01
6580000.0 1.225433000e+00 -1.584000000e-01
6670000.0 1.223710000e+00 -1.648910000e-01
6760000.0 1.221685000e+00 -1.718660000e-01
6850000.0 1.220950000e+00 -1.774090000e-01
6940000.0 1.220375000e+00 -1.824070000e-01
7030000.0 1.219821000e+00 -1.846090000e-01
7120000.0 1.218539000e+00 -1.882410000e-01
7210000.0 1.220636000e+00 -1.910000000e-01
7300000.0 1.217972000e+00 -1.941000000e-01
7390000.0 1.217922000e+00 -1.938320000e-01
7480000.0 1.218665000e+00 -1.931090000e-01
7570000.0 -2.419650000e-01 -1.258163000e+00
7660000.0 -2.425930000e-01 -1.258042000e+00
7750000.0 -2.406530000e-01 -1.259790000e+00
7840000.0 -2.406560000e-01 -1.260202000e+00
7930000.0 -2.404180000e-01 -1.259524000e+00
8020000.0 -2.391170000e-01 -1.259939000e+00
8110000.0 -2.384470000e-01 -1.261154000e+00
8200000.0 -2.382130000e-01 -1.261385000e+00
8290000.0 -2.359630000e-01 -1.261976000e+00
8380000.0 -2.348290000e-01 -1.262991000e+00
8470000.0 -2.346710000e-01 -1.262597000e+00
8560000.0 -2.341400000e-01 -1.263281000e+00
8650000.0 -2.337710000e-01 -1.264116000e+00
8740000.0 -2.327300000e-01 -1.265112000e+00
8830000.0 -2.312520000e-01 -1.266230000e+00
8920000.0 -2.309210000e-01 -1.266351000e+00
9010000.0 -2.315440000e-01 -1.266289000e+00
9100000.0 -2.314510000e-01 -1.267426000e+00
9190000.0 -2.296560000e-01 -1.269232000e+00
9280000.0 -2.290270000e-01 -1.269577000e+00
9370000.0 -2.287890000e-01 -1.270222000e+00
9460000.0 -2.294900000e-01 -1.271036000e+00
9550000.0 -2.260270000e-01 -1.271389000e+00
9640000.0 -2.268690000e-01 -1.272737000e+00
9730000.0 -2.252540000e-01 -1.272946000e+00
9820000.0 -2.244270000e-01 -1.274516000e+00
9910000.0 -2.250390000e-01 -1.275013000e+00
10000000.0 -2.246920000e-01 -1.276475000e+00
10900000.0 -2.186300000e-01 -1.283874000e+00
11800000.0 -2.125710000e-01 -1.293634000e+00
12700000.0 -2.073500000e-01 -1.303110000e+00
13600000.0 -2.001850000e-01 -1.315295000e+00
14500000.0 -1.941920000e-01 -1.326314000e+00
15400000.0 -1.883730000e-01 -1.336359000e+00
16300000.0 -1.826680000e-01 -1.348998000e+00
17200000.0 -1.756010000e-01 -1.360503000e+00
18100000.0 -1.680410000e-01 -1.373810000e+00
19000000.0 -1.606230000e-01 -1.384849000e+00
19900000.0 -1.531440000e-01 -1.397550000e+00
20800000.0 -1.462660000e-01 -1.409093000e+00
21700000.0 -1.364250000e-01 -1.423324000e+00
22600000.0 -1.267930000e-01 -1.435545000e+00
23500000.0 -1.179870000e-01 -1.450054000e+00
24400000.0 -1.075380000e-01 -1.463340000e+00
25300000.0 -9.871600000e-02 -1.476638000e+00
26200000.0 -8.763300000e-02 -1.490760000e+00
27100000.0 -7.613400000e-02 -1.504297000e+00
28000000.0 -6.267300000e-02 -1.518590000e+00
28900000.0 -5.080300000e-02 -1.531825000e+00
29800000.0 -3.704400000e-02 -1.545580000e+00
30700000.0 -2.530600000e-02 -1.561927000e+00
31600000.0 -1.076500000e-02 -1.578685000e+00
32500000.0 4.180000000e-03 -1.591921000e+00
33400000.0 2.027800000e-02 -1.605571000e+00
34300000.0 3.479800000e-02 -1.620425000e+00
35200000.0 5.188800000e-02 -1.635926000e+00
36100000.0 6.886100000e-02 -1.648929000e+00
37000000.0 8.749200000e-02 -1.665222000e+00
37900000.0 1.054530000e-01 -1.678266000e+00
38800000.0 1.245510000e-01 -1.693839000e+00
39700000.0 1.439420000e-01 -1.707830000e+00
40600000.0 1.668220000e-01 -1.721829000e+00
41500000.0 1.898560000e-01 -1.736248000e+00
42400000.0 2.136010000e-01 -1.750517000e+00
43300000.0 2.349890000e-01 -1.763151000e+00
44200000.0 2.610830000e-01 -1.773951000e+00
45100000.0 2.845080000e-01 -1.788222000e+00
46000000.0 3.125690000e-01 -1.801181000e+00
46900000.0 3.397160000e-01 -1.812061000e+00
47800000.0 3.664900000e-01 -1.822639000e+00
48700000.0 3.969610000e-01 -1.833575000e+00
49600000.0 4.272070000e-01 -1.843925000e+00
50500000.0 4.580930000e-01 -1.851193000e+00
51400000.0 4.891740000e-01 -1.857620000e+00
52300000.0 5.210470000e-01 -1.866615000e+00
53200000.0 5.552060000e-01 -1.874342000e+00
54100000.0 5.911490000e-01 -1.879586000e+00
55000000.0 6.255630000e-01 -1.881756000e+00
55900000.0 6.603000000e-01 -1.886468000e+00
56800000.0 6.997200000e-01 -1.884702000e+00
57700000.0 7.339120000e-01 -1.885784000e+00
58600000.0 7.742960000e-01 -1.884191000e+00
59500000.0 8.107310000e-01 -1.879231000e+00
60400000.0 8.497740000e-01 -1.876268000e+00
61300000.0 8.889200000e-01 -1.869714000e+00
62200000.0 9.278700000e-01 -1.863473000e+00
63100000.0 9.661310000e-01 -1.853666000e+00
64000000.0 1.006434000e+00 -1.840872000e+00
64900000.0 1.046637000e+00 -1.829213000e+00
65800000.0 1.085044000e+00 -1.811315000e+00
66700000.0 1.120390000e+00 -1.794320000e+00
67600000.0 1.161240000e+00 -1.775624000e+00
68500000.0 1.198696000e+00 -1.756413000e+00
69400000.0 1.233487000e+00 -1.732569000e+00
70300000.0 1.268031000e+00 -1.711715000e+00
71200000.0 1.304953000e+00 -1.683569000e+00
72100000.0 1.335009000e+00 -1.655159000e+00
73000000.0 1.369626000e+00 -1.628818000e+00
73900000.0 1.399971000e+00 -1.598602000e+00
74800000.0 1.428124000e+00 -1.566673000e+00
75700000.0 1.455735000e+00 -1.534254000e+00
76600000.0 1.481877000e+00 -1.499219000e+00
77500000.0 1.504001000e+00 -1.465645000e+00
78400000.0 1.528150000e+00 -1.430231000e+00
79300000.0 1.548442000e+00 -1.393791000e+00
80200000.0 1.568847000e+00 -1.358869000e+00
81100000.0 1.582778000e+00 -1.322214000e+00
82000000.0 1.599048000e+00 -1.286485000e+00
82900000.0 1.612652000e+00 -1.246387000e+00
83800000.0 1.624242000e+00 -1.208015000e+00
84700000.0 1.636352000e+00 -1.173264000e+00
85600000.0 1.645040000e+00 -1.135341000e+00
86500000.0 1.651292000e+00 -1.099594000e+00
87400000.0 1.657381000e+00 -1.062300000e+00
88300000.0 1.660560000e+00 -1.026498000e+00
89200000.0 1.662252000e+00 -9.897840000e-01
90100000.0 1.664750000e+00 -9.561160000e-01
91000000.0 1.664822000e+00 -9.217520000e-01
91900000.0 1.662809000e+00 -8.886520000e-01
92800000.0 1.661224000e+00 -8.554290000e-01
93700000.0 1.657263000e+00 -8.238520000e-01
94600000.0 1.651563000e+00 -7.926770000e-01
95500000.0 1.648804000e+00 -7.598140000e-01
96400000.0 1.640259000e+00 -7.315820000e-01
97300000.0 1.621449000e+00 -7.315080000e-01
98200000.0 1.638493000e+00 -6.433340000e-01
99100000.0 1.606899000e+00 -6.737660000e-01
100000000.0 1.620309000e+00 -5.903840000e-01
109000000.0 1.502221000e+00 -4.004710000e-01
118000000.0 1.378760000e+00 -2.439830000e-01
127000000.0 1.256365000e+00 -1.385400000e-01
136000000.0 1.147840000e+00 -6.833800000e-02
145000000.0 1.049438000e+00 -1.999100000e-02
154000000.0 1.000947000e+00 -6.420000000e-04
163000000.0 1.001572000e+00 9.630000000e-04
172000000.0 1.001974000e+00 -8.590000000e-04
181000000.0 1.003631000e+00 -6.080000000e-04
190000000.0 1.004714000e+00 -1.846000000e-03
199000000.0 1.005341000e+00 -8.070000000e-04
208000000.0 1.005462000e+00 -5.010000000e-04
217000000.0 1.006397000e+00 -1.745000000e-03
226000000.0 1.006814000e+00 -2.049000000e-03
235000000.0 1.005981000e+00 -1.679000000e-03
244000000.0 1.006514000e+00 -1.572000000e-03
253000000.0 1.005485000e+00 -1.482000000e-03
262000000.0 1.005933000e+00 -1.439000000e-03
271000000.0 1.004712000e+00 -1.556000000e-03
280000000.0 1.003508000e+00 -1.778000000e-03
289000000.0 1.003425000e+00 1.100000000e-03
298000000.0 1.002266000e+00 -9.560000000e-04
307000000.0 1.001602000e+00 -1.700000000e-05
316000000.0 1.002392000e+00 -1.607000000e-03
325000000.0 1.005102000e+00 -4.000000000e-04
334000000.0 1.004925000e+00 2.293000000e-03
343000000.0 1.004568000e+00 -1.040000000e-04
352000000.0 1.005094000e+00 -4.010000000e-04
361000000.0 9.970720000e-01 -3.438000000e-02
370000000.0 1.005753000e+00 3.111000000e-03
379000000.0 1.007959000e+00 2.007800000e-02
388000000.0 1.007221000e+00 7.900000000e-04
397000000.0 1.005425000e+00 3.560000000e-04
406000000.0 1.005101000e+00 3.700000000e-04
415000000.0 1.005210000e+00 1.192000000e-03
424000000.0 1.002643000e+00 3.158000000e-03
433000000.0 1.001889000e+00 3.952000000e-03
442000000.0 9.970310000e-01 -1.824300000e-02
451000000.0 9.994170000e-01 1.288000000e-03
460000000.0 1.001493000e+00 2.409000000e-03
469000000.0 1.002628000e+00 2.265000000e-03
478000000.0 1.005049000e+00 3.255000000e-03
487000000.0 1.005744000e+00 5.652000000e-03
496000000.0 1.005616000e+00 5.889000000e-03
505000000.0 1.006486000e+00 6.326000000e-03
514000000.0 1.007153000e+00 3.740000000e-03
523000000.0 1.007513000e+00 7.129000000e-03
532000000.0 1.009745000e+00 6.315000000e-03
541000000.0 1.009071000e+00 6.112000000e-03
550000000.0 1.010517000e+00 9.417000000e-03
559000000.0 1.007896000e+00 9.794000000e-03
568000000.0 1.008122000e+00 5.984000000e-03
577000000.0 1.008067000e+00 8.292000000e-03
586000000.0 1.003543000e+00 6.921000000e-03
595000000.0 1.004398000e+00 9.405000000e-03
604000000.0 1.003930000e+00 5.591000000e-03
613000000.0 1.007205000e+00 6.606000000e-03
622000000.0 1.009118000e+00 7.834000000e-03
631000000.0 1.009926000e+00 6.771000000e-03
640000000.0 1.012131000e+00 8.984000000e-03
649000000.0 1.014780000e+00 8.075000000e-03
658000000.0 1.016699000e+00 5.831000000e-03
667000000.0 1.015118000e+00 9.813000000e-03
676000000.0 1.019095000e+00 3.355000000e-03
685000000.0 1.015239000e+00 6.240000000e-03
694000000.0 1.017168000e+00 8.678000000e-03
703000000.0 1.016880000e+00 2.576000000e-03
712000000.0 1.010752000e+00 8.667000000e-03
721000000.0 1.008301000e+00 3.876000000e-03
730000000.0 1.007064000e+00 4.940000000e-04
739000000.0 1.007050000e+00 3.456000000e-03
748000000.0 1.002457000e+00 2.745000000e-03
757000000.0 1.005675000e+00 -4.640000000e-04
766000000.0 1.008423000e+00 -1.992000000e-03
775000000.0 1.009775000e+00 -2.014000000e-03
784000000.0 1.010194000e+00 -5.161000000e-03
793000000.0 1.017795000e+00 -3.142000000e-03
802000000.0 1.016135000e+00 -5.679000000e-03
811000000.0 1.017340000e+00 -9.788000000e-03
820000000.0 1.018474000e+00 -5.832000000e-03
829000000.0 1.015162000e+00 -3.156000000e-03
838000000.0 1.017919000e+00 -2.024000000e-03
847000000.0 1.017269000e+00 -3.512000000e-03
856000000.0 1.014762000e+00 -2.845000000e-03
865000000.0 1.014264000e+00 -4.298000000e-03
874000000.0 1.008575000e+00 -1.281000000e-03
883000000.0 1.006394000e+00 -2.360000000e-03
892000000.0 1.006853000e+00 -2.506000000e-03
901000000.0 1.001396000e+00 9.210000000e-04
910000000.0 1.000192000e+00 -3.970000000e-03
919000000.0 1.003940000e+00 -4.270000000e-03
928000000.0 1.002809000e+00 -3.057000000e-03
937000000.0 1.006909000e+00 -6.078000000e-03
946000000.0 1.005291000e+00 -8.110000000e-03
955000000.0 1.006778000e+00 -7.339000000e-03
964000000.0 1.004306000e+00 -1.096300000e-02
973000000.0 1.004754000e+00 -8.231000000e-03
982000000.0 1.004961000e+00 -1.037300000e-02
991000000.0 1.004504000e+00 -1.080700000e-02
1000000000.0 1.003294000e+00 -8.531000000e-03
1004500000.0 1.004549000e+00 -5.746000000e-03
1009000000.0 1.004309000e+00 -6.391000000e-03
1013500000.0 1.004124000e+00 -1.487000000e-03
1018000000.0 1.002836000e+00 -1.417000000e-03
1022500000.0 1.001898000e+00 -1.041000000e-03
1027000000.0 1.000906000e+00 -2.941000000e-03
1031500000.0 1.001101000e+00 -4.278000000e-03
1036000000.0 9.983100000e-01 -2.358000000e-03
1040500000.0 1.000449000e+00 -5.339000000e-03
1045000000.0 1.003834000e+00 -3.150000000e-04
1049500000.0 1.001895000e+00 5.286000000e-03
1054000000.0 9.981310000e-01 2.968000000e-03
1058500000.0 9.983370000e-01 3.004000000e-03
1063000000.0 9.982820000e-01 -1.068000000e-03
1067500000.0 1.000585000e+00 -5.713000000e-03
1072000000.0 1.004178000e+00 -3.000000000e-03
1076500000.0 1.003763000e+00 4.100000000e-03
1081000000.0 1.002842000e+00 -1.606000000e-03
1085500000.0 1.002441000e+00 -2.002000000e-03
1090000000.0 1.000964000e+00 -9.448000000e-03
1094500000.0 1.002697000e+00 -9.310000000e-04
1099000000.0 1.006081000e+00 -1.394000000e-03
1103500000.0 1.002249000e+00 -1.710000000e-04
1108000000.0 1.004413000e+00 1.260000000e-04
1112500000.0 1.001894000e+00 3.722000000e-03
1117000000.0 1.005637000e+00 -3.935000000e-03
1121500000.0 1.000813000e+00 -4.742000000e-03
1126000000.0 1.007485000e+00 -5.646000000e-03
1130500000.0 1.002211000e+00 5.020000000e-04
1135000000.0 1.002823000e+00 -4.540000000e-03
1139500000.0 1.005669000e+00 -8.310000000e-04
1144000000.0 1.004192000e+00 -5.077000000e-03
1148500000.0 1.008218000e+00 -5.684000000e-03
1153000000.0 1.003597000e+00 -1.297600000e-02
1157500000.0 1.006922000e+00 -2.919000000e-03
1162000000.0 1.004062000e+00 -1.349000000e-03
1166500000.0 1.005522000e+00 -6.714000000e-03
1171000000.0 1.004791000e+00 -3.456000000e-03
1175500000.0 1.002645000e+00 -3.991000000e-03
1180000000.0 1.004011000e+00 -6.785000000e-03
1184500000.0 1.002107000e+00 -1.183400000e-02
1189000000.0 1.009469000e+00 -5.750000000e-04
1193500000.0 9.946390000e-01 -2.780000000e-03
1198000000.0 1.001199000e+00 -2.892000000e-03
1202500000.0 1.004192000e+00 -1.987000000e-03
1207000000.0 1.002663000e+00 -7.415000000e-03
1211500000.0 1.001424000e+00 -5.020000000e-03
1216000000.0 1.003893000e+00 -7.614000000e-03
1220500000.0 9.999640000e-01 -5.823000000e-03
1225000000.0 9.986330000e-01 -7.007000000e-03
1229500000.0 1.004883000e+00 2.315000000e-03
1234000000.0 1.005352000e+00 -1.915000000e-03
1238500000.0 1.005103000e+00 6.020000000e-04
1243000000.0 1.003066000e+00 -4.853000000e-03
1247500000.0 1.001416000e+00 -2.718000000e-03
1252000000.0 1.003513000e+00 1.146000000e-03
1256500000.0 9.983780000e-01 -6.944000000e-03
1261000000.0 1.000282000e+00 -4.428000000e-03
1265500000.0 9.988970000e-01 -6.161000000e-03
1270000000.0 1.001155000e+00 6.357000000e-03
1274500000.0 1.001089000e+00 -4.270000000e-04
1279000000.0 1.005972000e+00 7.152000000e-03
1283500000.0 1.004285000e+00 8.120000000e-04
1288000000.0 1.001278000e+00 2.400000000e-05
1292500000.0 1.001075000e+00 -1.623000000e-03
1297000000.0 1.009260000e+00 -7.900000000e-05
1301500000.0 1.008682000e+00 1.879000000e-03
1306000000.0 1.004323000e+00 1.090000000e-04
1310500000.0 9.978120000e-01 3.180000000e-03
1315000000.0 1.003957000e+00 7.314000000e-03
1319500000.0 1.007055000e+00 5.480000000e-04
1324000000.0 1.005278000e+00 5.348000000e-03
1328500000.0 1.003663000e+00 -4.719000000e-03
1333000000.0 9.996750000e-01 1.111000000e-03
1337500000.0 1.006486000e+00 -2.112000000e-03
1342000000.0 1.003664000e+00 7.630000000e-03
1346500000.0 9.968870000e-01 -7.929000000e-03
1351000000.0 1.007641000e+00 9.390000000e-04
1355500000.0 9.968360000e-01 -1.910000000e-03
1360000000.0 1.004816000e+00 1.357000000e-03
1364500000.0 1.005327000e+00 1.596000000e-03
1369000000.0 9.994130000e-01 1.212200000e-02
1373500000.0 1.011670000e+00 1.058800000e-02
1378000000.0 9.982520000e-01 3.161000000e-03
1382500000.0 1.004417000e+00 1.028500000e-02
1387000000.0 1.000698000e+00 7.470000000e-03
1391500000.0 1.002681000e+00 1.001600000e-02
1396000000.0 9.984580000e-01 4.288000000e-03
1400500000.0 1.005348000e+00 7.393000000e-03
1405000000.0 1.000206000e+00 1.509500000e-02
1409500000.0 1.007465000e+00 8.997000000e-03
1414000000.0 1.005352000e+00 1.192300000e-02
1418500000.0 1.000544000e+00 4.391000000e-03
1423000000.0 9.996230000e-01 1.544000000e-03
1427500000.0 1.011435000e+00 1.942600000e-02
1432000000.0 1.002969000e+00 1.131300000e-02
1436500000.0 1.001053000e+00 1.391900000e-02
1441000000.0 1.002161000e+00 1.742000000e-02
1445500000.0 1.000670000e+00 1.606300000e-02
1450000000.0 1.001421000e+00 9.886000000e-03
