! piloto_saltos / abierto_51puntos / r10
# HZ S RI R 50
50000.0 1.005379000e+00 -6.962100000e-02
69000.0 1.005662000e+00 -4.420400000e-02
88000.0 1.001142000e+00 -1.666900000e-02
107000.0 1.000696000e+00 8.259000000e-03
126000.0 9.995400000e-01 3.177600000e-02
145000.0 1.001349000e+00 5.755500000e-02
164000.0 1.001876000e+00 8.136000000e-02
183000.0 1.002664000e+00 1.067580000e-01
202000.0 1.003018000e+00 1.293020000e-01
221000.0 1.003889000e+00 1.519770000e-01
240000.0 1.005396000e+00 1.755550000e-01
259000.0 1.005467000e+00 1.984300000e-01
278000.0 1.005419000e+00 2.202120000e-01
297000.0 1.006865000e+00 2.428840000e-01
316000.0 1.006554000e+00 2.640340000e-01
335000.0 1.006476000e+00 2.857930000e-01
354000.0 1.007280000e+00 3.074140000e-01
373000.0 1.008887000e+00 3.289290000e-01
392000.0 1.009024000e+00 3.490070000e-01
411000.0 1.009316000e+00 3.708790000e-01
430000.0 1.010906000e+00 3.918690000e-01
449000.0 1.009488000e+00 4.128810000e-01
468000.0 1.012107000e+00 4.326010000e-01
487000.0 1.012033000e+00 4.529400000e-01
506000.0 1.008577000e+00 4.396340000e-01
525000.0 1.014073000e+00 4.928190000e-01
544000.0 1.014257000e+00 5.130740000e-01
563000.0 1.015532000e+00 5.334100000e-01
582000.0 1.015966000e+00 5.514870000e-01
601000.0 1.017581000e+00 5.709710000e-01
620000.0 1.017933000e+00 5.906750000e-01
639000.0 1.019812000e+00 6.110590000e-01
658000.0 1.021396000e+00 6.295740000e-01
677000.0 1.023881000e+00 6.489550000e-01
696000.0 1.024053000e+00 6.679520000e-01
715000.0 1.026804000e+00 6.881390000e-01
734000.0 1.028380000e+00 7.057810000e-01
753000.0 1.031312000e+00 7.234860000e-01
772000.0 1.031756000e+00 7.431550000e-01
791000.0 1.035853000e+00 7.629330000e-01
810000.0 1.038083000e+00 7.809460000e-01
829000.0 1.042125000e+00 7.982490000e-01
848000.0 1.045256000e+00 8.173920000e-01
867000.0 1.050084000e+00 8.358360000e-01
886000.0 1.052385000e+00 8.536900000e-01
905000.0 1.056529000e+00 8.720030000e-01
924000.0 1.061869000e+00 8.899920000e-01
943000.0 1.065525000e+00 9.073890000e-01
962000.0 1.072380000e+00 9.241890000e-01
981000.0 1.077057000e+00 9.422380000e-01
1000000.0 1.081671000e+00 9.590270000e-01
1180000.0 1.149140000e+00 1.115507000e+00
1360000.0 1.260680000e+00 1.246925000e+00
1540000.0 1.411655000e+00 1.334011000e+00
1720000.0 1.590387000e+00 1.355706000e+00
1900000.0 1.764805000e+00 1.293357000e+00
2080000.0 1.902325000e+00 1.156261000e+00
2260000.0 1.963420000e+00 9.799210000e-01
2440000.0 1.963518000e+00 8.064780000e-01
2620000.0 1.912721000e+00 6.568110000e-01
2800000.0 1.841233000e+00 5.347630000e-01
2980000.0 1.761214000e+00 4.433430000e-01
3160000.0 1.685143000e+00 3.647550000e-01
3340000.0 1.614220000e+00 3.112230000e-01
3520000.0 1.554088000e+00 2.637800000e-01
3700000.0 1.500955000e+00 2.310620000e-01
3880000.0 1.453133000e+00 1.966320000e-01
4060000.0 1.411842000e+00 1.668690000e-01
4240000.0 1.379299000e+00 1.367770000e-01
4420000.0 1.350749000e+00 1.071530000e-01
4600000.0 1.324463000e+00 8.269200000e-02
4780000.0 1.306088000e+00 5.599800000e-02
4960000.0 1.290611000e+00 3.061000000e-02
5140000.0 1.271533000e+00 5.197000000e-03
5320000.0 1.262714000e+00 -1.768900000e-02
5500000.0 1.254358000e+00 -4.327100000e-02
5680000.0 1.248323000e+00 -6.558700000e-02
5860000.0 1.241776000e+00 -8.700600000e-02
6040000.0 1.236764000e+00 -1.073480000e-01
6220000.0 1.231697000e+00 -1.264280000e-01
6400000.0 1.227918000e+00 -1.432100000e-01
6580000.0 1.225250000e+00 -1.594690000e-01
6760000.0 1.222252000e+00 -1.717550000e-01
6940000.0 1.221675000e+00 -1.806250000e-01
7120000.0 1.219653000e+00 -1.876520000e-01
7300000.0 1.220381000e+00 -1.928040000e-01
7480000.0 1.218125000e+00 -1.925400000e-01
7660000.0 -2.413580000e-01 -1.260509000e+00
7840000.0 -2.406080000e-01 -1.259868000e+00
8020000.0 -2.384350000e-01 -1.262045000e+00
8200000.0 -2.364550000e-01 -1.261593000e+00
8380000.0 -2.573410000e-01 -1.256732000e+00
8560000.0 -2.346920000e-01 -1.264027000e+00
8740000.0 -2.325160000e-01 -1.265064000e+00
8920000.0 -2.318690000e-01 -1.266294000e+00
9100000.0 -2.302680000e-01 -1.267447000e+00
9280000.0 -2.294530000e-01 -1.268912000e+00
9460000.0 -2.291230000e-01 -1.268589000e+00
9640000.0 -2.269520000e-01 -1.272393000e+00
9820000.0 -2.260500000e-01 -1.274116000e+00
10000000.0 -2.241120000e-01 -1.276655000e+00
11800000.0 -2.127940000e-01 -1.293775000e+00
13600000.0 -1.999910000e-01 -1.314041000e+00
15400000.0 -1.889480000e-01 -1.337108000e+00
17200000.0 -1.771440000e-01 -1.360598000e+00
19000000.0 -1.594820000e-01 -1.384620000e+00
20800000.0 -1.440990000e-01 -1.410620000e+00
22600000.0 -1.274270000e-01 -1.436148000e+00
24400000.0 -1.068080000e-01 -1.464612000e+00
26200000.0 -8.777600000e-02 -1.491708000e+00
28000000.0 -6.321600000e-02 -1.519241000e+00
29800000.0 -3.862900000e-02 -1.546834000e+00
31600000.0 -1.106500000e-02 -1.578052000e+00
33400000.0 1.414100000e-02 -1.600521000e+00
35200000.0 5.201200000e-02 -1.635076000e+00
37000000.0 8.808000000e-02 -1.663934000e+00
38800000.0 1.256190000e-01 -1.693923000e+00
40600000.0 1.658860000e-01 -1.720620000e+00
42400000.0 2.132680000e-01 -1.751129000e+00
44200000.0 2.616080000e-01 -1.774641000e+00
46000000.0 3.129190000e-01 -1.800216000e+00
47800000.0 3.677510000e-01 -1.824142000e+00
49600000.0 4.268420000e-01 -1.842698000e+00
51400000.0 4.887760000e-01 -1.860397000e+00
53200000.0 5.550270000e-01 -1.871503000e+00
55000000.0 6.249570000e-01 -1.880931000e+00
56800000.0 7.334390000e-01 -1.873536000e+00
58600000.0 7.361260000e-01 -1.896900000e+00
60400000.0 8.125060000e-01 -1.890985000e+00
62200000.0 8.891180000e-01 -1.878348000e+00
64000000.0 1.040768000e+00 -1.823514000e+00
65800000.0 1.048836000e+00 -1.830937000e+00
67600000.0 1.194789000e+00 -1.755272000e+00
69400000.0 1.199214000e+00 -1.756066000e+00
71200000.0 1.335463000e+00 -1.658510000e+00
73000000.0 1.369542000e+00 -1.628373000e+00
74800000.0 1.430088000e+00 -1.566966000e+00
76600000.0 1.481088000e+00 -1.500606000e+00
78400000.0 1.527732000e+00 -1.430570000e+00
80200000.0 1.568525000e+00 -1.358985000e+00
82000000.0 1.599149000e+00 -1.281978000e+00
83800000.0 1.625036000e+00 -1.211075000e+00
85600000.0 1.644816000e+00 -1.135668000e+00
87400000.0 1.654375000e+00 -1.061962000e+00
89200000.0 1.662328000e+00 -9.910130000e-01
91000000.0 1.663416000e+00 -9.218480000e-01
92800000.0 1.660089000e+00 -8.544740000e-01
94600000.0 1.653188000e+00 -7.914300000e-01
96400000.0 1.640282000e+00 -7.311750000e-01
98200000.0 1.627849000e+00 -6.735610000e-01
100000000.0 1.608480000e+00 -6.197830000e-01
118000000.0 1.377168000e+00 -2.434060000e-01
136000000.0 1.147877000e+00 -6.814100000e-02
154000000.0 1.000123000e+00 7.240000000e-04
172000000.0 1.002187000e+00 -5.720000000e-04
190000000.0 1.003941000e+00 -6.500000000e-04
208000000.0 1.006005000e+00 -1.578000000e-03
226000000.0 1.006635000e+00 -1.526000000e-03
244000000.0 1.005892000e+00 -2.631000000e-03
262000000.0 1.005474000e+00 1.100000000e-05
280000000.0 1.002356000e+00 -1.930000000e-04
298000000.0 1.003013000e+00 7.350000000e-04
316000000.0 9.974540000e-01 -1.613900000e-02
334000000.0 1.007262000e+00 2.202000000e-03
352000000.0 1.007374000e+00 -1.604000000e-03
370000000.0 1.007162000e+00 -3.500000000e-04
388000000.0 1.005874000e+00 1.796000000e-03
406000000.0 1.004729000e+00 4.620000000e-04
424000000.0 1.002604000e+00 2.212000000e-03
442000000.0 1.000273000e+00 -1.210000000e-04
460000000.0 1.000418000e+00 4.031000000e-03
478000000.0 1.004411000e+00 4.923000000e-03
496000000.0 1.006449000e+00 5.083000000e-03
514000000.0 1.008778000e+00 6.352000000e-03
532000000.0 1.010417000e+00 7.015000000e-03
550000000.0 1.005831000e+00 1.086800000e-02
568000000.0 1.007616000e+00 6.044000000e-03
586000000.0 1.004055000e+00 7.858000000e-03
604000000.0 1.003436000e+00 6.284000000e-03
622000000.0 1.006403000e+00 1.003900000e-02
640000000.0 1.015250000e+00 8.953000000e-03
658000000.0 1.018196000e+00 1.481900000e-02
676000000.0 1.014066000e+00 8.639000000e-03
694000000.0 1.017574000e+00 7.601000000e-03
712000000.0 1.017267000e+00 8.408000000e-03
730000000.0 1.008880000e+00 9.522000000e-03
748000000.0 1.001421000e+00 4.260000000e-04
766000000.0 1.007886000e+00 5.900000000e-05
784000000.0 1.014586000e+00 -5.951000000e-03
802000000.0 1.016221000e+00 -7.068000000e-03
820000000.0 1.019108000e+00 -9.879000000e-03
838000000.0 1.018456000e+00 -4.846000000e-03
856000000.0 1.010570000e+00 -6.847000000e-03
874000000.0 1.007499000e+00 1.110000000e-04
892000000.0 1.004028000e+00 -5.534000000e-03
910000000.0 9.578730000e-01 -7.053500000e-02
928000000.0 1.005352000e+00 -4.767000000e-03
946000000.0 1.002845000e+00 -6.147000000e-03
964000000.0 1.003934000e+00 -3.119000000e-03
982000000.0 1.005029000e+00 -6.878000000e-03
1000000000.0 1.004799000e+00 -9.383000000e-03
1009000000.0 1.002414000e+00 -8.203000000e-03
1018000000.0 1.003323000e+00 -4.772000000e-03
1027000000.0 1.001461000e+00 -6.976000000e-03
1036000000.0 1.001562000e+00 -3.278000000e-03
1045000000.0 1.001301000e+00 -3.514000000e-03
1054000000.0 1.002595000e+00 -1.765000000e-03
1063000000.0 1.000642000e+00 -1.240000000e-03
1072000000.0 1.000900000e+00 -4.787000000e-03
1081000000.0 1.000298000e+00 -4.128000000e-03
1090000000.0 1.003459000e+00 2.949000000e-03
1099000000.0 1.000806000e+00 -4.478000000e-03
1108000000.0 1.003463000e+00 -7.826000000e-03
1117000000.0 1.005002000e+00 -8.018000000e-03
1126000000.0 1.003614000e+00 -1.794200000e-02
1135000000.0 1.006356000e+00 1.623400000e-02
1144000000.0 1.003478000e+00 -9.470000000e-04
1153000000.0 1.003536000e+00 -7.980000000e-03
1162000000.0 1.005881000e+00 -2.363000000e-03
1171000000.0 1.006024000e+00 1.311200000e-02
1180000000.0 1.005427000e+00 -4.975000000e-03
1189000000.0 1.008205000e+00 -1.549900000e-02
1198000000.0 1.001640000e+00 -8.681000000e-03
1207000000.0 1.006831000e+00 1.350800000e-02
1216000000.0 1.001308000e+00 -3.645000000e-03
1225000000.0 9.978730000e-01 -2.758000000e-02
1234000000.0 1.002383000e+00 -4.871000000e-03
1243000000.0 1.005431000e+00 7.473000000e-03
1252000000.0 1.007654000e+00 -1.043000000e-03
1261000000.0 1.006905000e+00 7.285000000e-03
1270000000.0 1.003326000e+00 -3.325000000e-03
1279000000.0 9.988330000e-01 8.500000000e-05
1288000000.0 1.006794000e+00 2.733000000e-03
1297000000.0 1.003650000e+00 2.393000000e-03
1306000000.0 1.004020000e+00 3.340000000e-03
1315000000.0 1.004308000e+00 -1.612000000e-03
1324000000.0 1.004995000e+00 5.066000000e-03
1333000000.0 9.986640000e-01 1.877000000e-03
1342000000.0 9.976140000e-01 3.088000000e-03
1351000000.0 1.002468000e+00 -6.069000000e-03
1360000000.0 9.993970000e-01 -1.862000000e-03
1369000000.0 9.976900000e-01 9.499000000e-03
1378000000.0 1.004733000e+00 1.283500000e-02
1387000000.0 1.004985000e+00 2.792000000e-03
1396000000.0 1.002268000e+00 5.116000000e-03
1405000000.0 1.001179000e+00 5.166000000e-03
1414000000.0 1.006647000e+00 1.918400000e-02
1423000000.0 9.964830000e-01 1.095600000e-02
1432000000.0 1.003773000e+00 1.679400000e-02
1441000000.0 1.003649000e+00 1.461700000e-02
1450000000.0 1.000454000e+00 1.664200000e-02
