! piloto_saltos / abierto_tramosA / r09
# HZ S RI R 50
50000.0 1.006812000e+00 -7.003000000e-02
59500.0 1.007883000e+00 -5.604100000e-02
69000.0 1.005040000e+00 -4.324000000e-02
78500.0 1.002012000e+00 -2.791800000e-02
88000.0 1.000785000e+00 -1.669900000e-02
97500.0 1.001065000e+00 -3.402000000e-03
107000.0 1.001099000e+00 8.870000000e-03
116500.0 1.000072000e+00 2.092600000e-02
126000.0 1.002809000e+00 3.125800000e-02
135500.0 1.002054000e+00 4.604900000e-02
145000.0 1.001715000e+00 5.782200000e-02
154500.0 1.001237000e+00 6.973300000e-02
164000.0 1.001917000e+00 8.240700000e-02
173500.0 1.002318000e+00 9.435000000e-02
183000.0 1.002736000e+00 1.061630000e-01
192500.0 1.002931000e+00 1.185030000e-01
202000.0 1.003742000e+00 1.293950000e-01
211500.0 1.004086000e+00 1.411280000e-01
221000.0 1.003842000e+00 1.527840000e-01
230500.0 1.004739000e+00 1.642720000e-01
240000.0 1.006396000e+00 1.753700000e-01
249500.0 1.005259000e+00 1.864820000e-01
259000.0 1.005606000e+00 1.982620000e-01
268500.0 1.005213000e+00 2.092770000e-01
278000.0 1.005988000e+00 2.197650000e-01
287500.0 1.006444000e+00 2.314060000e-01
297000.0 1.007076000e+00 2.423240000e-01
306500.0 1.006277000e+00 2.525540000e-01
316000.0 1.007249000e+00 2.645220000e-01
325500.0 1.007601000e+00 2.753930000e-01
335000.0 1.007918000e+00 2.871360000e-01
344500.0 1.008134000e+00 2.972850000e-01
354000.0 1.008302000e+00 3.080310000e-01
363500.0 1.008183000e+00 3.180370000e-01
373000.0 1.007809000e+00 3.293400000e-01
382500.0 1.007936000e+00 3.397230000e-01
392000.0 1.008615000e+00 3.505030000e-01
401500.0 1.009138000e+00 3.613840000e-01
411000.0 1.009971000e+00 3.715570000e-01
420500.0 1.009874000e+00 3.816370000e-01
430000.0 1.010343000e+00 3.918610000e-01
439500.0 1.010577000e+00 4.019390000e-01
449000.0 1.009873000e+00 4.125610000e-01
458500.0 1.011257000e+00 4.222490000e-01
468000.0 1.011155000e+00 4.326990000e-01
477500.0 1.011431000e+00 4.428820000e-01
487000.0 1.011862000e+00 4.529820000e-01
496500.0 1.012736000e+00 4.625720000e-01
506000.0 1.012624000e+00 4.729890000e-01
515500.0 1.013522000e+00 4.836340000e-01
525000.0 1.014046000e+00 4.932950000e-01
534500.0 1.014427000e+00 5.040380000e-01
544000.0 1.014832000e+00 5.138830000e-01
553500.0 1.014899000e+00 5.234560000e-01
563000.0 1.015443000e+00 5.327030000e-01
572500.0 1.014683000e+00 5.434110000e-01
582000.0 1.016842000e+00 5.531330000e-01
591500.0 1.016824000e+00 5.625150000e-01
601000.0 1.018150000e+00 5.726670000e-01
610500.0 1.017669000e+00 5.811310000e-01
620000.0 1.019015000e+00 5.908450000e-01
629500.0 1.019225000e+00 6.021750000e-01
639000.0 1.020331000e+00 6.110100000e-01
648500.0 1.021309000e+00 6.212260000e-01
658000.0 1.021995000e+00 6.304630000e-01
667500.0 1.021894000e+00 6.399760000e-01
677000.0 1.022396000e+00 6.486430000e-01
686500.0 1.023889000e+00 6.588900000e-01
696000.0 1.024764000e+00 6.686770000e-01
705500.0 1.024962000e+00 6.782910000e-01
715000.0 1.027973000e+00 6.870860000e-01
724500.0 1.028101000e+00 6.977750000e-01
734000.0 1.029490000e+00 7.071610000e-01
743500.0 1.031375000e+00 7.161550000e-01
753000.0 1.030824000e+00 7.261740000e-01
762500.0 1.033148000e+00 7.343350000e-01
772000.0 1.034334000e+00 7.439960000e-01
781500.0 1.036112000e+00 7.533380000e-01
791000.0 1.035979000e+00 7.625330000e-01
800500.0 1.038911000e+00 7.722740000e-01
810000.0 1.038302000e+00 7.810590000e-01
819500.0 1.040355000e+00 7.902190000e-01
829000.0 1.042559000e+00 7.989550000e-01
838500.0 1.045453000e+00 8.076600000e-01
848000.0 1.044525000e+00 8.182310000e-01
857500.0 1.045858000e+00 8.271210000e-01
867000.0 1.049363000e+00 8.370860000e-01
876500.0 1.051708000e+00 8.460570000e-01
886000.0 1.054060000e+00 8.533440000e-01
895500.0 1.055488000e+00 8.644410000e-01
905000.0 1.056152000e+00 8.721120000e-01
914500.0 1.059203000e+00 8.810670000e-01
924000.0 1.062136000e+00 8.887710000e-01
933500.0 1.063852000e+00 8.983570000e-01
943000.0 1.066308000e+00 9.072410000e-01
952500.0 1.068341000e+00 9.171190000e-01
962000.0 1.071755000e+00 9.256020000e-01
971500.0 1.073716000e+00 9.350590000e-01
981000.0 1.075613000e+00 9.438410000e-01
990500.0 1.078943000e+00 9.512360000e-01
1000000.0 1.081495000e+00 9.622120000e-01
1090000.0 1.111143000e+00 1.039829000e+00
1180000.0 1.150205000e+00 1.116514000e+00
1270000.0 1.202613000e+00 1.186865000e+00
1360000.0 1.263243000e+00 1.249579000e+00
1450000.0 1.334796000e+00 1.298115000e+00
1540000.0 1.414390000e+00 1.334918000e+00
1630000.0 1.504297000e+00 1.357419000e+00
1720000.0 1.592652000e+00 1.356966000e+00
1810000.0 1.684704000e+00 1.333068000e+00
1900000.0 1.769263000e+00 1.291481000e+00
1990000.0 1.844434000e+00 1.228481000e+00
2080000.0 1.902618000e+00 1.155586000e+00
2170000.0 1.940707000e+00 1.071067000e+00
2260000.0 1.965515000e+00 9.779970000e-01
2350000.0 1.970385000e+00 8.895790000e-01
2440000.0 1.958970000e+00 8.036790000e-01
2530000.0 1.938169000e+00 7.230210000e-01
2620000.0 1.914554000e+00 6.539070000e-01
2710000.0 1.878060000e+00 5.874780000e-01
2800000.0 1.839131000e+00 5.330360000e-01
2890000.0 1.798502000e+00 4.847270000e-01
2980000.0 1.760379000e+00 4.446820000e-01
3070000.0 1.720502000e+00 4.047110000e-01
3160000.0 1.685274000e+00 3.725330000e-01
3250000.0 1.648505000e+00 3.434990000e-01
3340000.0 1.616403000e+00 3.168230000e-01
3430000.0 1.584132000e+00 2.907530000e-01
3520000.0 1.552993000e+00 2.698690000e-01
3610000.0 1.526526000e+00 2.500350000e-01
3700000.0 1.499669000e+00 2.331330000e-01
3790000.0 1.475316000e+00 2.141730000e-01
3880000.0 1.454377000e+00 1.956220000e-01
3970000.0 1.431267000e+00 1.813580000e-01
4060000.0 1.411931000e+00 1.654430000e-01
4150000.0 1.392662000e+00 1.515140000e-01
4240000.0 1.376822000e+00 1.353280000e-01
4330000.0 1.363218000e+00 1.236410000e-01
4420000.0 1.350122000e+00 1.082750000e-01
4510000.0 1.336682000e+00 9.478100000e-02
4600000.0 1.323702000e+00 8.216000000e-02
4690000.0 1.315431000e+00 6.799700000e-02
4780000.0 1.305617000e+00 5.708400000e-02
4870000.0 1.296323000e+00 4.384000000e-02
4960000.0 1.290104000e+00 3.018500000e-02
5050000.0 1.274952000e+00 1.741600000e-02
5140000.0 1.271639000e+00 5.955000000e-03
5230000.0 1.265846000e+00 -6.615000000e-03
5320000.0 1.262488000e+00 -1.810900000e-02
5410000.0 1.258030000e+00 -3.016700000e-02
5500000.0 1.254379000e+00 -4.246000000e-02
5590000.0 1.249396000e+00 -5.390400000e-02
5680000.0 1.248004000e+00 -6.532200000e-02
5770000.0 1.244306000e+00 -7.645000000e-02
5860000.0 1.241927000e+00 -8.578500000e-02
5950000.0 1.237950000e+00 -9.722300000e-02
6040000.0 1.235744000e+00 -1.073460000e-01
6130000.0 1.234200000e+00 -1.162280000e-01
6220000.0 1.232093000e+00 -1.258560000e-01
6310000.0 1.229378000e+00 -1.356640000e-01
6400000.0 1.228234000e+00 -1.434900000e-01
6490000.0 1.226142000e+00 -1.511230000e-01
6580000.0 1.224882000e+00 -1.585190000e-01
6670000.0 1.223694000e+00 -1.650300000e-01
6760000.0 1.223646000e+00 -1.706310000e-01
6850000.0 1.220956000e+00 -1.765180000e-01
6940000.0 1.220342000e+00 -1.808100000e-01
7030000.0 1.219529000e+00 -1.845610000e-01
7120000.0 1.219518000e+00 -1.881060000e-01
7210000.0 1.218975000e+00 -1.903110000e-01
7300000.0 1.219020000e+00 -1.916030000e-01
7390000.0 1.219316000e+00 -1.938460000e-01
7480000.0 1.219029000e+00 -1.929260000e-01
7570000.0 -2.412380000e-01 -1.260065000e+00
7660000.0 -2.415910000e-01 -1.258750000e+00
7750000.0 -2.413700000e-01 -1.259313000e+00
7840000.0 -2.400610000e-01 -1.259197000e+00
7930000.0 -2.398330000e-01 -1.260100000e+00
8020000.0 -2.383940000e-01 -1.259755000e+00
8110000.0 -2.383720000e-01 -1.261749000e+00
8200000.0 -2.369910000e-01 -1.262317000e+00
8290000.0 -2.373170000e-01 -1.262530000e+00
8380000.0 -2.371570000e-01 -1.262105000e+00
8470000.0 -2.358280000e-01 -1.263966000e+00
8560000.0 -2.342220000e-01 -1.265001000e+00
8650000.0 -2.322770000e-01 -1.264182000e+00
8740000.0 -2.326920000e-01 -1.263784000e+00
8830000.0 -2.324370000e-01 -1.265956000e+00
8920000.0 -2.325300000e-01 -1.265700000e+00
9010000.0 -2.300320000e-01 -1.268398000e+00
9100000.0 -2.310200000e-01 -1.267654000e+00
9190000.0 -2.305130000e-01 -1.268773000e+00
9280000.0 -2.276940000e-01 -1.270554000e+00
9370000.0 -2.288470000e-01 -1.269557000e+00
9460000.0 -2.278860000e-01 -1.270283000e+00
9550000.0 -2.280360000e-01 -1.272192000e+00
9640000.0 -2.267500000e-01 -1.272277000e+00
9730000.0 -2.266200000e-01 -1.272900000e+00
9820000.0 -2.262680000e-01 -1.274083000e+00
9910000.0 -2.246010000e-01 -1.275566000e+00
10000000.0 -2.250190000e-01 -1.275138000e+00
10900000.0 -2.185140000e-01 -1.284373000e+00
11800000.0 -2.116210000e-01 -1.293944000e+00
12700000.0 -2.071060000e-01 -1.303089000e+00
13600000.0 -2.003310000e-01 -1.314013000e+00
14500000.0 -1.949030000e-01 -1.325526000e+00
15400000.0 -1.892280000e-01 -1.337990000e+00
16300000.0 -1.822950000e-01 -1.349383000e+00
17200000.0 -1.749690000e-01 -1.361052000e+00
18100000.0 -1.672760000e-01 -1.372552000e+00
19000000.0 -1.613420000e-01 -1.384949000e+00
19900000.0 -1.527300000e-01 -1.397852000e+00
20800000.0 -1.450710000e-01 -1.410088000e+00
21700000.0 -1.363620000e-01 -1.422945000e+00
22600000.0 -1.279850000e-01 -1.434701000e+00
23500000.0 -1.175160000e-01 -1.450616000e+00
24400000.0 -1.087260000e-01 -1.464046000e+00
25300000.0 -9.931900000e-02 -1.477076000e+00
26200000.0 -8.668900000e-02 -1.490733000e+00
27100000.0 -7.603100000e-02 -1.503898000e+00
28000000.0 -6.552100000e-02 -1.518939000e+00
28900000.0 -5.239000000e-02 -1.532091000e+00
29800000.0 -9.164800000e-02 -1.534095000e+00
30700000.0 -2.558500000e-02 -1.561575000e+00
31600000.0 -1.246100000e-02 -1.576442000e+00
32500000.0 3.462000000e-03 -1.591376000e+00
33400000.0 1.950800000e-02 -1.606050000e+00
34300000.0 3.538600000e-02 -1.621358000e+00
35200000.0 5.157100000e-02 -1.635338000e+00
36100000.0 7.004300000e-02 -1.649716000e+00
37000000.0 8.656400000e-02 -1.663501000e+00
37900000.0 1.071470000e-01 -1.678899000e+00
38800000.0 1.253890000e-01 -1.693681000e+00
39700000.0 1.440850000e-01 -1.708041000e+00
40600000.0 1.671830000e-01 -1.722740000e+00
41500000.0 1.887010000e-01 -1.737214000e+00
42400000.0 2.126000000e-01 -1.748947000e+00
43300000.0 2.359810000e-01 -1.761046000e+00
44200000.0 2.605250000e-01 -1.776816000e+00
45100000.0 2.852740000e-01 -1.788238000e+00
46000000.0 3.127070000e-01 -1.799976000e+00
46900000.0 3.390010000e-01 -1.811294000e+00
47800000.0 3.678980000e-01 -1.823403000e+00
48700000.0 3.952300000e-01 -1.835015000e+00
49600000.0 4.278360000e-01 -1.842052000e+00
50500000.0 4.571590000e-01 -1.853022000e+00
51400000.0 4.897010000e-01 -1.861639000e+00
52300000.0 5.223500000e-01 -1.868171000e+00
53200000.0 5.566620000e-01 -1.873413000e+00
54100000.0 5.879540000e-01 -1.877781000e+00
55000000.0 6.260560000e-01 -1.879386000e+00
55900000.0 6.617470000e-01 -1.883666000e+00
56800000.0 6.977400000e-01 -1.887199000e+00
57700000.0 7.347990000e-01 -1.885560000e+00
58600000.0 7.730200000e-01 -1.882704000e+00
59500000.0 8.113300000e-01 -1.880193000e+00
60400000.0 8.506030000e-01 -1.876464000e+00
61300000.0 8.899240000e-01 -1.869857000e+00
62200000.0 9.259780000e-01 -1.862759000e+00
63100000.0 9.660900000e-01 -1.853472000e+00
64000000.0 1.004620000e+00 -1.840422000e+00
64900000.0 1.046792000e+00 -1.826450000e+00
65800000.0 1.084301000e+00 -1.812234000e+00
66700000.0 1.123695000e+00 -1.793343000e+00
67600000.0 1.160977000e+00 -1.775443000e+00
68500000.0 1.198021000e+00 -1.754989000e+00
69400000.0 1.232600000e+00 -1.730192000e+00
70300000.0 1.268601000e+00 -1.709170000e+00
71200000.0 1.300794000e+00 -1.682456000e+00
72100000.0 1.335264000e+00 -1.657610000e+00
73000000.0 1.368638000e+00 -1.627076000e+00
73900000.0 1.398487000e+00 -1.597821000e+00
74800000.0 1.428348000e+00 -1.566042000e+00
75700000.0 1.455710000e+00 -1.532419000e+00
76600000.0 1.481151000e+00 -1.502465000e+00
77500000.0 1.506362000e+00 -1.467009000e+00
78400000.0 1.527331000e+00 -1.430876000e+00
79300000.0 1.549403000e+00 -1.395950000e+00
80200000.0 1.565952000e+00 -1.359317000e+00
81100000.0 1.583679000e+00 -1.323056000e+00
82000000.0 1.599240000e+00 -1.284329000e+00
82900000.0 1.614377000e+00 -1.248086000e+00
83800000.0 1.626701000e+00 -1.210031000e+00
84700000.0 1.635974000e+00 -1.172698000e+00
85600000.0 1.644577000e+00 -1.135342000e+00
86500000.0 1.649027000e+00 -1.099714000e+00
87400000.0 1.657706000e+00 -1.060718000e+00
88300000.0 1.658904000e+00 -1.027029000e+00
89200000.0 1.661301000e+00 -9.939570000e-01
90100000.0 1.664463000e+00 -9.554810000e-01
91000000.0 1.663945000e+00 -9.218190000e-01
91900000.0 1.661770000e+00 -8.876580000e-01
92800000.0 1.660626000e+00 -8.548940000e-01
93700000.0 1.657183000e+00 -8.220670000e-01
94600000.0 1.652234000e+00 -7.914050000e-01
95500000.0 1.646672000e+00 -7.606110000e-01
96400000.0 1.641969000e+00 -7.303900000e-01
97300000.0 1.635790000e+00 -7.007500000e-01
98200000.0 1.626634000e+00 -6.756830000e-01
99100000.0 1.619040000e+00 -6.462000000e-01
100000000.0 1.608965000e+00 -6.193450000e-01
109000000.0 1.502012000e+00 -4.011000000e-01
118000000.0 1.377437000e+00 -2.437070000e-01
127000000.0 1.256972000e+00 -1.378450000e-01
136000000.0 1.147954000e+00 -6.843700000e-02
145000000.0 1.049214000e+00 -1.890300000e-02
154000000.0 1.000437000e+00 9.800000000e-04
163000000.0 1.001972000e+00 -3.530000000e-04
172000000.0 1.003444000e+00 -9.300000000e-05
181000000.0 1.004155000e+00 -7.520000000e-04
190000000.0 1.004671000e+00 -5.010000000e-04
199000000.0 1.004912000e+00 -1.507000000e-03
208000000.0 1.005897000e+00 -1.179000000e-03
217000000.0 1.006825000e+00 -1.174000000e-03
226000000.0 1.005692000e+00 -3.470000000e-04
235000000.0 1.006437000e+00 -2.023000000e-03
244000000.0 1.005751000e+00 -1.426000000e-03
253000000.0 1.006181000e+00 -5.410000000e-04
262000000.0 1.005896000e+00 -4.420000000e-04
271000000.0 1.004711000e+00 -2.174000000e-03
280000000.0 1.003381000e+00 -1.686000000e-03
289000000.0 1.002443000e+00 1.790000000e-04
298000000.0 1.002370000e+00 4.330000000e-04
307000000.0 1.002223000e+00 3.000000000e-05
316000000.0 1.003597000e+00 -2.800000000e-05
325000000.0 1.003055000e+00 9.350000000e-04
334000000.0 1.004507000e+00 5.370000000e-04
343000000.0 1.005738000e+00 4.070000000e-04
352000000.0 1.005306000e+00 6.870000000e-04
361000000.0 1.006250000e+00 7.880000000e-04
370000000.0 1.006613000e+00 5.480000000e-04
379000000.0 1.005586000e+00 8.970000000e-04
388000000.0 1.005781000e+00 1.968000000e-03
397000000.0 1.008245000e+00 1.859200000e-02
406000000.0 1.004860000e+00 2.226000000e-03
415000000.0 1.002501000e+00 3.080000000e-04
424000000.0 1.003070000e+00 1.124000000e-03
433000000.0 1.002581000e+00 3.145000000e-03
442000000.0 1.000985000e+00 1.963000000e-03
451000000.0 9.989780000e-01 1.831000000e-03
460000000.0 1.001719000e+00 3.786000000e-03
469000000.0 1.002460000e+00 3.977000000e-03
478000000.0 1.003798000e+00 1.945000000e-03
487000000.0 1.005519000e+00 4.589000000e-03
496000000.0 1.007503000e+00 6.196000000e-03
505000000.0 1.007165000e+00 7.246000000e-03
514000000.0 1.008413000e+00 6.322000000e-03
523000000.0 1.008378000e+00 7.611000000e-03
532000000.0 1.009852000e+00 6.544000000e-03
541000000.0 1.010717000e+00 6.462000000e-03
550000000.0 1.009880000e+00 1.058400000e-02
559000000.0 1.008729000e+00 8.615000000e-03
568000000.0 1.008493000e+00 9.067000000e-03
577000000.0 1.006356000e+00 7.586000000e-03
586000000.0 1.004997000e+00 8.421000000e-03
595000000.0 1.004776000e+00 7.150000000e-03
604000000.0 1.005833000e+00 8.287000000e-03
613000000.0 1.007558000e+00 8.880000000e-03
622000000.0 1.007862000e+00 6.898000000e-03
631000000.0 1.011192000e+00 9.289000000e-03
640000000.0 1.014856000e+00 1.013700000e-02
649000000.0 1.016477000e+00 7.662000000e-03
658000000.0 1.018556000e+00 6.434000000e-03
667000000.0 1.018796000e+00 1.121000000e-02
676000000.0 1.015557000e+00 5.936000000e-03
685000000.0 1.015990000e+00 8.144000000e-03
694000000.0 1.013984000e+00 5.075000000e-03
703000000.0 1.015991000e+00 5.323000000e-03
712000000.0 1.006758000e+00 5.637000000e-03
721000000.0 1.011998000e+00 4.518000000e-03
730000000.0 1.006781000e+00 1.701000000e-03
739000000.0 1.005423000e+00 -9.210000000e-04
748000000.0 1.003653000e+00 -7.340000000e-04
757000000.0 1.001807000e+00 -6.090000000e-04
766000000.0 1.007119000e+00 -7.000000000e-04
775000000.0 1.010494000e+00 -4.444000000e-03
784000000.0 1.011286000e+00 7.830000000e-04
793000000.0 1.015733000e+00 -7.620000000e-03
802000000.0 1.017615000e+00 -4.972000000e-03
811000000.0 1.017287000e+00 -9.174000000e-03
820000000.0 1.018948000e+00 -7.170000000e-03
829000000.0 1.017218000e+00 -8.497000000e-03
838000000.0 1.016202000e+00 -6.843000000e-03
847000000.0 1.018434000e+00 -7.788000000e-03
856000000.0 1.015065000e+00 -1.158800000e-02
865000000.0 1.015090000e+00 -5.828000000e-03
874000000.0 1.010495000e+00 -4.414000000e-03
883000000.0 1.011152000e+00 -2.120000000e-04
892000000.0 1.005534000e+00 1.134000000e-03
901000000.0 9.966270000e-01 -1.719000000e-03
910000000.0 1.002145000e+00 -2.009000000e-03
919000000.0 1.001887000e+00 -4.479000000e-03
928000000.0 1.003042000e+00 -9.177000000e-03
937000000.0 1.006412000e+00 -9.788000000e-03
946000000.0 1.003876000e+00 -9.390000000e-04
955000000.0 1.004807000e+00 -9.441000000e-03
964000000.0 1.003484000e+00 -9.557000000e-03
973000000.0 1.004742000e+00 -1.403500000e-02
982000000.0 1.005169000e+00 -9.121000000e-03
991000000.0 1.002024000e+00 -6.882000000e-03
1000000000.0 1.004845000e+00 -8.298000000e-03
1004500000.0 1.005196000e+00 -3.550000000e-03
1009000000.0 1.003547000e+00 -9.477000000e-03
1013500000.0 1.005030000e+00 -5.242000000e-03
1018000000.0 1.003214000e+00 -2.392000000e-03
1022500000.0 1.002227000e+00 -3.854000000e-03
1027000000.0 1.000966000e+00 -7.873000000e-03
1031500000.0 1.002807000e+00 -2.612000000e-03
1036000000.0 1.000163000e+00 -5.729000000e-03
1040500000.0 1.001411000e+00 -2.970000000e-03
1045000000.0 9.999240000e-01 8.800000000e-04
1049500000.0 1.000788000e+00 3.978000000e-03
1054000000.0 9.990820000e-01 1.520000000e-04
1058500000.0 1.000429000e+00 -7.600000000e-04
1063000000.0 1.001727000e+00 -2.256000000e-03
1067500000.0 9.992280000e-01 2.968000000e-03
1072000000.0 1.000771000e+00 9.890000000e-04
1076500000.0 1.002866000e+00 -8.599000000e-03
1081000000.0 1.001640000e+00 -6.006000000e-03
1085500000.0 1.002867000e+00 -1.539000000e-03
1090000000.0 1.003341000e+00 -3.233000000e-03
1094500000.0 1.006045000e+00 -4.233000000e-03
1099000000.0 1.000886000e+00 4.093000000e-03
1103500000.0 1.001406000e+00 -3.380000000e-04
1108000000.0 1.004535000e+00 7.890000000e-04
1112500000.0 1.004371000e+00 -5.296000000e-03
1117000000.0 1.001437000e+00 -2.504000000e-03
1121500000.0 1.006742000e+00 -8.779000000e-03
1126000000.0 9.991250000e-01 -4.276000000e-02
1130500000.0 1.002256000e+00 -6.737000000e-03
1135000000.0 1.006271000e+00 3.780500000e-02
1139500000.0 1.005975000e+00 1.144000000e-02
1144000000.0 1.001087000e+00 2.859000000e-03
1148500000.0 1.005854000e+00 3.560000000e-03
1153000000.0 1.009210000e+00 -8.494000000e-03
1157500000.0 1.006944000e+00 -3.900000000e-05
1162000000.0 1.004134000e+00 -5.481000000e-03
1166500000.0 1.005555000e+00 1.876000000e-03
1171000000.0 1.006406000e+00 -4.951000000e-03
1175500000.0 1.002489000e+00 -2.971000000e-03
1180000000.0 1.001639000e+00 -4.089000000e-03
1184500000.0 1.006087000e+00 -6.314000000e-03
1189000000.0 1.005722000e+00 5.616000000e-03
1193500000.0 1.001336000e+00 -3.489000000e-03
1198000000.0 1.000991000e+00 -6.880000000e-04
1202500000.0 1.003465000e+00 -4.900000000e-05
1207000000.0 1.003031000e+00 -1.995000000e-03
1211500000.0 1.001821000e+00 -1.720000000e-03
1216000000.0 1.005408000e+00 -8.356000000e-03
1220500000.0 1.008925000e+00 -4.359000000e-03
1225000000.0 1.000424000e+00 -2.538000000e-03
1229500000.0 1.005650000e+00 1.480000000e-04
1234000000.0 1.001526000e+00 -3.775000000e-03
1238500000.0 1.007653000e+00 1.997000000e-03
1243000000.0 1.000860000e+00 3.831000000e-03
1247500000.0 1.008179000e+00 -2.987000000e-03
1252000000.0 1.002953000e+00 -1.237600000e-02
1256500000.0 1.004020000e+00 4.593000000e-03
1261000000.0 9.938110000e-01 -3.941000000e-03
1265500000.0 1.009640000e+00 -1.838000000e-03
1270000000.0 1.008626000e+00 -2.584000000e-03
1274500000.0 1.006128000e+00 3.942000000e-03
1279000000.0 9.995090000e-01 5.282000000e-03
1283500000.0 1.004315000e+00 7.250000000e-04
1288000000.0 1.004893000e+00 1.880000000e-04
1292500000.0 1.007113000e+00 3.945000000e-03
1297000000.0 1.004355000e+00 5.392000000e-03
1301500000.0 1.006628000e+00 9.639000000e-03
1306000000.0 1.007711000e+00 1.318000000e-03
1310500000.0 1.003022000e+00 -1.769000000e-03
1315000000.0 1.002481000e+00 -4.166000000e-03
1319500000.0 1.003940000e+00 1.264700000e-02
1324000000.0 1.009249000e+00 6.975000000e-03
1328500000.0 9.988290000e-01 1.445000000e-03
1333000000.0 9.989490000e-01 5.230000000e-03
1337500000.0 9.999460000e-01 -9.320000000e-04
1342000000.0 1.007051000e+00 1.024200000e-02
1346500000.0 1.000345000e+00 -2.798000000e-03
1351000000.0 1.005592000e+00 -3.349000000e-03
1355500000.0 1.000032000e+00 6.388000000e-03
1360000000.0 9.958210000e-01 -1.390000000e-03
1364500000.0 1.005155000e+00 1.255100000e-02
1369000000.0 1.003167000e+00 1.400400000e-02
1373500000.0 9.998110000e-01 8.635000000e-03
1378000000.0 1.005733000e+00 7.842000000e-03
1382500000.0 1.008464000e+00 1.474100000e-02
1387000000.0 1.010176000e+00 1.238200000e-02
1391500000.0 1.003346000e+00 5.890000000e-03
1396000000.0 1.006434000e+00 1.829100000e-02
1400500000.0 1.006305000e+00 3.457000000e-03
1405000000.0 9.983660000e-01 1.381800000e-02
1409500000.0 1.007399000e+00 1.200300000e-02
1414000000.0 1.001946000e+00 1.031700000e-02
1418500000.0 1.005131000e+00 1.437100000e-02
1423000000.0 9.975440000e-01 -1.480000000e-04
1427500000.0 1.007013000e+00 9.850000000e-03
1432000000.0 1.002393000e+00 1.478300000e-02
1436500000.0 9.987740000e-01 -3.591000000e-03
1441000000.0 9.994450000e-01 -3.813000000e-03
1445500000.0 1.002880000e+00 1.621200000e-02
1450000000.0 1.004461000e+00 2.471400000e-02
