! piloto_saltos / abierto_tramosA / r11
# HZ S RI R 50
50000.0 1.006055000e+00 -6.994100000e-02
59500.0 1.002813000e+00 -5.438500000e-02
69000.0 1.004803000e+00 -4.365700000e-02
78500.0 1.001981000e+00 -2.900000000e-02
88000.0 1.002011000e+00 -1.567800000e-02
97500.0 1.001327000e+00 -2.885000000e-03
107000.0 1.000301000e+00 9.005000000e-03
116500.0 1.000363000e+00 2.151600000e-02
126000.0 1.000739000e+00 3.163600000e-02
135500.0 9.996830000e-01 4.723300000e-02
145000.0 1.001067000e+00 5.782100000e-02
154500.0 1.002017000e+00 7.012500000e-02
164000.0 1.002187000e+00 8.170200000e-02
173500.0 1.002348000e+00 9.452800000e-02
183000.0 1.002541000e+00 1.063370000e-01
192500.0 1.003855000e+00 1.185250000e-01
202000.0 1.004355000e+00 1.298640000e-01
211500.0 1.003308000e+00 1.413740000e-01
221000.0 1.004483000e+00 1.526140000e-01
230500.0 1.004693000e+00 1.640770000e-01
240000.0 1.005371000e+00 1.754180000e-01
249500.0 1.004811000e+00 1.876570000e-01
259000.0 1.005860000e+00 1.985240000e-01
268500.0 1.005470000e+00 2.097130000e-01
278000.0 1.006325000e+00 2.208410000e-01
287500.0 1.006098000e+00 2.316860000e-01
297000.0 1.006221000e+00 2.428050000e-01
306500.0 1.006919000e+00 2.542840000e-01
316000.0 1.007586000e+00 2.645270000e-01
325500.0 1.006653000e+00 2.756950000e-01
335000.0 1.007844000e+00 2.863380000e-01
344500.0 1.008107000e+00 2.972530000e-01
354000.0 1.007959000e+00 3.082200000e-01
363500.0 1.007624000e+00 3.182470000e-01
373000.0 1.008421000e+00 3.282340000e-01
382500.0 1.008659000e+00 3.398050000e-01
392000.0 1.008613000e+00 3.503260000e-01
401500.0 1.009147000e+00 3.611430000e-01
411000.0 1.008425000e+00 3.707880000e-01
420500.0 1.009528000e+00 3.816030000e-01
430000.0 1.010161000e+00 3.916030000e-01
439500.0 1.010569000e+00 4.017400000e-01
449000.0 1.011150000e+00 4.124860000e-01
458500.0 1.010893000e+00 4.225550000e-01
468000.0 1.010936000e+00 4.329380000e-01
477500.0 1.011553000e+00 4.432420000e-01
487000.0 1.011291000e+00 4.537460000e-01
496500.0 1.012587000e+00 4.638990000e-01
506000.0 1.012549000e+00 4.735110000e-01
515500.0 1.013458000e+00 4.827330000e-01
525000.0 1.014261000e+00 4.934670000e-01
534500.0 1.014807000e+00 5.040040000e-01
544000.0 1.014280000e+00 5.134820000e-01
553500.0 1.014220000e+00 5.242620000e-01
563000.0 1.015098000e+00 5.332660000e-01
572500.0 1.016384000e+00 5.435150000e-01
582000.0 1.016802000e+00 5.532120000e-01
591500.0 1.016463000e+00 5.623600000e-01
601000.0 1.018653000e+00 5.726340000e-01
610500.0 1.018257000e+00 5.822020000e-01
620000.0 1.018710000e+00 5.912570000e-01
629500.0 1.017880000e+00 6.019020000e-01
639000.0 1.020457000e+00 6.106830000e-01
648500.0 1.020492000e+00 6.212620000e-01
658000.0 1.021928000e+00 6.307500000e-01
667500.0 1.022323000e+00 6.393450000e-01
677000.0 1.022397000e+00 6.499790000e-01
686500.0 1.024638000e+00 6.593610000e-01
696000.0 1.024812000e+00 6.680750000e-01
705500.0 1.025650000e+00 6.784540000e-01
715000.0 1.027405000e+00 6.875520000e-01
724500.0 1.028032000e+00 6.966620000e-01
734000.0 1.030036000e+00 7.062540000e-01
743500.0 1.030159000e+00 7.153370000e-01
753000.0 1.030859000e+00 7.255710000e-01
762500.0 1.033045000e+00 7.352650000e-01
772000.0 1.032820000e+00 7.444190000e-01
781500.0 1.035762000e+00 7.536580000e-01
791000.0 1.035416000e+00 7.631500000e-01
800500.0 1.037506000e+00 7.715940000e-01
810000.0 1.039908000e+00 7.819890000e-01
819500.0 1.040966000e+00 7.906800000e-01
829000.0 1.042995000e+00 7.993270000e-01
838500.0 1.043078000e+00 8.085680000e-01
848000.0 1.045099000e+00 8.172740000e-01
857500.0 1.046762000e+00 8.280130000e-01
867000.0 1.048985000e+00 8.354450000e-01
876500.0 1.051591000e+00 8.453470000e-01
886000.0 1.053387000e+00 8.536420000e-01
895500.0 1.056042000e+00 8.621040000e-01
905000.0 1.057410000e+00 8.719300000e-01
914500.0 1.060183000e+00 8.808670000e-01
924000.0 1.061358000e+00 8.913770000e-01
933500.0 1.065039000e+00 9.001290000e-01
943000.0 1.065708000e+00 9.091950000e-01
952500.0 1.067591000e+00 9.166180000e-01
962000.0 1.071447000e+00 9.264530000e-01
971500.0 1.074116000e+00 9.351740000e-01
981000.0 1.076592000e+00 9.440910000e-01
990500.0 1.079121000e+00 9.508900000e-01
1000000.0 1.082234000e+00 9.615300000e-01
1090000.0 1.110429000e+00 1.040578000e+00
1180000.0 1.151958000e+00 1.118977000e+00
1270000.0 1.200888000e+00 1.186778000e+00
1360000.0 1.263553000e+00 1.249692000e+00
1450000.0 1.335278000e+00 1.298203000e+00
1540000.0 1.415753000e+00 1.336279000e+00
1630000.0 1.500322000e+00 1.353248000e+00
1720000.0 1.594366000e+00 1.355631000e+00
1810000.0 1.686219000e+00 1.333879000e+00
1900000.0 1.766925000e+00 1.293038000e+00
1990000.0 1.845149000e+00 1.231318000e+00
2080000.0 1.903496000e+00 1.151734000e+00
2170000.0 1.943843000e+00 1.069358000e+00
2260000.0 1.963517000e+00 9.803130000e-01
2350000.0 1.969584000e+00 8.881590000e-01
2440000.0 1.958537000e+00 8.034890000e-01
2530000.0 1.939472000e+00 7.259080000e-01
2620000.0 1.911529000e+00 6.518520000e-01
2710000.0 1.876495000e+00 5.897590000e-01
2800000.0 1.839519000e+00 5.324540000e-01
2890000.0 1.800002000e+00 4.831800000e-01
2980000.0 1.761366000e+00 4.406880000e-01
3070000.0 1.724780000e+00 4.046810000e-01
3160000.0 1.683241000e+00 3.714710000e-01
3250000.0 1.647840000e+00 3.426930000e-01
3340000.0 1.614907000e+00 3.149310000e-01
3430000.0 1.583731000e+00 2.904760000e-01
3520000.0 1.552899000e+00 2.702580000e-01
3610000.0 1.525637000e+00 2.501800000e-01
3700000.0 1.499481000e+00 2.328430000e-01
3790000.0 1.474047000e+00 2.146100000e-01
3880000.0 1.452315000e+00 1.978640000e-01
3970000.0 1.431823000e+00 1.817130000e-01
4060000.0 1.412249000e+00 1.649930000e-01
4150000.0 1.393270000e+00 1.512040000e-01
4240000.0 1.377201000e+00 1.355630000e-01
4330000.0 1.361627000e+00 1.227550000e-01
4420000.0 1.348327000e+00 1.087770000e-01
4510000.0 1.335784000e+00 9.528400000e-02
4600000.0 1.323762000e+00 8.133500000e-02
4690000.0 1.315066000e+00 6.927900000e-02
4780000.0 1.305016000e+00 5.577200000e-02
4870000.0 1.297311000e+00 4.250500000e-02
4960000.0 1.290455000e+00 3.080700000e-02
5050000.0 1.276079000e+00 1.631700000e-02
5140000.0 1.272590000e+00 6.136000000e-03
5230000.0 1.265745000e+00 -7.259000000e-03
5320000.0 1.261762000e+00 -1.919400000e-02
5410000.0 1.258005000e+00 -3.087200000e-02
5500000.0 1.254148000e+00 -4.217200000e-02
5590000.0 1.250665000e+00 -5.292200000e-02
5680000.0 1.248395000e+00 -6.585000000e-02
5770000.0 1.244002000e+00 -7.569900000e-02
5860000.0 1.241577000e+00 -8.683000000e-02
5950000.0 1.239396000e+00 -9.745800000e-02
6040000.0 1.236822000e+00 -1.066310000e-01
6130000.0 1.234030000e+00 -1.171920000e-01
6220000.0 1.231321000e+00 -1.269300000e-01
6310000.0 1.230169000e+00 -1.359870000e-01
6400000.0 1.228350000e+00 -1.436890000e-01
6490000.0 1.225841000e+00 -1.514150000e-01
6580000.0 1.224857000e+00 -1.582210000e-01
6670000.0 1.223739000e+00 -1.653120000e-01
6760000.0 1.223081000e+00 -1.719170000e-01
6850000.0 1.221944000e+00 -1.765650000e-01
6940000.0 1.220568000e+00 -1.808590000e-01
7030000.0 1.218912000e+00 -1.872010000e-01
7120000.0 1.219426000e+00 -1.878240000e-01
7210000.0 1.219347000e+00 -1.911400000e-01
7300000.0 1.219276000e+00 -1.923470000e-01
7390000.0 1.218842000e+00 -1.931460000e-01
7480000.0 1.219720000e+00 -1.934980000e-01
7570000.0 -2.431750000e-01 -1.258815000e+00
7660000.0 -2.404990000e-01 -1.258273000e+00
7750000.0 -2.413470000e-01 -1.260364000e+00
7840000.0 -2.396220000e-01 -1.259354000e+00
7930000.0 -2.384710000e-01 -1.261064000e+00
8020000.0 -2.393450000e-01 -1.259334000e+00
8110000.0 -2.370380000e-01 -1.261300000e+00
8200000.0 -2.369020000e-01 -1.262805000e+00
8290000.0 -2.364270000e-01 -1.261819000e+00
8380000.0 -2.362170000e-01 -1.261965000e+00
8470000.0 -2.344470000e-01 -1.264238000e+00
8560000.0 -2.350520000e-01 -1.263578000e+00
8650000.0 -2.329910000e-01 -1.264449000e+00
8740000.0 -2.332450000e-01 -1.264547000e+00
8830000.0 -2.324720000e-01 -1.265275000e+00
8920000.0 -2.323390000e-01 -1.267080000e+00
9010000.0 -2.313840000e-01 -1.267635000e+00
9100000.0 -2.310890000e-01 -1.267965000e+00
9190000.0 -2.300020000e-01 -1.268688000e+00
9280000.0 -2.292600000e-01 -1.268666000e+00
9370000.0 -2.289890000e-01 -1.269239000e+00
9460000.0 -2.270800000e-01 -1.270890000e+00
9550000.0 -2.283410000e-01 -1.271866000e+00
9640000.0 -2.257110000e-01 -1.272761000e+00
9730000.0 -2.267150000e-01 -1.274574000e+00
9820000.0 -2.249270000e-01 -1.274275000e+00
9910000.0 -2.258200000e-01 -1.276130000e+00
10000000.0 -2.236340000e-01 -1.275392000e+00
10900000.0 -2.185290000e-01 -1.284586000e+00
11800000.0 -2.122950000e-01 -1.293968000e+00
12700000.0 -2.062610000e-01 -1.303835000e+00
13600000.0 -2.011940000e-01 -1.314858000e+00
14500000.0 -1.957930000e-01 -1.325771000e+00
15400000.0 -1.883840000e-01 -1.337986000e+00
16300000.0 -1.820740000e-01 -1.349159000e+00
17200000.0 -1.759240000e-01 -1.360909000e+00
18100000.0 -1.687810000e-01 -1.372470000e+00
19000000.0 -1.618740000e-01 -1.383823000e+00
19900000.0 -1.537280000e-01 -1.396841000e+00
20800000.0 -1.442810000e-01 -1.410120000e+00
21700000.0 -1.350790000e-01 -1.422809000e+00
22600000.0 -1.270210000e-01 -1.436981000e+00
23500000.0 -1.183600000e-01 -1.449213000e+00
24400000.0 -1.087420000e-01 -1.463703000e+00
25300000.0 -9.748200000e-02 -1.477139000e+00
26200000.0 -8.697500000e-02 -1.491727000e+00
27100000.0 -7.475900000e-02 -1.506254000e+00
28000000.0 -6.554100000e-02 -1.518969000e+00
28900000.0 -5.113800000e-02 -1.534089000e+00
29800000.0 -3.969800000e-02 -1.546632000e+00
30700000.0 -2.347700000e-02 -1.561305000e+00
31600000.0 -1.011500000e-02 -1.577554000e+00
32500000.0 3.414000000e-03 -1.590451000e+00
33400000.0 2.026200000e-02 -1.606251000e+00
34300000.0 3.522400000e-02 -1.620995000e+00
35200000.0 5.253100000e-02 -1.635691000e+00
36100000.0 6.754600000e-02 -1.649603000e+00
37000000.0 8.744400000e-02 -1.663493000e+00
37900000.0 1.047020000e-01 -1.680563000e+00
38800000.0 1.243790000e-01 -1.693862000e+00
39700000.0 1.456080000e-01 -1.706410000e+00
40600000.0 1.661380000e-01 -1.720749000e+00
41500000.0 1.897440000e-01 -1.735364000e+00
42400000.0 2.115780000e-01 -1.749658000e+00
43300000.0 2.365370000e-01 -1.763358000e+00
44200000.0 2.601000000e-01 -1.775759000e+00
45100000.0 2.856560000e-01 -1.788155000e+00
46000000.0 3.113560000e-01 -1.800930000e+00
46900000.0 3.383660000e-01 -1.812636000e+00
47800000.0 3.651940000e-01 -1.822087000e+00
48700000.0 3.963770000e-01 -1.832291000e+00
49600000.0 4.272400000e-01 -1.843070000e+00
50500000.0 4.578270000e-01 -1.852551000e+00
51400000.0 4.875670000e-01 -1.860103000e+00
52300000.0 5.226410000e-01 -1.866225000e+00
53200000.0 5.564770000e-01 -1.873310000e+00
54100000.0 5.900300000e-01 -1.876611000e+00
55000000.0 6.259600000e-01 -1.881103000e+00
55900000.0 6.612260000e-01 -1.884174000e+00
56800000.0 6.993100000e-01 -1.884837000e+00
57700000.0 7.346390000e-01 -1.886894000e+00
58600000.0 7.722430000e-01 -1.884248000e+00
59500000.0 8.116370000e-01 -1.879776000e+00
60400000.0 8.496560000e-01 -1.877669000e+00
61300000.0 8.879520000e-01 -1.868812000e+00
62200000.0 9.269860000e-01 -1.861022000e+00
63100000.0 9.692890000e-01 -1.851679000e+00
64000000.0 1.005373000e+00 -1.841522000e+00
64900000.0 1.046209000e+00 -1.826844000e+00
65800000.0 1.084306000e+00 -1.811802000e+00
66700000.0 1.122461000e+00 -1.794297000e+00
67600000.0 1.161096000e+00 -1.778657000e+00
68500000.0 1.197508000e+00 -1.754970000e+00
69400000.0 1.232027000e+00 -1.732165000e+00
70300000.0 1.268373000e+00 -1.710197000e+00
71200000.0 1.303212000e+00 -1.685894000e+00
72100000.0 1.336083000e+00 -1.657343000e+00
73000000.0 1.367910000e+00 -1.627419000e+00
73900000.0 1.397113000e+00 -1.598614000e+00
74800000.0 1.431298000e+00 -1.565830000e+00
75700000.0 1.455281000e+00 -1.535589000e+00
76600000.0 1.480373000e+00 -1.500064000e+00
77500000.0 1.508201000e+00 -1.466403000e+00
78400000.0 1.526617000e+00 -1.430739000e+00
79300000.0 1.549177000e+00 -1.395704000e+00
80200000.0 1.569309000e+00 -1.358684000e+00
81100000.0 1.585707000e+00 -1.321883000e+00
82000000.0 1.601285000e+00 -1.285627000e+00
82900000.0 1.613752000e+00 -1.246516000e+00
83800000.0 1.626263000e+00 -1.210693000e+00
84700000.0 1.635379000e+00 -1.174412000e+00
85600000.0 1.642710000e+00 -1.134648000e+00
86500000.0 1.651636000e+00 -1.099399000e+00
87400000.0 1.657568000e+00 -1.061623000e+00
88300000.0 1.660105000e+00 -1.023932000e+00
89200000.0 1.662060000e+00 -9.909520000e-01
90100000.0 1.663419000e+00 -9.552830000e-01
91000000.0 1.667520000e+00 -9.223000000e-01
91900000.0 1.663550000e+00 -8.880020000e-01
92800000.0 1.660436000e+00 -8.547090000e-01
93700000.0 1.657146000e+00 -8.214050000e-01
94600000.0 1.652788000e+00 -7.916390000e-01
95500000.0 1.647249000e+00 -7.611690000e-01
96400000.0 1.640223000e+00 -7.302630000e-01
97300000.0 1.633229000e+00 -7.012720000e-01
98200000.0 1.625312000e+00 -6.731440000e-01
99100000.0 1.618067000e+00 -6.466490000e-01
100000000.0 1.609866000e+00 -6.188420000e-01
109000000.0 1.501223000e+00 -3.983810000e-01
118000000.0 1.376971000e+00 -2.434570000e-01
127000000.0 1.256421000e+00 -1.372820000e-01
136000000.0 1.147325000e+00 -6.873900000e-02
145000000.0 1.049528000e+00 -1.903100000e-02
154000000.0 1.001307000e+00 1.850000000e-04
163000000.0 1.001222000e+00 7.940000000e-04
172000000.0 1.002589000e+00 -1.237000000e-03
181000000.0 1.004012000e+00 -1.467000000e-03
190000000.0 1.003743000e+00 -7.280000000e-04
199000000.0 1.004717000e+00 -1.666000000e-03
208000000.0 1.005292000e+00 -1.478000000e-03
217000000.0 1.006510000e+00 -1.199000000e-03
226000000.0 1.005330000e+00 -2.459000000e-03
235000000.0 1.005784000e+00 -1.583000000e-03
244000000.0 1.005359000e+00 -1.129000000e-03
253000000.0 1.005613000e+00 -7.360000000e-04
262000000.0 1.005733000e+00 -5.700000000e-05
271000000.0 1.003953000e+00 -1.225000000e-03
280000000.0 1.004307000e+00 -6.270000000e-04
289000000.0 1.003993000e+00 -1.380000000e-04
298000000.0 1.001184000e+00 2.500000000e-05
307000000.0 1.001392000e+00 -5.420000000e-04
316000000.0 1.004764000e+00 -4.440000000e-04
325000000.0 1.004250000e+00 -4.370000000e-04
334000000.0 1.004916000e+00 -6.000000000e-06
343000000.0 1.006853000e+00 -1.077000000e-03
352000000.0 1.004865000e+00 1.394000000e-03
361000000.0 9.986290000e-01 -3.483800000e-02
370000000.0 1.007204000e+00 1.597000000e-03
379000000.0 1.008042000e+00 1.871400000e-02
388000000.0 1.005905000e+00 -7.400000000e-04
397000000.0 1.005449000e+00 -7.300000000e-05
406000000.0 1.003730000e+00 1.023000000e-03
415000000.0 1.011106000e+00 3.581800000e-02
424000000.0 1.002582000e+00 3.310000000e-04
433000000.0 1.002625000e+00 3.296000000e-03
442000000.0 9.992610000e-01 5.430000000e-04
451000000.0 9.990380000e-01 1.164000000e-03
460000000.0 1.000844000e+00 3.578000000e-03
469000000.0 1.002514000e+00 2.805000000e-03
478000000.0 1.004467000e+00 1.604000000e-03
487000000.0 1.006013000e+00 1.754000000e-03
496000000.0 1.006981000e+00 4.335000000e-03
505000000.0 1.006865000e+00 3.431000000e-03
514000000.0 1.008705000e+00 8.386000000e-03
523000000.0 1.009599000e+00 7.508000000e-03
532000000.0 1.008546000e+00 9.220000000e-03
541000000.0 1.011263000e+00 7.221000000e-03
550000000.0 1.010026000e+00 1.059400000e-02
559000000.0 1.007407000e+00 7.514000000e-03
568000000.0 1.005664000e+00 8.993000000e-03
577000000.0 1.005969000e+00 4.986000000e-03
586000000.0 1.004484000e+00 7.673000000e-03
595000000.0 1.003734000e+00 9.842000000e-03
604000000.0 1.002650000e+00 7.134000000e-03
613000000.0 1.004692000e+00 7.682000000e-03
622000000.0 1.009321000e+00 4.792000000e-03
631000000.0 1.012334000e+00 4.285000000e-03
640000000.0 1.013749000e+00 8.390000000e-03
649000000.0 1.011417000e+00 7.173000000e-03
658000000.0 1.018954000e+00 7.794000000e-03
667000000.0 1.013984000e+00 9.180000000e-03
676000000.0 1.018611000e+00 9.519000000e-03
685000000.0 1.017322000e+00 1.008300000e-02
694000000.0 1.013919000e+00 9.692000000e-03
703000000.0 1.016437000e+00 5.110000000e-03
712000000.0 1.010195000e+00 8.770000000e-03
721000000.0 1.013866000e+00 3.172000000e-03
730000000.0 1.006812000e+00 5.085000000e-03
739000000.0 1.005299000e+00 6.660000000e-03
748000000.0 9.986440000e-01 4.104000000e-03
757000000.0 1.001906000e+00 -5.380000000e-04
766000000.0 1.007738000e+00 -2.847000000e-03
775000000.0 1.011835000e+00 -1.638000000e-03
784000000.0 1.011132000e+00 -4.363000000e-03
793000000.0 1.013316000e+00 -6.536000000e-03
802000000.0 1.016447000e+00 -7.564000000e-03
811000000.0 1.018288000e+00 -7.639000000e-03
820000000.0 1.018834000e+00 -2.109000000e-03
829000000.0 1.016621000e+00 -7.086000000e-03
838000000.0 1.017535000e+00 -1.090900000e-02
847000000.0 1.017696000e+00 -2.320000000e-04
856000000.0 1.017302000e+00 -3.769000000e-03
865000000.0 1.014687000e+00 3.030000000e-04
874000000.0 1.008742000e+00 -2.855000000e-03
883000000.0 1.008657000e+00 -1.661000000e-03
892000000.0 1.003367000e+00 -1.322000000e-03
901000000.0 1.000617000e+00 -7.950000000e-04
910000000.0 1.004113000e+00 -2.406000000e-03
919000000.0 1.002979000e+00 -6.530000000e-04
928000000.0 1.004142000e+00 -3.497000000e-03
937000000.0 1.004376000e+00 -7.112000000e-03
946000000.0 1.003708000e+00 -6.661000000e-03
955000000.0 1.006258000e+00 -5.950000000e-03
964000000.0 1.005764000e+00 -8.793000000e-03
973000000.0 1.004693000e+00 -6.602000000e-03
982000000.0 1.005432000e+00 -7.914000000e-03
991000000.0 1.003041000e+00 -9.045000000e-03
1000000000.0 1.005826000e+00 -5.207000000e-03
1004500000.0 1.004027000e+00 -5.340000000e-03
1009000000.0 1.004154000e+00 -6.990000000e-03
1013500000.0 1.005087000e+00 -6.922000000e-03
1018000000.0 1.001985000e+00 -6.639000000e-03
1022500000.0 1.002949000e+00 -5.307000000e-03
1027000000.0 1.001236000e+00 -6.042000000e-03
1031500000.0 9.999810000e-01 -1.011000000e-03
1036000000.0 1.001933000e+00 -3.852000000e-03
1040500000.0 1.003847000e+00 -3.428000000e-03
1045000000.0 9.976730000e-01 -1.118000000e-03
1049500000.0 9.978940000e-01 1.438000000e-03
1054000000.0 1.000016000e+00 -2.613000000e-03
1058500000.0 1.000716000e+00 -3.007000000e-03
1063000000.0 9.999570000e-01 -1.850000000e-03
1067500000.0 9.980280000e-01 -2.887000000e-03
1072000000.0 1.000776000e+00 -5.029000000e-03
1076500000.0 9.991740000e-01 -3.460000000e-04
1081000000.0 1.002436000e+00 -1.159000000e-03
1085500000.0 1.001075000e+00 3.533000000e-03
1090000000.0 1.000105000e+00 -5.740000000e-03
1094500000.0 9.998090000e-01 -2.485000000e-03
1099000000.0 1.000678000e+00 -1.135000000e-03
1103500000.0 1.005652000e+00 1.243000000e-03
1108000000.0 1.000323000e+00 -2.288000000e-03
1112500000.0 1.003225000e+00 -5.595000000e-03
1117000000.0 1.004408000e+00 -9.789000000e-03
1121500000.0 1.005069000e+00 -1.052000000e-02
1126000000.0 1.005862000e+00 -4.570000000e-04
1130500000.0 1.009115000e+00 -7.040000000e-03
1135000000.0 1.005087000e+00 -7.942000000e-03
1139500000.0 9.991800000e-01 -3.597300000e-02
1144000000.0 1.001893000e+00 4.460000000e-04
1148500000.0 1.005730000e+00 -8.704000000e-03
1153000000.0 1.004018000e+00 -9.894000000e-03
1157500000.0 1.008548000e+00 -9.421000000e-03
1162000000.0 1.009648000e+00 -7.796000000e-03
1166500000.0 1.003634000e+00 -1.440000000e-04
1171000000.0 1.007048000e+00 -3.655000000e-03
1175500000.0 1.008227000e+00 -6.366000000e-03
1180000000.0 1.004520000e+00 -9.614000000e-03
1184500000.0 1.002858000e+00 3.397000000e-03
1189000000.0 1.007112000e+00 -1.034300000e-02
1193500000.0 1.005692000e+00 -2.886400000e-02
1198000000.0 1.005375000e+00 -5.267000000e-03
1202500000.0 1.004125000e+00 1.665800000e-02
1207000000.0 1.000377000e+00 3.226000000e-03
1211500000.0 1.002463000e+00 -2.194400000e-02
1216000000.0 1.009432000e+00 -6.371000000e-03
1220500000.0 1.003323000e+00 -9.421000000e-03
1225000000.0 9.992320000e-01 -8.783000000e-03
1229500000.0 1.002664000e+00 3.123000000e-03
1234000000.0 1.002519000e+00 -1.016000000e-03
1238500000.0 1.003465000e+00 -9.010000000e-04
1243000000.0 1.003423000e+00 2.157000000e-03
1247500000.0 1.004756000e+00 1.029000000e-03
1252000000.0 1.001118000e+00 -6.758000000e-03
1256500000.0 1.005303000e+00 2.808000000e-03
1261000000.0 1.004047000e+00 3.888000000e-03
1265500000.0 1.002289000e+00 1.450000000e-03
1270000000.0 1.003520000e+00 -4.702000000e-03
1274500000.0 1.004541000e+00 2.864000000e-03
1279000000.0 1.003081000e+00 1.941000000e-03
1283500000.0 1.007031000e+00 4.216000000e-03
1288000000.0 1.002533000e+00 6.102000000e-03
1292500000.0 1.012329000e+00 2.085000000e-03
1297000000.0 1.003717000e+00 1.615000000e-03
1301500000.0 1.002019000e+00 -5.175000000e-03
1306000000.0 9.470400000e-01 -7.195900000e-02
1310500000.0 1.003852000e+00 -4.285000000e-03
1315000000.0 1.008958000e+00 2.030000000e-04
1319500000.0 1.000817000e+00 4.930000000e-04
1324000000.0 1.001487000e+00 2.083000000e-03
1328500000.0 1.001411000e+00 -1.550000000e-04
1333000000.0 9.986810000e-01 1.342100000e-02
1337500000.0 1.003244000e+00 1.037700000e-02
1342000000.0 1.006760000e+00 1.930000000e-03
1346500000.0 1.007079000e+00 1.845000000e-03
1351000000.0 9.969830000e-01 -5.950000000e-04
1355500000.0 1.005065000e+00 2.514000000e-03
1360000000.0 1.004153000e+00 1.862000000e-03
1364500000.0 1.002784000e+00 2.320000000e-03
1369000000.0 1.005845000e+00 1.118000000e-02
1373500000.0 1.001862000e+00 1.067400000e-02
1378000000.0 1.003389000e+00 6.688000000e-03
1382500000.0 9.995290000e-01 8.889000000e-03
1387000000.0 9.980650000e-01 1.261300000e-02
1391500000.0 1.001479000e+00 1.781000000e-02
1396000000.0 1.002470000e+00 1.655400000e-02
1400500000.0 1.002090000e+00 6.724000000e-03
1405000000.0 1.007131000e+00 1.569200000e-02
1409500000.0 1.006528000e+00 1.112600000e-02
1414000000.0 1.007858000e+00 1.508300000e-02
1418500000.0 1.008285000e+00 1.765500000e-02
1423000000.0 1.009955000e+00 1.216600000e-02
1427500000.0 1.009219000e+00 2.186600000e-02
1432000000.0 1.002745000e+00 1.359700000e-02
1436500000.0 1.000712000e+00 1.345300000e-02
1441000000.0 1.001904000e+00 5.105000000e-03
1445500000.0 1.004122000e+00 1.065800000e-02
1450000000.0 1.002853000e+00 1.145400000e-02
