! piloto_saltos / abierto_tramosA / r12
# HZ S RI R 50
50000.0 1.006593000e+00 -7.036400000e-02
59500.0 1.006601000e+00 -5.509200000e-02
69000.0 1.003844000e+00 -4.106400000e-02
78500.0 1.002913000e+00 -2.831500000e-02
88000.0 1.001274000e+00 -1.713800000e-02
97500.0 1.001324000e+00 -3.259000000e-03
107000.0 1.000268000e+00 8.918000000e-03
116500.0 1.000040000e+00 2.149200000e-02
126000.0 9.996710000e-01 3.540100000e-02
135500.0 9.991060000e-01 4.455800000e-02
145000.0 1.001145000e+00 5.731700000e-02
154500.0 1.002650000e+00 7.062500000e-02
164000.0 1.001249000e+00 8.252400000e-02
173500.0 1.002718000e+00 9.346700000e-02
183000.0 1.003622000e+00 1.064890000e-01
192500.0 1.003663000e+00 1.176450000e-01
202000.0 1.002698000e+00 1.291190000e-01
211500.0 1.004128000e+00 1.409300000e-01
221000.0 1.003608000e+00 1.525890000e-01
230500.0 1.004272000e+00 1.642970000e-01
240000.0 1.004708000e+00 1.756940000e-01
249500.0 1.005219000e+00 1.873460000e-01
259000.0 1.005823000e+00 1.981220000e-01
268500.0 1.005073000e+00 2.097540000e-01
278000.0 1.006015000e+00 2.207640000e-01
287500.0 1.006556000e+00 2.316980000e-01
297000.0 1.006521000e+00 2.423200000e-01
306500.0 1.005629000e+00 2.538400000e-01
316000.0 1.007460000e+00 2.641610000e-01
325500.0 1.007066000e+00 2.765810000e-01
335000.0 1.007737000e+00 2.861890000e-01
344500.0 1.007669000e+00 2.967180000e-01
354000.0 1.008381000e+00 3.079690000e-01
363500.0 1.007454000e+00 3.185410000e-01
373000.0 1.008673000e+00 3.294220000e-01
382500.0 1.008731000e+00 3.401350000e-01
392000.0 1.008978000e+00 3.493700000e-01
401500.0 1.008816000e+00 3.612920000e-01
411000.0 1.009112000e+00 3.710610000e-01
420500.0 1.009430000e+00 3.815980000e-01
430000.0 1.010310000e+00 3.912870000e-01
439500.0 1.010055000e+00 4.011410000e-01
449000.0 1.010395000e+00 4.125320000e-01
458500.0 1.011056000e+00 4.222810000e-01
468000.0 1.011400000e+00 4.329660000e-01
477500.0 1.011950000e+00 4.426310000e-01
487000.0 1.011844000e+00 4.533660000e-01
496500.0 1.011378000e+00 4.631220000e-01
506000.0 1.012196000e+00 4.732620000e-01
515500.0 1.012611000e+00 4.835010000e-01
525000.0 1.013577000e+00 4.933840000e-01
534500.0 1.013105000e+00 5.032980000e-01
544000.0 1.013769000e+00 5.129350000e-01
553500.0 1.015349000e+00 5.231100000e-01
563000.0 1.015368000e+00 5.326460000e-01
572500.0 1.016190000e+00 5.420320000e-01
582000.0 1.016431000e+00 5.525960000e-01
591500.0 1.016705000e+00 5.619230000e-01
601000.0 1.016569000e+00 5.725520000e-01
610500.0 1.016822000e+00 5.818090000e-01
620000.0 1.018798000e+00 5.925970000e-01
629500.0 1.019815000e+00 6.018120000e-01
639000.0 1.019921000e+00 6.118110000e-01
648500.0 1.020343000e+00 6.215060000e-01
658000.0 1.021216000e+00 6.301840000e-01
667500.0 1.022023000e+00 6.400250000e-01
677000.0 1.023190000e+00 6.499390000e-01
686500.0 1.024487000e+00 6.592630000e-01
696000.0 1.025673000e+00 6.695000000e-01
705500.0 1.026120000e+00 6.771450000e-01
715000.0 1.027148000e+00 6.880600000e-01
724500.0 1.027668000e+00 6.972760000e-01
734000.0 1.029090000e+00 7.051980000e-01
743500.0 1.030647000e+00 7.160340000e-01
753000.0 1.031189000e+00 7.253350000e-01
762500.0 1.032719000e+00 7.336570000e-01
772000.0 1.033824000e+00 7.438450000e-01
781500.0 1.035406000e+00 7.531830000e-01
791000.0 1.036079000e+00 7.627530000e-01
800500.0 1.036937000e+00 7.705950000e-01
810000.0 1.039462000e+00 7.806260000e-01
819500.0 1.041380000e+00 7.915590000e-01
829000.0 1.042004000e+00 7.996760000e-01
838500.0 1.044370000e+00 8.097520000e-01
848000.0 1.045837000e+00 8.178650000e-01
857500.0 1.045850000e+00 8.273160000e-01
867000.0 1.048749000e+00 8.360590000e-01
876500.0 1.052032000e+00 8.446810000e-01
886000.0 1.053448000e+00 8.542290000e-01
895500.0 1.054852000e+00 8.632790000e-01
905000.0 1.057888000e+00 8.714340000e-01
914500.0 1.059424000e+00 8.811380000e-01
924000.0 1.061670000e+00 8.899650000e-01
933500.0 1.064575000e+00 8.989050000e-01
943000.0 1.066617000e+00 9.087970000e-01
952500.0 1.068725000e+00 9.165060000e-01
962000.0 1.071280000e+00 9.268260000e-01
971500.0 1.074118000e+00 9.338920000e-01
981000.0 1.076647000e+00 9.436720000e-01
990500.0 1.078965000e+00 9.514560000e-01
1000000.0 1.081140000e+00 9.604070000e-01
1090000.0 1.109502000e+00 1.041221000e+00
1180000.0 1.150411000e+00 1.115684000e+00
1270000.0 1.201926000e+00 1.187714000e+00
1360000.0 1.265845000e+00 1.248301000e+00
1450000.0 1.331523000e+00 1.326379000e+00
1540000.0 1.414415000e+00 1.336348000e+00
1630000.0 1.502668000e+00 1.355268000e+00
1720000.0 1.591544000e+00 1.352959000e+00
1810000.0 1.684774000e+00 1.332124000e+00
1900000.0 1.768700000e+00 1.291465000e+00
1990000.0 1.844043000e+00 1.228255000e+00
2080000.0 1.900577000e+00 1.155187000e+00
2170000.0 1.940601000e+00 1.069900000e+00
2260000.0 1.965142000e+00 9.799630000e-01
2350000.0 1.968348000e+00 8.874330000e-01
2440000.0 1.957092000e+00 8.035540000e-01
2530000.0 1.939296000e+00 7.252520000e-01
2620000.0 1.912720000e+00 6.539200000e-01
2710000.0 1.876571000e+00 5.897310000e-01
2800000.0 1.839880000e+00 5.325940000e-01
2890000.0 1.802131000e+00 4.851140000e-01
2980000.0 1.759460000e+00 4.410650000e-01
3070000.0 1.721279000e+00 4.039550000e-01
3160000.0 1.684150000e+00 3.728730000e-01
3250000.0 1.647399000e+00 3.420210000e-01
3340000.0 1.615202000e+00 3.152040000e-01
3430000.0 1.583907000e+00 2.929550000e-01
3520000.0 1.554026000e+00 2.716070000e-01
3610000.0 1.525303000e+00 2.512190000e-01
3700000.0 1.498429000e+00 2.328480000e-01
3790000.0 1.473929000e+00 2.141190000e-01
3880000.0 1.452190000e+00 1.960540000e-01
3970000.0 1.430709000e+00 1.821030000e-01
4060000.0 1.410444000e+00 1.658650000e-01
4150000.0 1.395010000e+00 1.510450000e-01
4240000.0 1.377949000e+00 1.379220000e-01
4330000.0 1.362437000e+00 1.241390000e-01
4420000.0 1.348616000e+00 1.083210000e-01
4510000.0 1.337425000e+00 9.698000000e-02
4600000.0 1.324949000e+00 8.111800000e-02
4690000.0 1.316393000e+00 6.798500000e-02
4780000.0 1.304924000e+00 5.608600000e-02
4870000.0 1.296907000e+00 4.267100000e-02
4960000.0 1.290205000e+00 2.883900000e-02
5050000.0 1.276000000e+00 1.769100000e-02
5140000.0 1.270987000e+00 5.498000000e-03
5230000.0 1.265980000e+00 -7.636000000e-03
5320000.0 1.261769000e+00 -1.909600000e-02
5410000.0 1.258418000e+00 -3.158000000e-02
5500000.0 1.254325000e+00 -4.124800000e-02
5590000.0 1.250309000e+00 -5.338300000e-02
5680000.0 1.247829000e+00 -6.433600000e-02
5770000.0 1.243890000e+00 -7.680400000e-02
5860000.0 1.241567000e+00 -8.696300000e-02
5950000.0 1.238960000e+00 -9.659700000e-02
6040000.0 1.236320000e+00 -1.072060000e-01
6130000.0 1.235669000e+00 -1.168760000e-01
6220000.0 1.231803000e+00 -1.256640000e-01
6310000.0 1.230518000e+00 -1.349150000e-01
6400000.0 1.227376000e+00 -1.431330000e-01
6490000.0 1.225835000e+00 -1.506720000e-01
6580000.0 1.225152000e+00 -1.585850000e-01
6670000.0 1.223677000e+00 -1.644830000e-01
6760000.0 1.221627000e+00 -1.724050000e-01
6850000.0 1.222366000e+00 -1.764450000e-01
6940000.0 1.219612000e+00 -1.812840000e-01
7030000.0 1.219114000e+00 -1.845040000e-01
7120000.0 1.219802000e+00 -1.884230000e-01
7210000.0 1.219526000e+00 -1.911310000e-01
7300000.0 1.219038000e+00 -1.926050000e-01
7390000.0 1.218438000e+00 -1.928080000e-01
7480000.0 1.219397000e+00 -1.933100000e-01
7570000.0 -2.426590000e-01 -1.259220000e+00
7660000.0 -2.402250000e-01 -1.258182000e+00
7750000.0 -2.407620000e-01 -1.258430000e+00
7840000.0 -2.411530000e-01 -1.258753000e+00
7930000.0 -2.393210000e-01 -1.261489000e+00
8020000.0 -2.388130000e-01 -1.261374000e+00
8110000.0 -2.382080000e-01 -1.262383000e+00
8200000.0 -2.369870000e-01 -1.261843000e+00
8290000.0 -2.358710000e-01 -1.262050000e+00
8380000.0 -2.350830000e-01 -1.262557000e+00
8470000.0 -2.360070000e-01 -1.263322000e+00
8560000.0 -2.337340000e-01 -1.263332000e+00
8650000.0 -2.338240000e-01 -1.264125000e+00
8740000.0 -2.341210000e-01 -1.264415000e+00
8830000.0 -2.324980000e-01 -1.265598000e+00
8920000.0 -2.307330000e-01 -1.266291000e+00
9010000.0 -2.314270000e-01 -1.267646000e+00
9100000.0 -2.306580000e-01 -1.267104000e+00
9190000.0 -2.300870000e-01 -1.269539000e+00
9280000.0 -2.294840000e-01 -1.268922000e+00
9370000.0 -2.291570000e-01 -1.269513000e+00
9460000.0 -2.281880000e-01 -1.271316000e+00
9550000.0 -2.274570000e-01 -1.270877000e+00
9640000.0 -2.260360000e-01 -1.273206000e+00
9730000.0 -2.263190000e-01 -1.273309000e+00
9820000.0 -2.253080000e-01 -1.273640000e+00
9910000.0 -2.246040000e-01 -1.274757000e+00
10000000.0 -2.243840000e-01 -1.275944000e+00
10900000.0 -2.166050000e-01 -1.284020000e+00
11800000.0 -2.135700000e-01 -1.294683000e+00
12700000.0 -2.074260000e-01 -1.303370000e+00
13600000.0 -2.014200000e-01 -1.314538000e+00
14500000.0 -1.942330000e-01 -1.325504000e+00
15400000.0 -1.885050000e-01 -1.336065000e+00
16300000.0 -1.829760000e-01 -1.348019000e+00
17200000.0 -1.752530000e-01 -1.361712000e+00
18100000.0 -1.693330000e-01 -1.372233000e+00
19000000.0 -1.614860000e-01 -1.385027000e+00
19900000.0 -1.527930000e-01 -1.397051000e+00
20800000.0 -1.440250000e-01 -1.409775000e+00
21700000.0 -1.362980000e-01 -1.422344000e+00
22600000.0 -1.277890000e-01 -1.436590000e+00
23500000.0 -1.190140000e-01 -1.449480000e+00
24400000.0 -1.068130000e-01 -1.464131000e+00
25300000.0 -9.740800000e-02 -1.477164000e+00
26200000.0 -8.696100000e-02 -1.490359000e+00
27100000.0 -7.588700000e-02 -1.504220000e+00
28000000.0 -6.526600000e-02 -1.517961000e+00
28900000.0 -8.034100000e-02 -1.528943000e+00
29800000.0 -1.059700000e-02 -1.549834000e+00
30700000.0 -5.284400000e-02 -1.559233000e+00
31600000.0 1.763100000e-02 -1.578928000e+00
32500000.0 -2.547300000e-02 -1.588894000e+00
33400000.0 4.861400000e-02 -1.607317000e+00
34300000.0 3.324200000e-02 -1.619402000e+00
35200000.0 5.097600000e-02 -1.635656000e+00
36100000.0 6.969100000e-02 -1.651318000e+00
37000000.0 8.662300000e-02 -1.662947000e+00
37900000.0 1.067030000e-01 -1.679817000e+00
38800000.0 1.240520000e-01 -1.693986000e+00
39700000.0 1.445400000e-01 -1.707329000e+00
40600000.0 1.664260000e-01 -1.722105000e+00
41500000.0 1.887220000e-01 -1.737272000e+00
42400000.0 2.114160000e-01 -1.749584000e+00
43300000.0 2.348110000e-01 -1.763225000e+00
44200000.0 2.603650000e-01 -1.774746000e+00
45100000.0 2.846860000e-01 -1.788412000e+00
46000000.0 3.114140000e-01 -1.800882000e+00
46900000.0 3.373970000e-01 -1.811431000e+00
47800000.0 3.678230000e-01 -1.823176000e+00
48700000.0 3.963830000e-01 -1.832618000e+00
49600000.0 4.257850000e-01 -1.844130000e+00
50500000.0 4.568470000e-01 -1.851146000e+00
51400000.0 4.893060000e-01 -1.859734000e+00
52300000.0 5.229500000e-01 -1.867774000e+00
53200000.0 5.549910000e-01 -1.872605000e+00
54100000.0 5.904450000e-01 -1.876208000e+00
55000000.0 6.240860000e-01 -1.882371000e+00
55900000.0 6.611330000e-01 -1.883000000e+00
56800000.0 6.974340000e-01 -1.886034000e+00
57700000.0 7.336410000e-01 -1.885311000e+00
58600000.0 7.721320000e-01 -1.882699000e+00
59500000.0 8.104450000e-01 -1.879843000e+00
60400000.0 8.491040000e-01 -1.875159000e+00
61300000.0 8.891790000e-01 -1.869832000e+00
62200000.0 9.261060000e-01 -1.862066000e+00
63100000.0 9.683910000e-01 -1.850311000e+00
64000000.0 1.003289000e+00 -1.840925000e+00
64900000.0 1.045261000e+00 -1.828587000e+00
65800000.0 1.084515000e+00 -1.811156000e+00
66700000.0 1.122030000e+00 -1.794732000e+00
67600000.0 1.161590000e+00 -1.778337000e+00
68500000.0 1.195837000e+00 -1.756027000e+00
69400000.0 1.233683000e+00 -1.732240000e+00
70300000.0 1.268704000e+00 -1.708441000e+00
71200000.0 1.303036000e+00 -1.684122000e+00
72100000.0 1.337950000e+00 -1.656490000e+00
73000000.0 1.368706000e+00 -1.627833000e+00
73900000.0 1.399452000e+00 -1.599320000e+00
74800000.0 1.428274000e+00 -1.568686000e+00
75700000.0 1.457408000e+00 -1.535273000e+00
76600000.0 1.481375000e+00 -1.500204000e+00
77500000.0 1.505956000e+00 -1.466262000e+00
78400000.0 1.528810000e+00 -1.430014000e+00
79300000.0 1.547990000e+00 -1.395279000e+00
80200000.0 1.568549000e+00 -1.359712000e+00
81100000.0 1.585037000e+00 -1.322518000e+00
82000000.0 1.600082000e+00 -1.284216000e+00
82900000.0 1.613808000e+00 -1.245499000e+00
83800000.0 1.624846000e+00 -1.209496000e+00
84700000.0 1.634878000e+00 -1.171350000e+00
85600000.0 1.643537000e+00 -1.135567000e+00
86500000.0 1.652040000e+00 -1.098248000e+00
87400000.0 1.655795000e+00 -1.059379000e+00
88300000.0 1.662978000e+00 -1.027598000e+00
89200000.0 1.660728000e+00 -9.909330000e-01
90100000.0 1.664131000e+00 -9.569670000e-01
91000000.0 1.663372000e+00 -9.226450000e-01
91900000.0 1.662637000e+00 -8.873120000e-01
92800000.0 1.661084000e+00 -8.537830000e-01
93700000.0 1.657278000e+00 -8.220390000e-01
94600000.0 1.653664000e+00 -7.896130000e-01
95500000.0 1.645711000e+00 -7.595610000e-01
96400000.0 1.641048000e+00 -7.318670000e-01
97300000.0 1.635174000e+00 -7.024190000e-01
98200000.0 1.625764000e+00 -6.728440000e-01
99100000.0 1.618657000e+00 -6.463210000e-01
100000000.0 1.610455000e+00 -6.191810000e-01
109000000.0 1.501020000e+00 -3.981210000e-01
118000000.0 1.378485000e+00 -2.440290000e-01
127000000.0 1.255858000e+00 -1.380190000e-01
136000000.0 1.147804000e+00 -6.878200000e-02
145000000.0 1.049690000e+00 -2.010100000e-02
154000000.0 1.000643000e+00 1.280000000e-03
163000000.0 1.001653000e+00 1.378000000e-03
172000000.0 1.003642000e+00 -5.670000000e-04
181000000.0 1.003594000e+00 -8.040000000e-04
190000000.0 1.004513000e+00 -1.036000000e-03
199000000.0 1.005523000e+00 -1.200000000e-03
208000000.0 1.006275000e+00 -8.920000000e-04
217000000.0 1.005690000e+00 -1.546000000e-03
226000000.0 1.006463000e+00 -1.479000000e-03
235000000.0 1.006571000e+00 -1.382000000e-03
244000000.0 1.006077000e+00 -9.330000000e-04
253000000.0 1.006009000e+00 1.380000000e-04
262000000.0 1.006447000e+00 -1.040000000e-03
271000000.0 1.005364000e+00 5.160000000e-04
280000000.0 1.003932000e+00 -1.384000000e-03
289000000.0 1.002245000e+00 -1.149000000e-03
298000000.0 1.001647000e+00 -2.950000000e-04
307000000.0 1.001689000e+00 -1.640000000e-04
316000000.0 1.004750000e+00 5.700000000e-04
325000000.0 1.002919000e+00 -6.600000000e-05
334000000.0 1.005113000e+00 -8.140000000e-04
343000000.0 1.006637000e+00 3.290000000e-04
352000000.0 1.007233000e+00 5.410000000e-04
361000000.0 1.004857000e+00 1.950000000e-04
370000000.0 1.007441000e+00 2.122000000e-03
379000000.0 9.979610000e-01 -3.407000000e-02
388000000.0 1.007062000e+00 1.771000000e-03
397000000.0 1.006279000e+00 2.858000000e-03
406000000.0 9.964160000e-01 -3.328300000e-02
415000000.0 1.004645000e+00 9.800000000e-05
424000000.0 9.926820000e-01 -1.245200000e-02
433000000.0 1.002345000e+00 1.300000000e-03
442000000.0 1.000716000e+00 1.638000000e-03
451000000.0 9.980900000e-01 1.290000000e-03
460000000.0 1.001665000e+00 2.496000000e-03
469000000.0 1.002292000e+00 3.811000000e-03
478000000.0 1.004327000e+00 2.209000000e-03
487000000.0 1.005348000e+00 4.251000000e-03
496000000.0 1.007447000e+00 6.869000000e-03
505000000.0 1.007756000e+00 5.275000000e-03
514000000.0 1.008185000e+00 6.539000000e-03
523000000.0 1.008325000e+00 6.905000000e-03
532000000.0 1.009206000e+00 5.856000000e-03
541000000.0 1.007947000e+00 7.144000000e-03
550000000.0 1.008797000e+00 9.868000000e-03
559000000.0 1.007223000e+00 5.344000000e-03
568000000.0 1.007318000e+00 9.889000000e-03
577000000.0 1.008152000e+00 8.195000000e-03
586000000.0 1.003666000e+00 6.175000000e-03
595000000.0 1.003540000e+00 7.445000000e-03
604000000.0 1.005166000e+00 6.570000000e-03
613000000.0 1.004333000e+00 4.896000000e-03
622000000.0 1.009776000e+00 6.125000000e-03
631000000.0 1.007943000e+00 8.585000000e-03
640000000.0 1.015247000e+00 4.884000000e-03
649000000.0 1.015573000e+00 9.572000000e-03
658000000.0 1.014914000e+00 6.871000000e-03
667000000.0 1.018261000e+00 1.017300000e-02
676000000.0 1.016819000e+00 5.699000000e-03
685000000.0 1.011607000e+00 7.425000000e-03
694000000.0 1.017186000e+00 7.637000000e-03
703000000.0 1.010704000e+00 7.335000000e-03
712000000.0 1.142352000e+00 7.955300000e-02
721000000.0 1.011406000e+00 7.540000000e-03
730000000.0 1.007953000e+00 5.642000000e-03
739000000.0 1.005307000e+00 2.976000000e-03
748000000.0 1.002209000e+00 -2.140000000e-04
757000000.0 1.004094000e+00 4.672000000e-03
766000000.0 1.006269000e+00 -9.450000000e-04
775000000.0 1.009874000e+00 -3.570000000e-04
784000000.0 1.014217000e+00 -7.016000000e-03
793000000.0 1.013538000e+00 -5.616000000e-03
802000000.0 1.017036000e+00 -6.509000000e-03
811000000.0 1.016855000e+00 -6.841000000e-03
820000000.0 1.017568000e+00 -9.298000000e-03
829000000.0 1.017323000e+00 -6.100000000e-03
838000000.0 1.015586000e+00 -3.323000000e-03
847000000.0 1.017131000e+00 -6.799000000e-03
856000000.0 1.014640000e+00 -1.513000000e-03
865000000.0 1.013471000e+00 -2.537000000e-03
874000000.0 1.008963000e+00 1.269000000e-03
883000000.0 1.007696000e+00 -4.560000000e-03
892000000.0 1.003044000e+00 -1.836000000e-03
901000000.0 1.002227000e+00 3.695000000e-03
910000000.0 1.000253000e+00 -4.967000000e-03
919000000.0 1.002540000e+00 4.920000000e-03
928000000.0 1.002554000e+00 -5.426000000e-03
937000000.0 1.004062000e+00 -4.602000000e-03
946000000.0 1.006028000e+00 -9.513000000e-03
955000000.0 1.003892000e+00 -7.822000000e-03
964000000.0 1.005195000e+00 -1.074900000e-02
973000000.0 1.005463000e+00 -7.553000000e-03
982000000.0 1.006226000e+00 -7.327000000e-03
991000000.0 1.004572000e+00 -3.876000000e-03
1000000000.0 1.002633000e+00 -5.277000000e-03
1004500000.0 1.003835000e+00 -1.178500000e-02
1009000000.0 1.003577000e+00 -6.291000000e-03
1013500000.0 1.002721000e+00 -5.113000000e-03
1018000000.0 1.004325000e+00 -2.173000000e-03
1022500000.0 1.002691000e+00 -1.564000000e-03
1027000000.0 1.003256000e+00 -6.079000000e-03
1031500000.0 1.002332000e+00 -4.784000000e-03
1036000000.0 1.002208000e+00 -4.790000000e-03
1040500000.0 9.999270000e-01 2.850000000e-04
1045000000.0 1.002801000e+00 1.455000000e-03
1049500000.0 1.000034000e+00 -5.047000000e-03
1054000000.0 1.000816000e+00 -5.730000000e-04
1058500000.0 9.993830000e-01 -2.534000000e-03
1063000000.0 9.991140000e-01 -1.737000000e-03
1067500000.0 1.003243000e+00 -2.735000000e-03
1072000000.0 1.000419000e+00 -1.536000000e-03
1076500000.0 1.002212000e+00 -2.639000000e-03
1081000000.0 1.003047000e+00 -3.070000000e-04
1085500000.0 9.983390000e-01 -1.723000000e-03
1090000000.0 1.003553000e+00 -2.943000000e-03
1094500000.0 1.005160000e+00 -8.024000000e-03
1099000000.0 1.004752000e+00 -6.370000000e-04
1103500000.0 1.001774000e+00 -1.896000000e-03
1108000000.0 1.005697000e+00 -9.520000000e-04
1112500000.0 1.001325000e+00 -1.397000000e-03
1117000000.0 1.005505000e+00 -9.923000000e-03
1121500000.0 1.002672000e+00 -2.879000000e-03
1126000000.0 1.006197000e+00 -2.946000000e-03
1130500000.0 1.008809000e+00 -6.029000000e-03
1135000000.0 1.008358000e+00 -4.981000000e-03
1139500000.0 1.007118000e+00 -1.765000000e-03
1144000000.0 1.003760000e+00 -6.673000000e-03
1148500000.0 1.008927000e+00 -2.277100000e-02
1153000000.0 1.005402000e+00 -7.078000000e-03
1157500000.0 1.006196000e+00 -1.346000000e-03
1162000000.0 1.005268000e+00 -6.130000000e-03
1166500000.0 1.005980000e+00 -6.110000000e-03
1171000000.0 1.006243000e+00 4.043000000e-03
1175500000.0 1.002698000e+00 -2.012000000e-03
1180000000.0 1.003213000e+00 -9.202000000e-03
1184500000.0 1.004982000e+00 -2.693000000e-03
1189000000.0 1.005954000e+00 -8.156000000e-03
1193500000.0 9.995810000e-01 -1.492600000e-02
1198000000.0 1.003937000e+00 1.890000000e-03
1202500000.0 1.004709000e+00 -1.524000000e-03
1207000000.0 1.004120000e+00 -7.720000000e-03
1211500000.0 1.006579000e+00 -5.841000000e-03
1216000000.0 1.005268000e+00 4.750000000e-03
1220500000.0 1.008858000e+00 -2.160000000e-04
1225000000.0 9.984720000e-01 -5.262000000e-03
1229500000.0 1.005770000e+00 -4.801000000e-03
1234000000.0 1.006556000e+00 -2.661000000e-03
1238500000.0 1.006339000e+00 -6.879000000e-03
1243000000.0 1.002890000e+00 -7.189000000e-03
1247500000.0 1.001297000e+00 -6.800000000e-04
1252000000.0 1.005178000e+00 -3.383000000e-03
1256500000.0 1.005703000e+00 -6.672000000e-03
1261000000.0 1.000664000e+00 3.169000000e-03
1265500000.0 1.004503000e+00 -1.229600000e-02
1270000000.0 1.004196000e+00 5.318000000e-03
1274500000.0 1.008118000e+00 -1.766000000e-03
1279000000.0 1.007030000e+00 -4.468000000e-03
1283500000.0 1.002600000e+00 2.019300000e-02
1288000000.0 1.003779000e+00 -1.310000000e-04
1292500000.0 1.005482000e+00 -1.101100000e-02
1297000000.0 1.009564000e+00 -2.477000000e-03
1301500000.0 1.007195000e+00 2.020500000e-02
1306000000.0 1.002152000e+00 4.643000000e-03
1310500000.0 1.002398000e+00 -2.430000000e-02
1315000000.0 1.001897000e+00 -2.753000000e-03
1319500000.0 1.005454000e+00 2.711300000e-02
1324000000.0 1.003759000e+00 1.694000000e-03
1328500000.0 1.005073000e+00 -2.633000000e-03
1333000000.0 1.000733000e+00 7.225000000e-03
1337500000.0 1.005022000e+00 1.166900000e-02
1342000000.0 9.972000000e-01 2.850000000e-04
1346500000.0 9.992270000e-01 -2.546000000e-03
1351000000.0 1.007540000e+00 1.093000000e-02
1355500000.0 1.002743000e+00 3.821000000e-03
1360000000.0 1.008143000e+00 6.384000000e-03
1364500000.0 1.008071000e+00 7.623000000e-03
1369000000.0 1.003046000e+00 5.569000000e-03
1373500000.0 1.000692000e+00 1.419700000e-02
1378000000.0 1.004393000e+00 3.189000000e-03
1382500000.0 1.001029000e+00 -6.300000000e-05
1387000000.0 1.002444000e+00 1.287900000e-02
1391500000.0 1.004160000e+00 5.272000000e-03
1396000000.0 1.000734000e+00 9.708000000e-03
1400500000.0 9.994020000e-01 1.645700000e-02
1405000000.0 1.004116000e+00 1.740600000e-02
1409500000.0 1.006901000e+00 1.388100000e-02
1414000000.0 1.007513000e+00 1.516200000e-02
1418500000.0 1.007053000e+00 1.621300000e-02
1423000000.0 1.011685000e+00 9.765000000e-03
1427500000.0 1.002407000e+00 2.536200000e-02
1432000000.0 1.001148000e+00 5.240000000e-03
1436500000.0 1.002311000e+00 1.529900000e-02
1441000000.0 9.979570000e-01 1.186600000e-02
1445500000.0 1.002195000e+00 1.809200000e-02
1450000000.0 1.001068000e+00 1.350000000e-02
