! piloto_saltos / abierto_tramosA / r02
# HZ S RI R 50
50000.0 1.006318000e+00 -7.100800000e-02
59500.0 1.008952000e+00 -5.637600000e-02
69000.0 1.004633000e+00 -4.351200000e-02
78500.0 1.002293000e+00 -2.917400000e-02
88000.0 1.001386000e+00 -1.667200000e-02
97500.0 1.000060000e+00 -4.508000000e-03
107000.0 9.997520000e-01 8.759000000e-03
116500.0 1.000412000e+00 2.037400000e-02
126000.0 1.003456000e+00 3.298600000e-02
135500.0 1.000687000e+00 4.541700000e-02
145000.0 1.001202000e+00 5.817600000e-02
154500.0 1.002492000e+00 7.035100000e-02
164000.0 1.002637000e+00 8.232800000e-02
173500.0 1.002604000e+00 9.442600000e-02
183000.0 1.003064000e+00 1.060040000e-01
192500.0 1.010175000e+00 1.528540000e-01
202000.0 1.003479000e+00 1.298170000e-01
211500.0 1.004092000e+00 1.417450000e-01
221000.0 1.004268000e+00 1.526480000e-01
230500.0 1.004948000e+00 1.645920000e-01
240000.0 1.004944000e+00 1.759310000e-01
249500.0 1.004880000e+00 1.865540000e-01
259000.0 1.005032000e+00 1.983240000e-01
268500.0 1.005967000e+00 2.092920000e-01
278000.0 1.005704000e+00 2.207120000e-01
287500.0 1.006878000e+00 2.326700000e-01
297000.0 1.006577000e+00 2.432390000e-01
306500.0 1.007146000e+00 2.535090000e-01
316000.0 1.007650000e+00 2.648130000e-01
325500.0 1.007127000e+00 2.754660000e-01
335000.0 1.007568000e+00 2.860500000e-01
344500.0 1.007342000e+00 2.967610000e-01
354000.0 1.008249000e+00 3.083640000e-01
363500.0 1.008122000e+00 3.185890000e-01
373000.0 1.008314000e+00 3.295860000e-01
382500.0 1.008509000e+00 3.403850000e-01
392000.0 1.009138000e+00 3.509310000e-01
401500.0 1.009683000e+00 3.606290000e-01
411000.0 1.010432000e+00 3.710850000e-01
420500.0 1.010495000e+00 3.823950000e-01
430000.0 1.009743000e+00 3.925770000e-01
439500.0 1.010845000e+00 4.031090000e-01
449000.0 1.011280000e+00 4.137920000e-01
458500.0 1.011600000e+00 4.235830000e-01
468000.0 1.011660000e+00 4.334660000e-01
477500.0 1.012133000e+00 4.441690000e-01
487000.0 1.012152000e+00 4.537470000e-01
496500.0 1.013003000e+00 4.637240000e-01
506000.0 1.012914000e+00 4.731300000e-01
515500.0 1.013776000e+00 4.838200000e-01
525000.0 1.012998000e+00 4.947530000e-01
534500.0 1.014607000e+00 5.043760000e-01
544000.0 1.014724000e+00 5.133750000e-01
553500.0 1.015793000e+00 5.238650000e-01
563000.0 1.015969000e+00 5.336710000e-01
572500.0 1.015938000e+00 5.430960000e-01
582000.0 1.016733000e+00 5.530720000e-01
591500.0 1.017273000e+00 5.629970000e-01
601000.0 1.017875000e+00 5.732390000e-01
610500.0 1.018227000e+00 5.828180000e-01
620000.0 1.018630000e+00 5.924260000e-01
629500.0 1.020753000e+00 6.025720000e-01
639000.0 1.020720000e+00 6.129340000e-01
648500.0 1.021046000e+00 6.219810000e-01
658000.0 1.021540000e+00 6.305820000e-01
667500.0 1.023088000e+00 6.410930000e-01
677000.0 1.023786000e+00 6.498840000e-01
686500.0 1.025095000e+00 6.589970000e-01
696000.0 1.024983000e+00 6.690370000e-01
705500.0 1.026749000e+00 6.787770000e-01
715000.0 1.027224000e+00 6.878080000e-01
724500.0 1.028597000e+00 6.970580000e-01
734000.0 1.029309000e+00 7.078990000e-01
743500.0 1.030169000e+00 7.171260000e-01
753000.0 1.031636000e+00 7.257030000e-01
762500.0 1.032620000e+00 7.352170000e-01
772000.0 1.034016000e+00 7.460830000e-01
781500.0 1.035528000e+00 7.539570000e-01
791000.0 1.036509000e+00 7.627560000e-01
800500.0 1.039126000e+00 7.728680000e-01
810000.0 1.040535000e+00 7.823630000e-01
819500.0 1.041002000e+00 7.910320000e-01
829000.0 1.043220000e+00 8.007800000e-01
838500.0 1.046380000e+00 8.097290000e-01
848000.0 1.046969000e+00 8.192130000e-01
857500.0 1.048727000e+00 8.282720000e-01
867000.0 1.049557000e+00 8.379830000e-01
876500.0 1.052476000e+00 8.459870000e-01
886000.0 1.054308000e+00 8.558410000e-01
895500.0 1.056487000e+00 8.647710000e-01
905000.0 1.058025000e+00 8.731580000e-01
914500.0 1.059549000e+00 8.822980000e-01
924000.0 1.063175000e+00 8.907330000e-01
933500.0 1.064213000e+00 9.002160000e-01
943000.0 1.068382000e+00 9.082480000e-01
952500.0 1.069845000e+00 9.179150000e-01
962000.0 1.072754000e+00 9.260570000e-01
971500.0 1.075252000e+00 9.369980000e-01
981000.0 1.075812000e+00 9.441260000e-01
990500.0 1.080546000e+00 9.530370000e-01
1000000.0 1.082870000e+00 9.635020000e-01
1090000.0 1.111628000e+00 1.041670000e+00
1180000.0 1.152162000e+00 1.118810000e+00
1270000.0 1.204088000e+00 1.187049000e+00
1360000.0 1.264250000e+00 1.248951000e+00
1450000.0 1.336666000e+00 1.300211000e+00
1540000.0 1.419301000e+00 1.337086000e+00
1630000.0 1.504682000e+00 1.353674000e+00
1720000.0 1.599237000e+00 1.354446000e+00
1810000.0 1.687431000e+00 1.333525000e+00
1900000.0 1.773306000e+00 1.288600000e+00
1990000.0 1.845691000e+00 1.228220000e+00
2080000.0 1.902415000e+00 1.153512000e+00
2170000.0 1.943871000e+00 1.063994000e+00
2260000.0 1.965326000e+00 9.759270000e-01
2350000.0 1.971438000e+00 8.866770000e-01
2440000.0 1.961073000e+00 8.003230000e-01
2530000.0 1.938220000e+00 7.223490000e-01
2620000.0 1.910218000e+00 6.496730000e-01
2710000.0 1.876534000e+00 5.878950000e-01
2800000.0 1.837058000e+00 5.304010000e-01
2890000.0 1.798293000e+00 4.833190000e-01
2980000.0 1.760905000e+00 4.395660000e-01
3070000.0 1.720878000e+00 4.042920000e-01
3160000.0 1.684721000e+00 3.697750000e-01
3250000.0 1.648307000e+00 3.437250000e-01
3340000.0 1.614491000e+00 3.161530000e-01
3430000.0 1.581411000e+00 2.920900000e-01
3520000.0 1.551045000e+00 2.699750000e-01
3610000.0 1.523461000e+00 2.511190000e-01
3700000.0 1.498212000e+00 2.301270000e-01
3790000.0 1.472500000e+00 2.147710000e-01
3880000.0 1.452053000e+00 1.993880000e-01
3970000.0 1.430022000e+00 1.820610000e-01
4060000.0 1.412159000e+00 1.650290000e-01
4150000.0 1.393248000e+00 1.508390000e-01
4240000.0 1.376652000e+00 1.371200000e-01
4330000.0 1.361095000e+00 1.244320000e-01
4420000.0 1.348599000e+00 1.088410000e-01
4510000.0 1.336501000e+00 9.475400000e-02
4600000.0 1.323902000e+00 8.153400000e-02
4690000.0 1.313452000e+00 6.802600000e-02
4780000.0 1.304300000e+00 5.648000000e-02
4870000.0 1.297185000e+00 4.189900000e-02
4960000.0 1.290207000e+00 3.140600000e-02
5050000.0 1.274894000e+00 1.749200000e-02
5140000.0 1.270944000e+00 6.664000000e-03
5230000.0 1.265616000e+00 -6.282000000e-03
5320000.0 1.262146000e+00 -1.937400000e-02
5410000.0 1.257795000e+00 -3.118600000e-02
5500000.0 1.254037000e+00 -4.150500000e-02
5590000.0 1.251286000e+00 -5.338000000e-02
5680000.0 1.247603000e+00 -6.562400000e-02
5770000.0 1.244586000e+00 -7.659500000e-02
5860000.0 1.242305000e+00 -8.688100000e-02
5950000.0 1.238440000e+00 -9.685400000e-02
6040000.0 1.237448000e+00 -1.073790000e-01
6130000.0 1.234465000e+00 -1.160150000e-01
6220000.0 1.232691000e+00 -1.261110000e-01
6310000.0 1.229715000e+00 -1.339520000e-01
6400000.0 1.227147000e+00 -1.425670000e-01
6490000.0 1.225992000e+00 -1.526540000e-01
6580000.0 1.223627000e+00 -1.588670000e-01
6670000.0 1.223300000e+00 -1.658440000e-01
6760000.0 1.222473000e+00 -1.706180000e-01
6850000.0 1.220785000e+00 -1.765350000e-01
6940000.0 1.220065000e+00 -1.800810000e-01
7030000.0 1.220064000e+00 -1.842940000e-01
7120000.0 1.219108000e+00 -1.879120000e-01
7210000.0 1.219347000e+00 -1.905590000e-01
7300000.0 1.218757000e+00 -1.924020000e-01
7390000.0 1.218805000e+00 -1.941230000e-01
7480000.0 1.219981000e+00 -1.928450000e-01
7570000.0 -2.418010000e-01 -1.258544000e+00
7660000.0 -2.430230000e-01 -1.257668000e+00
7750000.0 -2.407550000e-01 -1.259887000e+00
7840000.0 -2.393830000e-01 -1.259512000e+00
7930000.0 -2.391790000e-01 -1.260927000e+00
8020000.0 -2.380790000e-01 -1.259835000e+00
8110000.0 -2.377720000e-01 -1.260291000e+00
8200000.0 -2.373750000e-01 -1.261340000e+00
8290000.0 -2.365010000e-01 -1.261675000e+00
8380000.0 -2.352700000e-01 -1.263446000e+00
8470000.0 -2.358610000e-01 -1.262639000e+00
8560000.0 -2.350470000e-01 -1.263748000e+00
8650000.0 -2.345960000e-01 -1.264552000e+00
8740000.0 -2.325510000e-01 -1.265790000e+00
8830000.0 -2.325310000e-01 -1.265644000e+00
8920000.0 -2.310790000e-01 -1.266856000e+00
9010000.0 -2.315400000e-01 -1.266017000e+00
9100000.0 -2.312070000e-01 -1.268851000e+00
9190000.0 -2.297860000e-01 -1.268927000e+00
9280000.0 -2.298530000e-01 -1.269010000e+00
9370000.0 -2.281010000e-01 -1.270538000e+00
9460000.0 -2.282500000e-01 -1.270596000e+00
9550000.0 -2.271070000e-01 -1.272197000e+00
9640000.0 -2.271900000e-01 -1.271668000e+00
9730000.0 -2.256110000e-01 -1.272747000e+00
9820000.0 -2.261870000e-01 -1.273692000e+00
9910000.0 -2.249770000e-01 -1.274699000e+00
10000000.0 -2.247280000e-01 -1.275703000e+00
10900000.0 -2.178240000e-01 -1.284479000e+00
11800000.0 -2.127220000e-01 -1.293186000e+00
12700000.0 -2.058260000e-01 -1.304566000e+00
13600000.0 -2.001770000e-01 -1.314659000e+00
14500000.0 -1.934280000e-01 -1.325264000e+00
15400000.0 -1.879250000e-01 -1.336562000e+00
16300000.0 -1.819420000e-01 -1.349214000e+00
17200000.0 -1.752200000e-01 -1.359580000e+00
18100000.0 -1.674530000e-01 -1.372893000e+00
19000000.0 -1.621230000e-01 -1.384383000e+00
19900000.0 -1.539950000e-01 -1.396725000e+00
20800000.0 -1.459310000e-01 -1.409356000e+00
21700000.0 -1.366480000e-01 -1.423383000e+00
22600000.0 -1.265520000e-01 -1.435580000e+00
23500000.0 -1.189690000e-01 -1.448243000e+00
24400000.0 -1.086540000e-01 -1.462331000e+00
25300000.0 -9.711000000e-02 -1.476337000e+00
26200000.0 -8.727300000e-02 -1.489324000e+00
27100000.0 -7.557500000e-02 -1.504999000e+00
28000000.0 -6.341600000e-02 -1.518603000e+00
28900000.0 -5.166100000e-02 -1.532847000e+00
29800000.0 -3.930700000e-02 -1.546237000e+00
30700000.0 -2.500000000e-02 -1.560729000e+00
31600000.0 -1.086500000e-02 -1.576499000e+00
32500000.0 2.149000000e-03 -1.591493000e+00
33400000.0 1.985700000e-02 -1.606581000e+00
34300000.0 3.527300000e-02 -1.618909000e+00
35200000.0 5.130500000e-02 -1.635024000e+00
36100000.0 6.802800000e-02 -1.650023000e+00
37000000.0 8.623400000e-02 -1.664059000e+00
37900000.0 1.040180000e-01 -1.678094000e+00
38800000.0 1.255400000e-01 -1.694004000e+00
39700000.0 1.453970000e-01 -1.708296000e+00
40600000.0 1.662560000e-01 -1.721000000e+00
41500000.0 1.883910000e-01 -1.736231000e+00
42400000.0 2.101220000e-01 -1.748760000e+00
43300000.0 2.356720000e-01 -1.763852000e+00
44200000.0 2.603610000e-01 -1.775838000e+00
45100000.0 2.866440000e-01 -1.787789000e+00
46000000.0 3.097060000e-01 -1.800122000e+00
46900000.0 3.371140000e-01 -1.812544000e+00
47800000.0 3.676640000e-01 -1.823414000e+00
48700000.0 3.969680000e-01 -1.833635000e+00
49600000.0 4.272560000e-01 -1.842982000e+00
50500000.0 4.565300000e-01 -1.854122000e+00
51400000.0 4.860200000e-01 -1.859214000e+00
52300000.0 5.221690000e-01 -1.866035000e+00
53200000.0 5.577480000e-01 -1.872154000e+00
54100000.0 5.898070000e-01 -1.877164000e+00
55000000.0 6.257490000e-01 -1.882393000e+00
55900000.0 6.606900000e-01 -1.884686000e+00
56800000.0 6.977040000e-01 -1.883793000e+00
57700000.0 7.349670000e-01 -1.885313000e+00
58600000.0 7.726490000e-01 -1.884021000e+00
59500000.0 8.111750000e-01 -1.881028000e+00
60400000.0 8.505480000e-01 -1.875889000e+00
61300000.0 8.904650000e-01 -1.869745000e+00
62200000.0 9.280960000e-01 -1.862941000e+00
63100000.0 9.686670000e-01 -1.853383000e+00
64000000.0 9.703530000e-01 -1.858240000e+00
64900000.0 1.045079000e+00 -1.827613000e+00
65800000.0 1.084211000e+00 -1.815045000e+00
66700000.0 1.121181000e+00 -1.795091000e+00
67600000.0 1.156767000e+00 -1.775385000e+00
68500000.0 1.198017000e+00 -1.757378000e+00
69400000.0 1.232201000e+00 -1.734652000e+00
70300000.0 1.269711000e+00 -1.708487000e+00
71200000.0 1.303844000e+00 -1.684880000e+00
72100000.0 1.337331000e+00 -1.654436000e+00
73000000.0 1.368250000e+00 -1.628101000e+00
73900000.0 1.398939000e+00 -1.598447000e+00
74800000.0 1.428675000e+00 -1.565770000e+00
75700000.0 1.454251000e+00 -1.534362000e+00
76600000.0 1.482584000e+00 -1.501031000e+00
77500000.0 1.503712000e+00 -1.466284000e+00
78400000.0 1.528215000e+00 -1.430922000e+00
79300000.0 1.546904000e+00 -1.394486000e+00
80200000.0 1.569442000e+00 -1.358651000e+00
81100000.0 1.584126000e+00 -1.322645000e+00
82000000.0 1.598775000e+00 -1.287254000e+00
82900000.0 1.612365000e+00 -1.246175000e+00
83800000.0 1.625354000e+00 -1.210355000e+00
84700000.0 1.635457000e+00 -1.174003000e+00
85600000.0 1.644608000e+00 -1.136559000e+00
86500000.0 1.650919000e+00 -1.099630000e+00
87400000.0 1.657087000e+00 -1.061664000e+00
88300000.0 1.660868000e+00 -1.026937000e+00
89200000.0 1.661591000e+00 -9.915600000e-01
90100000.0 1.665162000e+00 -9.563510000e-01
91000000.0 1.664490000e+00 -9.231960000e-01
91900000.0 1.662240000e+00 -8.871330000e-01
92800000.0 1.659172000e+00 -8.558840000e-01
93700000.0 1.655945000e+00 -8.214240000e-01
94600000.0 1.653294000e+00 -7.908710000e-01
95500000.0 1.647491000e+00 -7.616190000e-01
96400000.0 1.640407000e+00 -7.304140000e-01
97300000.0 1.635082000e+00 -7.016790000e-01
98200000.0 1.627238000e+00 -6.730920000e-01
99100000.0 1.618287000e+00 -6.470830000e-01
100000000.0 1.611394000e+00 -6.192860000e-01
109000000.0 1.502771000e+00 -3.993650000e-01
118000000.0 1.377393000e+00 -2.434660000e-01
127000000.0 1.256100000e+00 -1.368830000e-01
136000000.0 1.147344000e+00 -6.870900000e-02
145000000.0 1.049604000e+00 -1.936800000e-02
154000000.0 1.000322000e+00 -1.240000000e-04
163000000.0 1.002250000e+00 -4.310000000e-04
172000000.0 1.002595000e+00 -6.370000000e-04
181000000.0 1.003447000e+00 -1.106000000e-03
190000000.0 1.004745000e+00 -1.728000000e-03
199000000.0 1.005219000e+00 -1.396000000e-03
208000000.0 1.005717000e+00 -1.468000000e-03
217000000.0 1.005620000e+00 -1.166000000e-03
226000000.0 1.006071000e+00 -1.950000000e-03
235000000.0 1.006054000e+00 -1.223000000e-03
244000000.0 1.006517000e+00 -1.425000000e-03
253000000.0 1.005629000e+00 -1.380000000e-03
262000000.0 1.005682000e+00 -1.358000000e-03
271000000.0 1.003981000e+00 -1.534000000e-03
280000000.0 1.004092000e+00 -2.980000000e-04
289000000.0 1.002339000e+00 -3.090000000e-04
298000000.0 1.002023000e+00 6.780000000e-04
307000000.0 1.002396000e+00 -4.160000000e-04
316000000.0 1.003803000e+00 8.050000000e-04
325000000.0 1.004349000e+00 -3.610000000e-04
334000000.0 1.004467000e+00 1.101000000e-03
343000000.0 1.005890000e+00 -7.950000000e-04
352000000.0 1.005967000e+00 1.700000000e-05
361000000.0 1.007003000e+00 1.750000000e-04
370000000.0 1.012940000e+00 3.567300000e-02
379000000.0 1.013694000e+00 3.716300000e-02
388000000.0 1.013282000e+00 3.734900000e-02
397000000.0 1.011757000e+00 1.897900000e-02
406000000.0 1.004909000e+00 1.294000000e-03
415000000.0 1.004071000e+00 1.117000000e-03
424000000.0 1.003162000e+00 6.850000000e-04
433000000.0 1.002218000e+00 -2.860000000e-04
442000000.0 9.997990000e-01 9.800000000e-04
451000000.0 9.975060000e-01 -1.810000000e-04
460000000.0 1.001302000e+00 1.962000000e-03
469000000.0 1.002136000e+00 2.272000000e-03
478000000.0 1.003405000e+00 6.451000000e-03
487000000.0 1.005168000e+00 4.117000000e-03
496000000.0 1.006640000e+00 4.666000000e-03
505000000.0 1.008283000e+00 6.105000000e-03
514000000.0 1.007853000e+00 4.567000000e-03
523000000.0 1.008793000e+00 7.628000000e-03
532000000.0 1.009107000e+00 7.920000000e-03
541000000.0 1.008544000e+00 7.375000000e-03
550000000.0 1.008939000e+00 8.122000000e-03
559000000.0 1.009112000e+00 6.642000000e-03
568000000.0 1.006514000e+00 7.907000000e-03
577000000.0 1.008078000e+00 8.561000000e-03
586000000.0 1.005970000e+00 9.361000000e-03
595000000.0 1.003935000e+00 6.803000000e-03
604000000.0 1.003248000e+00 4.952000000e-03
613000000.0 1.005617000e+00 6.586000000e-03
622000000.0 1.007488000e+00 5.813000000e-03
631000000.0 1.013061000e+00 8.882000000e-03
640000000.0 1.011442000e+00 7.735000000e-03
649000000.0 1.014904000e+00 1.087300000e-02
658000000.0 1.015439000e+00 1.157000000e-02
667000000.0 1.018788000e+00 8.059000000e-03
676000000.0 1.015271000e+00 7.172000000e-03
685000000.0 1.018480000e+00 8.571000000e-03
694000000.0 1.014169000e+00 6.834000000e-03
703000000.0 1.010740000e+00 8.586000000e-03
712000000.0 1.003830000e+00 4.432000000e-03
721000000.0 1.014355000e+00 4.615000000e-03
730000000.0 1.008047000e+00 1.818000000e-03
739000000.0 1.004966000e+00 4.433000000e-03
748000000.0 1.000257000e+00 2.200000000e-03
757000000.0 1.002543000e+00 2.000000000e-05
766000000.0 1.006927000e+00 -3.194000000e-03
775000000.0 1.012687000e+00 -2.102000000e-03
784000000.0 1.013508000e+00 -3.440000000e-03
793000000.0 1.015648000e+00 -4.624000000e-03
802000000.0 1.017951000e+00 -6.671000000e-03
811000000.0 1.018572000e+00 -9.662000000e-03
820000000.0 1.016842000e+00 -1.072600000e-02
829000000.0 1.018325000e+00 -6.922000000e-03
838000000.0 1.014962000e+00 -4.273000000e-03
847000000.0 1.015740000e+00 -5.030000000e-03
856000000.0 1.016759000e+00 -5.324000000e-03
865000000.0 1.010246000e+00 -1.455000000e-03
874000000.0 1.010452000e+00 1.070000000e-03
883000000.0 1.008900000e+00 4.354000000e-03
892000000.0 1.004024000e+00 -8.000000000e-04
901000000.0 9.989870000e-01 -2.913000000e-03
910000000.0 1.002164000e+00 -3.377000000e-03
919000000.0 1.002617000e+00 -2.420000000e-03
928000000.0 1.004621000e+00 -4.820000000e-03
937000000.0 1.003264000e+00 -5.030000000e-03
946000000.0 1.003696000e+00 -7.884000000e-03
955000000.0 1.005999000e+00 -1.190200000e-02
964000000.0 1.004506000e+00 -7.073000000e-03
973000000.0 1.004387000e+00 -3.542000000e-03
982000000.0 1.005994000e+00 -9.908000000e-03
991000000.0 1.005176000e+00 -6.686000000e-03
1000000000.0 1.002641000e+00 -5.827000000e-03
1004500000.0 1.002885000e+00 -9.234000000e-03
1009000000.0 1.000974000e+00 -1.058300000e-02
1013500000.0 1.003578000e+00 -4.367000000e-03
1018000000.0 1.005621000e+00 -8.654000000e-03
1022500000.0 1.000503000e+00 -1.932000000e-03
1027000000.0 1.000956000e+00 -8.187000000e-03
1031500000.0 1.000716000e+00 -7.006000000e-03
1036000000.0 1.000812000e+00 -3.591000000e-03
1040500000.0 1.000913000e+00 -1.220000000e-03
1045000000.0 1.001628000e+00 1.866000000e-03
1049500000.0 1.001085000e+00 1.122000000e-03
1054000000.0 9.998130000e-01 -3.484000000e-03
1058500000.0 9.997600000e-01 -1.114000000e-03
1063000000.0 9.996260000e-01 -1.600000000e-04
1067500000.0 9.985310000e-01 -3.781000000e-03
1072000000.0 1.001449000e+00 -2.875000000e-03
1076500000.0 1.002699000e+00 9.260000000e-04
1081000000.0 1.003650000e+00 -7.380000000e-04
1085500000.0 1.004004000e+00 -2.677000000e-03
1090000000.0 1.001997000e+00 -7.735000000e-03
1094500000.0 9.993710000e-01 -6.015000000e-03
1099000000.0 1.002335000e+00 -7.378000000e-03
1103500000.0 1.003409000e+00 -9.160000000e-04
1108000000.0 1.005540000e+00 -3.923000000e-03
1112500000.0 1.006256000e+00 -2.734000000e-03
1117000000.0 9.992290000e-01 -2.739000000e-03
1121500000.0 1.004001000e+00 5.630000000e-04
1126000000.0 9.966930000e-01 -4.122800000e-02
1130500000.0 1.002580000e+00 -2.913000000e-02
1135000000.0 1.003389000e+00 -6.028000000e-03
1139500000.0 1.006682000e+00 -5.950000000e-04
1144000000.0 1.004188000e+00 -4.417000000e-03
1148500000.0 1.009104000e+00 1.875000000e-03
1153000000.0 1.009457000e+00 3.673000000e-03
1157500000.0 1.003871000e+00 3.600000000e-05
1162000000.0 1.004565000e+00 -1.104000000e-03
1166500000.0 1.005786000e+00 -6.194000000e-03
1171000000.0 1.006427000e+00 -7.431000000e-03
1175500000.0 1.003024000e+00 -5.299000000e-03
1180000000.0 1.002475000e+00 -2.658000000e-03
1184500000.0 1.007674000e+00 -1.494000000e-03
1189000000.0 1.000728000e+00 3.591000000e-03
1193500000.0 1.001746000e+00 -3.975000000e-03
1198000000.0 1.001050000e+00 -6.064000000e-03
1202500000.0 9.996300000e-01 -5.895000000e-03
1207000000.0 1.004385000e+00 1.070000000e-03
1211500000.0 1.004780000e+00 9.370000000e-04
1216000000.0 1.002615000e+00 -7.225000000e-03
1220500000.0 1.009166000e+00 -9.830000000e-04
1225000000.0 1.001322000e+00 -9.779000000e-03
1229500000.0 9.993160000e-01 -8.754000000e-03
1234000000.0 1.003701000e+00 1.000000000e-04
1238500000.0 1.003333000e+00 -4.510000000e-04
1243000000.0 1.005934000e+00 2.436000000e-03
1247500000.0 1.002494000e+00 -3.284000000e-03
1252000000.0 1.006739000e+00 -9.120000000e-03
1256500000.0 1.005507000e+00 -1.741000000e-03
1261000000.0 9.979720000e-01 -3.363000000e-03
1265500000.0 1.006036000e+00 -8.626000000e-03
1270000000.0 1.004787000e+00 -3.202000000e-03
1274500000.0 1.005355000e+00 1.055000000e-02
1279000000.0 1.005408000e+00 3.764000000e-03
1283500000.0 9.994210000e-01 -3.143000000e-03
1288000000.0 1.001075000e+00 -8.600000000e-04
1292500000.0 9.977090000e-01 -1.874000000e-03
1297000000.0 1.004900000e+00 6.825000000e-03
1301500000.0 1.000855000e+00 -8.572000000e-03
1306000000.0 1.001056000e+00 -4.790000000e-03
1310500000.0 1.004680000e+00 -5.936000000e-03
1315000000.0 1.007412000e+00 1.391000000e-03
1319500000.0 1.002730000e+00 4.455000000e-03
1324000000.0 1.008189000e+00 3.822000000e-03
1328500000.0 1.002443000e+00 3.229000000e-03
1333000000.0 1.000526000e+00 6.384000000e-03
1337500000.0 1.003599000e+00 1.337900000e-02
1342000000.0 1.002653000e+00 8.084000000e-03
1346500000.0 1.004463000e+00 2.846000000e-03
1351000000.0 1.001824000e+00 -4.210000000e-04
1355500000.0 1.002293000e+00 6.177000000e-03
1360000000.0 1.003489000e+00 8.474000000e-03
1364500000.0 1.007135000e+00 3.220000000e-03
1369000000.0 1.005376000e+00 6.048000000e-03
1373500000.0 1.003602000e+00 1.743800000e-02
1378000000.0 1.006076000e+00 1.199200000e-02
1382500000.0 9.999070000e-01 3.763000000e-03
1387000000.0 1.005288000e+00 9.825000000e-03
1391500000.0 1.002140000e+00 1.124100000e-02
1396000000.0 1.004711000e+00 1.551500000e-02
1400500000.0 1.005989000e+00 8.127000000e-03
1405000000.0 1.003061000e+00 8.742000000e-03
1409500000.0 1.004734000e+00 1.247400000e-02
1414000000.0 1.001642000e+00 2.066900000e-02
1418500000.0 1.009196000e+00 1.261900000e-02
1423000000.0 1.001199000e+00 2.268000000e-02
1427500000.0 1.007785000e+00 1.969000000e-02
1432000000.0 1.002776000e+00 1.199800000e-02
1436500000.0 1.002399000e+00 2.093100000e-02
1441000000.0 1.000302000e+00 1.215300000e-02
1445500000.0 1.003054000e+00 1.043200000e-02
1450000000.0 1.002551000e+00 1.071000000e-02
