! piloto_saltos / abierto_continuo / r05
# HZ S RI R 50
50000.0 1.007624000e+00 -6.953000000e-02
59500.0 1.002891000e+00 -5.651200000e-02
69000.0 1.004560000e+00 -4.399300000e-02
78500.0 1.002128000e+00 -2.992800000e-02
88000.0 1.001433000e+00 -1.716400000e-02
97500.0 1.000561000e+00 -3.857000000e-03
107000.0 1.001013000e+00 7.479000000e-03
116500.0 1.000154000e+00 2.015200000e-02
126000.0 9.997370000e-01 3.025200000e-02
135500.0 1.001032000e+00 4.476200000e-02
145000.0 1.001109000e+00 5.663300000e-02
154500.0 1.001409000e+00 6.852700000e-02
164000.0 1.001405000e+00 8.176500000e-02
173500.0 1.002606000e+00 9.264500000e-02
183000.0 1.002557000e+00 1.050410000e-01
192500.0 1.002951000e+00 1.166600000e-01
202000.0 1.003507000e+00 1.285120000e-01
211500.0 1.004843000e+00 1.401410000e-01
221000.0 1.004340000e+00 1.506000000e-01
230500.0 1.003968000e+00 1.623630000e-01
240000.0 1.005336000e+00 1.743070000e-01
249500.0 1.004813000e+00 1.854820000e-01
259000.0 1.024972000e+00 2.276460000e-01
268500.0 1.004967000e+00 2.079760000e-01
278000.0 1.005618000e+00 2.187340000e-01
287500.0 1.005709000e+00 2.310940000e-01
297000.0 1.006471000e+00 2.405300000e-01
306500.0 1.006377000e+00 2.522370000e-01
316000.0 1.006498000e+00 2.628080000e-01
325500.0 1.007043000e+00 2.739750000e-01
335000.0 1.007294000e+00 2.847920000e-01
344500.0 1.007409000e+00 2.947980000e-01
354000.0 1.006971000e+00 3.062060000e-01
363500.0 1.007838000e+00 3.170490000e-01
373000.0 1.007896000e+00 3.270190000e-01
382500.0 1.007617000e+00 3.377470000e-01
392000.0 1.008191000e+00 3.479530000e-01
401500.0 1.008582000e+00 3.581570000e-01
411000.0 1.008132000e+00 3.686000000e-01
420500.0 1.008388000e+00 3.784830000e-01
430000.0 1.009607000e+00 3.893720000e-01
439500.0 1.009714000e+00 3.999450000e-01
449000.0 1.010179000e+00 4.101180000e-01
458500.0 1.009934000e+00 4.210550000e-01
468000.0 1.010741000e+00 4.306130000e-01
477500.0 1.010313000e+00 4.410990000e-01
487000.0 1.011344000e+00 4.506500000e-01
496500.0 1.010666000e+00 4.612100000e-01
506000.0 1.012037000e+00 4.707230000e-01
515500.0 1.012558000e+00 4.816710000e-01
525000.0 1.012886000e+00 4.900570000e-01
534500.0 1.013012000e+00 4.998200000e-01
544000.0 1.013543000e+00 5.103080000e-01
553500.0 1.013538000e+00 5.214880000e-01
563000.0 1.014933000e+00 5.300180000e-01
572500.0 1.014809000e+00 5.398740000e-01
582000.0 1.015498000e+00 5.502560000e-01
591500.0 1.015565000e+00 5.600120000e-01
601000.0 1.016167000e+00 5.697220000e-01
610500.0 1.016623000e+00 5.789030000e-01
620000.0 1.018494000e+00 5.886410000e-01
629500.0 1.018109000e+00 5.983140000e-01
639000.0 1.018600000e+00 6.080130000e-01
648500.0 1.018831000e+00 6.171680000e-01
658000.0 1.020408000e+00 6.270790000e-01
667500.0 1.020395000e+00 6.363670000e-01
677000.0 1.020854000e+00 6.459150000e-01
686500.0 1.022356000e+00 6.559790000e-01
696000.0 1.022181000e+00 6.643630000e-01
705500.0 1.023292000e+00 6.743580000e-01
715000.0 1.025400000e+00 6.841220000e-01
724500.0 1.026566000e+00 6.932470000e-01
734000.0 1.027388000e+00 7.025990000e-01
743500.0 1.027721000e+00 7.127540000e-01
753000.0 1.029936000e+00 7.203590000e-01
762500.0 1.030337000e+00 7.319780000e-01
772000.0 1.031006000e+00 7.391450000e-01
781500.0 1.031930000e+00 7.489850000e-01
791000.0 1.034557000e+00 7.585880000e-01
800500.0 1.036243000e+00 7.675470000e-01
810000.0 1.037444000e+00 7.770220000e-01
819500.0 1.037744000e+00 7.855440000e-01
829000.0 1.040730000e+00 7.944820000e-01
838500.0 1.041914000e+00 8.031170000e-01
848000.0 1.043973000e+00 8.127680000e-01
857500.0 1.044009000e+00 8.227480000e-01
867000.0 1.047837000e+00 8.311190000e-01
876500.0 1.048387000e+00 8.405220000e-01
886000.0 1.050014000e+00 8.494290000e-01
895500.0 1.053017000e+00 8.589040000e-01
905000.0 1.054285000e+00 8.678850000e-01
914500.0 1.057658000e+00 8.776720000e-01
924000.0 1.058812000e+00 8.861010000e-01
933500.0 1.060872000e+00 8.934300000e-01
943000.0 1.063474000e+00 9.034110000e-01
952500.0 1.065134000e+00 9.121640000e-01
962000.0 1.069434000e+00 9.211320000e-01
971500.0 1.069085000e+00 9.291580000e-01
981000.0 1.074215000e+00 9.381770000e-01
990500.0 1.076974000e+00 9.470050000e-01
1000000.0 1.079422000e+00 9.565380000e-01
1090000.0 1.106257000e+00 1.034863000e+00
1180000.0 1.146079000e+00 1.111877000e+00
1270000.0 1.194659000e+00 1.181592000e+00
1360000.0 1.254976000e+00 1.243865000e+00
1450000.0 1.323560000e+00 1.292760000e+00
1540000.0 1.402104000e+00 1.330694000e+00
1630000.0 1.489518000e+00 1.352255000e+00
1720000.0 1.578299000e+00 1.355475000e+00
1810000.0 1.668309000e+00 1.338168000e+00
1900000.0 1.753834000e+00 1.298661000e+00
1990000.0 1.829763000e+00 1.239877000e+00
2080000.0 1.888930000e+00 1.166950000e+00
2170000.0 1.934987000e+00 1.080355000e+00
2260000.0 1.955277000e+00 9.914530000e-01
2350000.0 1.966055000e+00 9.030090000e-01
2440000.0 1.959465000e+00 8.154890000e-01
2530000.0 1.940533000e+00 7.368110000e-01
2620000.0 1.914797000e+00 6.642640000e-01
2710000.0 1.879592000e+00 5.985390000e-01
2800000.0 1.842683000e+00 5.420770000e-01
2890000.0 1.805044000e+00 4.911790000e-01
2980000.0 1.763611000e+00 5.109630000e-01
3070000.0 1.727317000e+00 4.092770000e-01
3160000.0 1.689739000e+00 3.770910000e-01
3250000.0 1.653442000e+00 3.458200000e-01
3340000.0 1.620407000e+00 3.184790000e-01
3430000.0 1.587850000e+00 2.951750000e-01
3520000.0 1.558585000e+00 2.718770000e-01
3610000.0 1.527816000e+00 2.519750000e-01
3700000.0 1.502993000e+00 2.311150000e-01
3790000.0 1.478191000e+00 2.137130000e-01
3880000.0 1.455297000e+00 1.976830000e-01
3970000.0 1.434879000e+00 1.823770000e-01
4060000.0 1.414946000e+00 1.656670000e-01
4150000.0 1.397247000e+00 1.510350000e-01
4240000.0 1.379407000e+00 1.373380000e-01
4330000.0 1.364282000e+00 1.226000000e-01
4420000.0 1.350562000e+00 1.079100000e-01
4510000.0 1.340048000e+00 9.469600000e-02
4600000.0 1.326394000e+00 8.140200000e-02
4690000.0 1.316401000e+00 6.839100000e-02
4780000.0 1.305851000e+00 5.471800000e-02
4870000.0 1.298768000e+00 4.223400000e-02
4960000.0 1.291548000e+00 2.997300000e-02
5050000.0 1.276731000e+00 1.745100000e-02
5140000.0 1.271750000e+00 4.698000000e-03
5230000.0 1.266777000e+00 -7.662000000e-03
5320000.0 1.263445000e+00 -1.881100000e-02
5410000.0 1.259198000e+00 -3.085300000e-02
5500000.0 1.255211000e+00 -4.188200000e-02
5590000.0 1.251299000e+00 -5.405900000e-02
5680000.0 1.247902000e+00 -6.606800000e-02
5770000.0 1.244929000e+00 -7.669000000e-02
5860000.0 1.242777000e+00 -8.719000000e-02
5950000.0 1.240855000e+00 -9.790800000e-02
6040000.0 1.236790000e+00 -1.077830000e-01
6130000.0 1.234291000e+00 -1.171010000e-01
6220000.0 1.231917000e+00 -1.278170000e-01
6310000.0 1.230244000e+00 -1.352420000e-01
6400000.0 1.228170000e+00 -1.437750000e-01
6490000.0 1.226248000e+00 -1.521450000e-01
6580000.0 1.225725000e+00 -1.582430000e-01
6670000.0 1.223885000e+00 -1.656670000e-01
6760000.0 1.222890000e+00 -1.713530000e-01
6850000.0 1.222169000e+00 -1.775980000e-01
6940000.0 1.220637000e+00 -1.809890000e-01
7030000.0 1.220206000e+00 -1.860510000e-01
7120000.0 1.219169000e+00 -1.893410000e-01
7210000.0 1.219569000e+00 -1.910080000e-01
7300000.0 1.218905000e+00 -1.930480000e-01
7390000.0 1.219718000e+00 -1.944300000e-01
7480000.0 1.220604000e+00 -1.931100000e-01
7570000.0 -2.435830000e-01 -1.257911000e+00
7660000.0 -2.423010000e-01 -1.259187000e+00
7750000.0 -2.412680000e-01 -1.259955000e+00
7840000.0 -2.400900000e-01 -1.260874000e+00
7930000.0 -2.398190000e-01 -1.261210000e+00
8020000.0 -2.396660000e-01 -1.261318000e+00
8110000.0 -2.377000000e-01 -1.261924000e+00
8200000.0 -2.385710000e-01 -1.262081000e+00
8290000.0 -2.364350000e-01 -1.262112000e+00
8380000.0 -2.369560000e-01 -1.263670000e+00
8470000.0 -2.358370000e-01 -1.264813000e+00
8560000.0 -2.342460000e-01 -1.264375000e+00
8650000.0 -2.341050000e-01 -1.266272000e+00
8740000.0 -2.340370000e-01 -1.265550000e+00
8830000.0 -2.331630000e-01 -1.265324000e+00
8920000.0 -2.314230000e-01 -1.267412000e+00
9010000.0 -2.314210000e-01 -1.266779000e+00
9100000.0 -2.300490000e-01 -1.268738000e+00
9190000.0 -2.305260000e-01 -1.269179000e+00
9280000.0 -2.293970000e-01 -1.269490000e+00
9370000.0 -2.289430000e-01 -1.269549000e+00
9460000.0 -2.277090000e-01 -1.271135000e+00
9550000.0 -2.278070000e-01 -1.271577000e+00
9640000.0 -2.272900000e-01 -1.273949000e+00
9730000.0 -2.257680000e-01 -1.272773000e+00
9820000.0 -2.257430000e-01 -1.275089000e+00
9910000.0 -2.244370000e-01 -1.275352000e+00
10000000.0 -2.248460000e-01 -1.275855000e+00
10900000.0 -2.191130000e-01 -1.283808000e+00
11800000.0 -2.129410000e-01 -1.294789000e+00
12700000.0 -2.068720000e-01 -1.304063000e+00
13600000.0 -2.006570000e-01 -1.315184000e+00
14500000.0 -1.955790000e-01 -1.326135000e+00
15400000.0 -1.886240000e-01 -1.336649000e+00
16300000.0 -1.818710000e-01 -1.348285000e+00
17200000.0 -1.753630000e-01 -1.361352000e+00
18100000.0 -1.682540000e-01 -1.372376000e+00
19000000.0 -1.598570000e-01 -1.384917000e+00
19900000.0 -1.533250000e-01 -1.398070000e+00
20800000.0 -1.454250000e-01 -1.409733000e+00
21700000.0 -1.366820000e-01 -1.423904000e+00
22600000.0 -1.269360000e-01 -1.435349000e+00
23500000.0 -1.180390000e-01 -1.449468000e+00
24400000.0 -1.080790000e-01 -1.463766000e+00
25300000.0 -9.814100000e-02 -1.477124000e+00
26200000.0 -8.795200000e-02 -1.490881000e+00
27100000.0 -7.613700000e-02 -1.504910000e+00
28000000.0 -6.331000000e-02 -1.519505000e+00
28900000.0 6.600700000e-02 -1.609041000e+00
29800000.0 -3.882200000e-02 -1.548780000e+00
30700000.0 -2.400400000e-02 -1.562881000e+00
31600000.0 -1.137600000e-02 -1.576703000e+00
32500000.0 3.117000000e-03 -1.591556000e+00
33400000.0 2.028700000e-02 -1.606263000e+00
34300000.0 3.573500000e-02 -1.620538000e+00
35200000.0 5.156900000e-02 -1.635589000e+00
36100000.0 6.770800000e-02 -1.649240000e+00
37000000.0 8.768100000e-02 -1.665051000e+00
37900000.0 1.053640000e-01 -1.680268000e+00
38800000.0 1.255340000e-01 -1.693022000e+00
39700000.0 1.455980000e-01 -1.707272000e+00
40600000.0 1.646660000e-01 -1.723318000e+00
41500000.0 1.882560000e-01 -1.735960000e+00
42400000.0 2.122000000e-01 -1.749465000e+00
43300000.0 2.349430000e-01 -1.762608000e+00
44200000.0 2.602640000e-01 -1.776224000e+00
45100000.0 2.854120000e-01 -1.787050000e+00
46000000.0 3.110190000e-01 -1.800375000e+00
46900000.0 3.395030000e-01 -1.812520000e+00
47800000.0 3.668740000e-01 -1.823316000e+00
48700000.0 3.946090000e-01 -1.834708000e+00
49600000.0 4.266340000e-01 -1.843965000e+00
50500000.0 4.576970000e-01 -1.852388000e+00
51400000.0 4.890320000e-01 -1.861538000e+00
52300000.0 5.212990000e-01 -1.864640000e+00
53200000.0 5.543540000e-01 -1.872270000e+00
54100000.0 5.909610000e-01 -1.877970000e+00
55000000.0 6.254210000e-01 -1.882148000e+00
55900000.0 6.596730000e-01 -1.883657000e+00
56800000.0 6.976760000e-01 -1.885958000e+00
57700000.0 7.350670000e-01 -1.884573000e+00
58600000.0 7.719890000e-01 -1.884729000e+00
59500000.0 8.093850000e-01 -1.880037000e+00
60400000.0 8.499960000e-01 -1.875432000e+00
61300000.0 8.878330000e-01 -1.869580000e+00
62200000.0 9.289580000e-01 -1.862152000e+00
63100000.0 9.660510000e-01 -1.852535000e+00
64000000.0 1.004172000e+00 -1.840604000e+00
64900000.0 1.046155000e+00 -1.826590000e+00
65800000.0 1.082735000e+00 -1.810920000e+00
66700000.0 1.124277000e+00 -1.793777000e+00
67600000.0 1.157752000e+00 -1.776381000e+00
68500000.0 1.198102000e+00 -1.756583000e+00
69400000.0 1.233277000e+00 -1.734529000e+00
70300000.0 1.269084000e+00 -1.712552000e+00
71200000.0 1.303736000e+00 -1.684189000e+00
72100000.0 1.336397000e+00 -1.656826000e+00
73000000.0 1.367943000e+00 -1.627696000e+00
73900000.0 1.399322000e+00 -1.597689000e+00
74800000.0 1.429296000e+00 -1.568655000e+00
75700000.0 1.457500000e+00 -1.537007000e+00
76600000.0 1.481787000e+00 -1.501499000e+00
77500000.0 1.503947000e+00 -1.465770000e+00
78400000.0 1.526437000e+00 -1.431671000e+00
79300000.0 1.549063000e+00 -1.397036000e+00
80200000.0 1.564966000e+00 -1.357782000e+00
81100000.0 1.586038000e+00 -1.321704000e+00
82000000.0 1.600087000e+00 -1.285307000e+00
82900000.0 1.613344000e+00 -1.247404000e+00
83800000.0 1.626217000e+00 -1.211583000e+00
84700000.0 1.634907000e+00 -1.171382000e+00
85600000.0 1.643634000e+00 -1.134715000e+00
86500000.0 1.650467000e+00 -1.098472000e+00
87400000.0 1.657373000e+00 -1.063999000e+00
88300000.0 1.660449000e+00 -1.026458000e+00
89200000.0 1.663714000e+00 -9.911150000e-01
90100000.0 1.662927000e+00 -9.562920000e-01
91000000.0 1.662949000e+00 -9.209070000e-01
91900000.0 1.662411000e+00 -8.876660000e-01
92800000.0 1.660728000e+00 -8.563150000e-01
93700000.0 1.656922000e+00 -8.230020000e-01
94600000.0 1.652295000e+00 -7.903260000e-01
95500000.0 1.649119000e+00 -7.598730000e-01
96400000.0 1.640303000e+00 -7.323410000e-01
97300000.0 1.635378000e+00 -7.025640000e-01
98200000.0 1.626398000e+00 -6.740590000e-01
99100000.0 1.619562000e+00 -6.479860000e-01
100000000.0 1.609946000e+00 -6.200490000e-01
109000000.0 1.501411000e+00 -3.992630000e-01
118000000.0 1.377526000e+00 -2.441440000e-01
127000000.0 1.257018000e+00 -1.368480000e-01
136000000.0 1.147931000e+00 -6.799100000e-02
145000000.0 1.049463000e+00 -1.964900000e-02
154000000.0 1.000391000e+00 -2.000000000e-04
163000000.0 1.001719000e+00 -6.680000000e-04
172000000.0 1.002591000e+00 -6.240000000e-04
181000000.0 1.003726000e+00 -1.092000000e-03
190000000.0 1.004906000e+00 -1.797000000e-03
199000000.0 1.004991000e+00 -1.628000000e-03
208000000.0 1.005756000e+00 -1.386000000e-03
217000000.0 1.005446000e+00 -1.261000000e-03
226000000.0 1.006996000e+00 -8.720000000e-04
235000000.0 1.006007000e+00 -9.260000000e-04
244000000.0 1.006303000e+00 -1.280000000e-03
253000000.0 1.005024000e+00 -1.541000000e-03
262000000.0 1.004583000e+00 -8.850000000e-04
271000000.0 1.004650000e+00 -8.880000000e-04
280000000.0 1.003507000e+00 -2.166000000e-03
289000000.0 1.003394000e+00 -8.360000000e-04
298000000.0 1.001425000e+00 2.350000000e-04
307000000.0 1.001773000e+00 -5.070000000e-04
316000000.0 1.002834000e+00 -4.400000000e-04
325000000.0 1.005307000e+00 -1.006000000e-03
334000000.0 1.004613000e+00 6.500000000e-05
343000000.0 1.005722000e+00 9.960000000e-04
352000000.0 1.113798000e+00 8.695700000e-02
361000000.0 1.006793000e+00 -3.560000000e-04
370000000.0 1.006261000e+00 -2.380000000e-04
379000000.0 9.972960000e-01 -3.602800000e-02
388000000.0 1.012690000e+00 3.680700000e-02
397000000.0 1.003027000e+00 -1.822000000e-02
406000000.0 1.004495000e+00 1.953000000e-03
415000000.0 1.004565000e+00 1.966400000e-02
424000000.0 1.004243000e+00 5.070000000e-04
433000000.0 1.002568000e+00 1.367000000e-03
442000000.0 1.001760000e+00 -1.961000000e-03
451000000.0 1.000459000e+00 6.540000000e-04
460000000.0 1.000882000e+00 1.194000000e-03
469000000.0 1.002316000e+00 1.776000000e-03
478000000.0 1.004192000e+00 3.022000000e-03
487000000.0 1.005794000e+00 4.076000000e-03
496000000.0 1.006486000e+00 6.478000000e-03
505000000.0 1.007290000e+00 5.800000000e-03
514000000.0 1.008139000e+00 4.159000000e-03
523000000.0 1.009643000e+00 6.108000000e-03
532000000.0 1.008786000e+00 7.286000000e-03
541000000.0 1.008697000e+00 7.186000000e-03
550000000.0 1.008344000e+00 1.087600000e-02
559000000.0 1.007519000e+00 7.561000000e-03
568000000.0 1.006187000e+00 3.179000000e-03
577000000.0 1.005234000e+00 6.409000000e-03
586000000.0 1.005371000e+00 6.101000000e-03
595000000.0 1.001712000e+00 5.125000000e-03
604000000.0 1.002814000e+00 4.352000000e-03
613000000.0 1.003851000e+00 6.055000000e-03
622000000.0 1.010624000e+00 5.272000000e-03
631000000.0 1.009977000e+00 9.600000000e-03
640000000.0 1.011801000e+00 7.781000000e-03
649000000.0 1.013314000e+00 8.012000000e-03
658000000.0 1.019334000e+00 8.764000000e-03
667000000.0 1.017784000e+00 6.679000000e-03
676000000.0 1.017864000e+00 7.439000000e-03
685000000.0 1.017431000e+00 1.105200000e-02
694000000.0 1.016241000e+00 3.882000000e-03
703000000.0 1.015267000e+00 2.728000000e-03
712000000.0 1.010302000e+00 1.777000000e-03
721000000.0 1.013291000e+00 4.597000000e-03
730000000.0 1.008034000e+00 2.467000000e-03
739000000.0 1.006165000e+00 2.183000000e-03
748000000.0 1.000573000e+00 3.400000000e-04
757000000.0 1.002611000e+00 -2.430000000e-03
766000000.0 1.006411000e+00 -4.461000000e-03
775000000.0 1.009982000e+00 -3.242000000e-03
784000000.0 1.012631000e+00 -5.391000000e-03
793000000.0 1.014815000e+00 -6.427000000e-03
802000000.0 1.016323000e+00 -9.966000000e-03
811000000.0 1.018882000e+00 -5.778000000e-03
820000000.0 1.017323000e+00 -4.800000000e-03
829000000.0 1.015114000e+00 -8.802000000e-03
838000000.0 1.017362000e+00 -5.644000000e-03
847000000.0 1.017246000e+00 -9.043000000e-03
856000000.0 1.015066000e+00 1.785800000e-02
865000000.0 1.014663000e+00 -6.107000000e-03
874000000.0 1.011295000e+00 -2.535600000e-02
883000000.0 1.008045000e+00 -3.232000000e-03
892000000.0 1.005893000e+00 1.778900000e-02
901000000.0 9.983660000e-01 2.010000000e-04
910000000.0 1.000382000e+00 -1.683800000e-02
919000000.0 1.003692000e+00 -3.767000000e-03
928000000.0 1.003084000e+00 1.315300000e-02
937000000.0 1.005739000e+00 -5.762000000e-03
946000000.0 1.005688000e+00 -7.245000000e-03
955000000.0 1.005369000e+00 -6.949000000e-03
964000000.0 1.005748000e+00 -7.687000000e-03
973000000.0 1.004869000e+00 -1.378300000e-02
982000000.0 1.005031000e+00 -6.472000000e-03
991000000.0 1.004585000e+00 -6.026000000e-03
1000000000.0 1.004476000e+00 -6.734000000e-03
1004500000.0 1.005116000e+00 -9.502000000e-03
1009000000.0 1.003588000e+00 -5.670000000e-03
1013500000.0 1.004744000e+00 -4.837000000e-03
1018000000.0 1.004015000e+00 2.950000000e-04
1022500000.0 1.000012000e+00 -1.672000000e-03
1027000000.0 1.004251000e+00 -2.750000000e-03
1031500000.0 1.002068000e+00 -4.060000000e-03
1036000000.0 1.001041000e+00 -7.027000000e-03
1040500000.0 9.996260000e-01 -2.880000000e-03
1045000000.0 9.975490000e-01 -3.702000000e-03
1049500000.0 1.000282000e+00 1.602000000e-03
1054000000.0 9.979010000e-01 4.590000000e-04
1058500000.0 9.977110000e-01 -3.562000000e-03
1063000000.0 9.984200000e-01 -1.790000000e-04
1067500000.0 1.000454000e+00 3.950000000e-04
1072000000.0 1.000575000e+00 -4.003000000e-03
1076500000.0 9.980940000e-01 -4.160000000e-04
1081000000.0 1.001537000e+00 2.517000000e-03
1085500000.0 9.996650000e-01 1.731000000e-03
1090000000.0 1.001298000e+00 1.840000000e-04
1094500000.0 1.000116000e+00 -2.000000000e-03
1099000000.0 1.005222000e+00 -4.349000000e-03
1103500000.0 1.001516000e+00 -1.153000000e-03
1108000000.0 1.004132000e+00 -1.823000000e-03
1112500000.0 1.007417000e+00 -8.010000000e-04
1117000000.0 1.002730000e+00 -5.519000000e-03
1121500000.0 1.000538000e+00 -7.720000000e-04
1126000000.0 1.004722000e+00 -4.184600000e-02
1130500000.0 1.029924000e+00 1.112440000e-01
1135000000.0 1.008150000e+00 3.310600000e-02
1139500000.0 1.003644000e+00 -9.997000000e-03
1144000000.0 1.002112000e+00 -2.919000000e-03
1148500000.0 9.972810000e-01 -1.685000000e-03
1153000000.0 9.991400000e-01 -5.451000000e-03
1157500000.0 1.007084000e+00 6.860000000e-04
1162000000.0 1.006941000e+00 1.275400000e-02
1166500000.0 1.002876000e+00 -3.884000000e-03
1171000000.0 1.002545000e+00 -5.921000000e-03
1175500000.0 1.004510000e+00 -4.059000000e-03
1180000000.0 1.001742000e+00 -7.072000000e-03
1184500000.0 1.006264000e+00 -1.779000000e-03
1189000000.0 1.003041000e+00 -7.467000000e-03
1193500000.0 1.006702000e+00 -3.774000000e-03
1198000000.0 1.003030000e+00 -6.476000000e-03
1202500000.0 1.007932000e+00 -7.679000000e-03
1207000000.0 1.008159000e+00 -4.354000000e-03
1211500000.0 1.002413000e+00 -5.900000000e-03
1216000000.0 1.006223000e+00 3.000000000e-06
1220500000.0 1.004963000e+00 -1.156000000e-03
1225000000.0 1.008728000e+00 1.373000000e-03
1229500000.0 9.990960000e-01 -4.774000000e-03
1234000000.0 1.005911000e+00 -8.534000000e-03
1238500000.0 1.008208000e+00 -2.462000000e-03
1243000000.0 9.999840000e-01 -1.098000000e-03
1247500000.0 1.003653000e+00 -5.655000000e-03
1252000000.0 1.006736000e+00 -6.209000000e-03
1256500000.0 1.005322000e+00 -1.874000000e-03
1261000000.0 1.002655000e+00 -7.523000000e-03
1265500000.0 1.005684000e+00 -2.458000000e-03
1270000000.0 1.004058000e+00 -4.063000000e-03
1274500000.0 1.001356000e+00 3.550000000e-03
1279000000.0 1.007344000e+00 -5.273000000e-03
1283500000.0 1.002523000e+00 5.267000000e-03
1288000000.0 1.008690000e+00 8.144000000e-03
1292500000.0 1.007744000e+00 6.615000000e-03
1297000000.0 1.006675000e+00 1.191800000e-02
1301500000.0 1.003587000e+00 -2.292000000e-03
1306000000.0 9.746180000e-01 -5.335400000e-02
1310500000.0 1.002548000e+00 3.510000000e-04
1315000000.0 1.001555000e+00 4.073000000e-03
1319500000.0 1.004149000e+00 5.967000000e-03
1324000000.0 1.003525000e+00 5.049000000e-03
1328500000.0 1.007338000e+00 3.150000000e-03
1333000000.0 1.002191000e+00 -3.030000000e-04
1337500000.0 1.007825000e+00 8.699000000e-03
1342000000.0 1.003509000e+00 1.061200000e-02
1346500000.0 1.005254000e+00 2.512000000e-03
1351000000.0 1.003937000e+00 9.224000000e-03
1355500000.0 1.002146000e+00 1.047100000e-02
1360000000.0 1.000661000e+00 2.805000000e-03
1364500000.0 1.003628000e+00 -4.813000000e-03
1369000000.0 9.972180000e-01 1.214200000e-02
1373500000.0 1.004356000e+00 3.170000000e-03
1378000000.0 1.007066000e+00 9.016000000e-03
1382500000.0 1.002307000e+00 1.685000000e-03
1387000000.0 1.006170000e+00 1.227800000e-02
1391500000.0 1.002822000e+00 1.582300000e-02
1396000000.0 1.002200000e+00 1.098100000e-02
1400500000.0 1.006537000e+00 1.095200000e-02
1405000000.0 1.001200000e+00 1.598800000e-02
1409500000.0 1.000533000e+00 1.206800000e-02
1414000000.0 9.997790000e-01 1.195700000e-02
1418500000.0 1.000565000e+00 1.655900000e-02
1423000000.0 1.005793000e+00 -1.405000000e-03
1427500000.0 1.004448000e+00 2.279700000e-02
1432000000.0 1.003250000e+00 9.657000000e-03
1436500000.0 1.000705000e+00 1.358800000e-02
1441000000.0 1.002129000e+00 1.289500000e-02
1445500000.0 1.004619000e+00 1.230900000e-02
1450000000.0 1.002189000e+00 1.201200000e-02
