! piloto_saltos / abierto_pausado / r07
# HZ S RI R 50
50000.0 1.007076000e+00 -6.980800000e-02
59500.0 1.002194000e+00 -5.659600000e-02
69000.0 1.003043000e+00 -4.101000000e-02
78500.0 1.002518000e+00 -2.947900000e-02
88000.0 1.001664000e+00 -1.617100000e-02
97500.0 9.997940000e-01 -4.651000000e-03
107000.0 1.001450000e+00 8.083000000e-03
116500.0 1.000260000e+00 2.056100000e-02
126000.0 9.978820000e-01 3.395800000e-02
135500.0 1.000314000e+00 4.503500000e-02
145000.0 1.001527000e+00 5.701700000e-02
154500.0 1.001631000e+00 6.889400000e-02
164000.0 1.001462000e+00 8.116600000e-02
173500.0 1.002419000e+00 9.285500000e-02
183000.0 1.001740000e+00 1.050390000e-01
192500.0 1.003602000e+00 1.158390000e-01
202000.0 1.002495000e+00 1.280250000e-01
211500.0 1.004108000e+00 1.402220000e-01
221000.0 1.004412000e+00 1.512310000e-01
230500.0 1.003872000e+00 1.633740000e-01
240000.0 1.000994000e+00 2.109570000e-01
249500.0 1.004883000e+00 1.851990000e-01
259000.0 1.005760000e+00 1.973330000e-01
268500.0 1.005765000e+00 2.073660000e-01
278000.0 1.005711000e+00 2.190840000e-01
287500.0 1.005898000e+00 2.300690000e-01
297000.0 1.006063000e+00 2.412340000e-01
306500.0 1.005661000e+00 2.516830000e-01
316000.0 1.005835000e+00 2.629920000e-01
325500.0 1.007288000e+00 2.737520000e-01
335000.0 1.007297000e+00 2.842700000e-01
344500.0 1.007285000e+00 2.949600000e-01
354000.0 1.007385000e+00 3.051930000e-01
363500.0 1.007203000e+00 3.162990000e-01
373000.0 1.008117000e+00 3.270870000e-01
382500.0 1.007762000e+00 3.371740000e-01
392000.0 1.008758000e+00 3.481830000e-01
401500.0 1.008153000e+00 3.584810000e-01
411000.0 1.009172000e+00 3.691370000e-01
420500.0 1.008748000e+00 3.798080000e-01
430000.0 1.009459000e+00 3.899540000e-01
439500.0 1.009634000e+00 4.000310000e-01
449000.0 1.009882000e+00 4.100000000e-01
458500.0 1.010188000e+00 4.196250000e-01
468000.0 1.010606000e+00 4.303490000e-01
477500.0 1.010976000e+00 4.404130000e-01
487000.0 1.011154000e+00 4.495830000e-01
496500.0 1.011737000e+00 4.603110000e-01
506000.0 1.011936000e+00 4.703200000e-01
515500.0 1.012997000e+00 4.811680000e-01
525000.0 1.012958000e+00 4.898000000e-01
534500.0 1.013347000e+00 4.998770000e-01
544000.0 1.012996000e+00 5.107410000e-01
553500.0 1.014203000e+00 5.202700000e-01
563000.0 1.014741000e+00 5.298890000e-01
572500.0 1.014967000e+00 5.399440000e-01
582000.0 1.015799000e+00 5.496020000e-01
591500.0 1.015934000e+00 5.590450000e-01
601000.0 1.017432000e+00 5.697470000e-01
610500.0 1.016838000e+00 5.790520000e-01
620000.0 1.017282000e+00 5.880240000e-01
629500.0 1.017274000e+00 5.981210000e-01
639000.0 1.017584000e+00 6.075630000e-01
648500.0 1.018790000e+00 6.166890000e-01
658000.0 1.019257000e+00 6.264930000e-01
667500.0 1.021306000e+00 6.363330000e-01
677000.0 1.021734000e+00 6.458350000e-01
686500.0 1.023333000e+00 6.553130000e-01
696000.0 1.022615000e+00 6.652070000e-01
705500.0 1.023787000e+00 6.743360000e-01
715000.0 1.024781000e+00 6.834200000e-01
724500.0 1.025749000e+00 6.937020000e-01
734000.0 1.027035000e+00 7.023160000e-01
743500.0 1.028251000e+00 7.119300000e-01
753000.0 1.029123000e+00 7.227420000e-01
762500.0 1.030295000e+00 7.294360000e-01
772000.0 1.031524000e+00 7.408430000e-01
781500.0 1.032071000e+00 7.480710000e-01
791000.0 1.034415000e+00 7.591870000e-01
800500.0 1.036020000e+00 7.677350000e-01
810000.0 1.036783000e+00 7.766530000e-01
819500.0 1.038272000e+00 7.854580000e-01
829000.0 1.039013000e+00 7.937150000e-01
838500.0 1.041761000e+00 8.043750000e-01
848000.0 1.042805000e+00 8.140420000e-01
857500.0 1.045934000e+00 8.240540000e-01
867000.0 1.046908000e+00 8.310740000e-01
876500.0 1.048798000e+00 8.407460000e-01
886000.0 1.050447000e+00 8.504070000e-01
895500.0 1.051993000e+00 8.592810000e-01
905000.0 1.055125000e+00 8.677880000e-01
914500.0 1.056602000e+00 8.765050000e-01
924000.0 1.058869000e+00 8.859690000e-01
933500.0 1.060938000e+00 8.946590000e-01
943000.0 1.063582000e+00 9.040670000e-01
952500.0 1.065826000e+00 9.106370000e-01
962000.0 1.068910000e+00 9.189680000e-01
971500.0 1.070202000e+00 9.303010000e-01
981000.0 1.073102000e+00 9.383080000e-01
990500.0 1.075165000e+00 9.470220000e-01
1000000.0 1.079031000e+00 9.559910000e-01
1090000.0 1.105299000e+00 1.034597000e+00
1180000.0 1.145375000e+00 1.111495000e+00
1270000.0 1.195250000e+00 1.180417000e+00
1360000.0 1.255457000e+00 1.245082000e+00
1450000.0 1.323728000e+00 1.296922000e+00
1540000.0 1.402344000e+00 1.333287000e+00
1630000.0 1.489047000e+00 1.353628000e+00
1720000.0 1.579618000e+00 1.354731000e+00
1810000.0 1.669565000e+00 1.337015000e+00
1900000.0 1.755489000e+00 1.297011000e+00
1990000.0 1.828623000e+00 1.237979000e+00
2080000.0 1.888765000e+00 1.167507000e+00
2170000.0 1.931399000e+00 1.081574000e+00
2260000.0 1.958971000e+00 9.920170000e-01
2350000.0 1.969769000e+00 9.012510000e-01
2440000.0 1.959230000e+00 8.161100000e-01
2530000.0 1.942814000e+00 7.354020000e-01
2620000.0 1.914831000e+00 6.597300000e-01
2710000.0 1.881126000e+00 5.996210000e-01
2800000.0 1.845444000e+00 5.432060000e-01
2890000.0 1.808371000e+00 4.912430000e-01
2980000.0 1.766128000e+00 4.475020000e-01
3070000.0 1.727112000e+00 4.104730000e-01
3160000.0 1.690624000e+00 3.759060000e-01
3250000.0 1.652929000e+00 3.441050000e-01
3340000.0 1.620833000e+00 3.180130000e-01
3430000.0 1.586810000e+00 2.942230000e-01
3520000.0 1.556934000e+00 2.723960000e-01
3610000.0 1.529494000e+00 2.510120000e-01
3700000.0 1.501837000e+00 2.332820000e-01
3790000.0 1.478704000e+00 2.146310000e-01
3880000.0 1.455769000e+00 1.720300000e-01
3970000.0 1.433077000e+00 2.064190000e-01
4060000.0 1.415631000e+00 1.414840000e-01
4150000.0 1.394890000e+00 1.770060000e-01
4240000.0 1.380263000e+00 1.114040000e-01
4330000.0 1.364282000e+00 1.460970000e-01
4420000.0 1.350060000e+00 8.436200000e-02
4510000.0 1.338104000e+00 1.190980000e-01
4600000.0 1.327394000e+00 8.145800000e-02
4690000.0 1.316048000e+00 6.951600000e-02
4780000.0 1.306678000e+00 5.611300000e-02
4870000.0 1.297672000e+00 4.316300000e-02
4960000.0 1.291387000e+00 2.907700000e-02
5050000.0 1.276503000e+00 1.726000000e-02
5140000.0 1.272667000e+00 4.933000000e-03
5230000.0 1.266573000e+00 -6.517000000e-03
5320000.0 1.263772000e+00 -1.971300000e-02
5410000.0 1.258781000e+00 -3.121600000e-02
5500000.0 1.255472000e+00 -4.228200000e-02
5590000.0 1.251846000e+00 -5.448800000e-02
5680000.0 1.246870000e+00 -6.588500000e-02
5770000.0 1.244833000e+00 -7.672300000e-02
5860000.0 1.242196000e+00 -8.776500000e-02
5950000.0 1.239070000e+00 -9.861500000e-02
6040000.0 1.236273000e+00 -1.080130000e-01
6130000.0 1.234339000e+00 -1.170490000e-01
6220000.0 1.231388000e+00 -1.266600000e-01
6310000.0 1.230759000e+00 -1.364550000e-01
6400000.0 1.228112000e+00 -1.446890000e-01
6490000.0 1.226505000e+00 -1.513030000e-01
6580000.0 1.226116000e+00 -1.586850000e-01
6670000.0 1.223492000e+00 -1.660240000e-01
6760000.0 1.222316000e+00 -1.726580000e-01
6850000.0 1.222039000e+00 -1.762920000e-01
6940000.0 1.221316000e+00 -1.803450000e-01
7030000.0 1.219817000e+00 -1.854980000e-01
7120000.0 1.220891000e+00 -1.896330000e-01
7210000.0 1.219363000e+00 -1.913440000e-01
7300000.0 1.218732000e+00 -1.929050000e-01
7390000.0 1.219959000e+00 -1.933830000e-01
7480000.0 1.220008000e+00 -1.942960000e-01
7570000.0 -2.437980000e-01 -1.258815000e+00
7660000.0 -2.422810000e-01 -1.259016000e+00
7750000.0 -2.411650000e-01 -1.259147000e+00
7840000.0 -2.407090000e-01 -1.259041000e+00
7930000.0 -2.390240000e-01 -1.260144000e+00
8020000.0 -2.400960000e-01 -1.260895000e+00
8110000.0 -2.384920000e-01 -1.261198000e+00
8200000.0 -2.370550000e-01 -1.262369000e+00
8290000.0 -2.362740000e-01 -1.262115000e+00
8380000.0 -2.356020000e-01 -1.263857000e+00
8470000.0 -2.360710000e-01 -1.263641000e+00
8560000.0 -2.346030000e-01 -1.264600000e+00
8650000.0 -2.345210000e-01 -1.265081000e+00
8740000.0 -2.326820000e-01 -1.264879000e+00
8830000.0 -2.328930000e-01 -1.266094000e+00
8920000.0 -2.310950000e-01 -1.266132000e+00
9010000.0 -2.315810000e-01 -1.266995000e+00
9100000.0 -2.305650000e-01 -1.268833000e+00
9190000.0 -2.307760000e-01 -1.269405000e+00
9280000.0 -2.301670000e-01 -1.270806000e+00
9370000.0 -2.293200000e-01 -1.270305000e+00
9460000.0 -2.274860000e-01 -1.270764000e+00
9550000.0 -2.274770000e-01 -1.272226000e+00
9640000.0 -2.267880000e-01 -1.273059000e+00
9730000.0 -2.258740000e-01 -1.273599000e+00
9820000.0 -2.264230000e-01 -1.274527000e+00
9910000.0 -2.249720000e-01 -1.275800000e+00
10000000.0 -2.246670000e-01 -1.275972000e+00
10900000.0 -2.189400000e-01 -1.284249000e+00
11800000.0 -2.123410000e-01 -1.294222000e+00
12700000.0 -2.060770000e-01 -1.303911000e+00
13600000.0 -1.997520000e-01 -1.314828000e+00
14500000.0 -1.960680000e-01 -1.327258000e+00
15400000.0 -1.893850000e-01 -1.337626000e+00
16300000.0 -1.823180000e-01 -1.349473000e+00
17200000.0 -1.761860000e-01 -1.359494000e+00
18100000.0 -1.689610000e-01 -1.373009000e+00
19000000.0 -1.611060000e-01 -1.384956000e+00
19900000.0 -1.545890000e-01 -1.397217000e+00
20800000.0 -1.464140000e-01 -1.410167000e+00
21700000.0 -1.360130000e-01 -1.423846000e+00
22600000.0 -1.275690000e-01 -1.436432000e+00
23500000.0 -1.181320000e-01 -1.450005000e+00
24400000.0 -1.085440000e-01 -1.463658000e+00
25300000.0 -9.852000000e-02 -1.476569000e+00
26200000.0 -8.741400000e-02 -1.490036000e+00
27100000.0 -7.658200000e-02 -1.505488000e+00
28000000.0 -6.483100000e-02 -1.519379000e+00
28900000.0 -5.181900000e-02 -1.533051000e+00
29800000.0 -3.948000000e-02 -1.548778000e+00
30700000.0 -2.459600000e-02 -1.562165000e+00
31600000.0 -1.098000000e-02 -1.576834000e+00
32500000.0 4.317000000e-03 -1.591922000e+00
33400000.0 1.859300000e-02 -1.606783000e+00
34300000.0 3.530000000e-02 -1.621085000e+00
35200000.0 5.119900000e-02 -1.635942000e+00
36100000.0 6.903600000e-02 -1.649355000e+00
37000000.0 8.809600000e-02 -1.665402000e+00
37900000.0 1.062080000e-01 -1.679794000e+00
38800000.0 1.258340000e-01 -1.693560000e+00
39700000.0 1.453950000e-01 -1.708632000e+00
40600000.0 1.662810000e-01 -1.722476000e+00
41500000.0 1.874420000e-01 -1.736731000e+00
42400000.0 2.123780000e-01 -1.750255000e+00
43300000.0 2.359150000e-01 -1.763176000e+00
44200000.0 2.584120000e-01 -1.777519000e+00
45100000.0 2.835230000e-01 -1.787813000e+00
46000000.0 3.116150000e-01 -1.799204000e+00
46900000.0 3.406590000e-01 -1.813122000e+00
47800000.0 3.685360000e-01 -1.824492000e+00
48700000.0 3.975380000e-01 -1.833531000e+00
49600000.0 4.265170000e-01 -1.844590000e+00
50500000.0 4.581710000e-01 -1.853359000e+00
51400000.0 4.896850000e-01 -1.858926000e+00
52300000.0 5.219300000e-01 -1.867591000e+00
53200000.0 5.558350000e-01 -1.873381000e+00
54100000.0 5.910720000e-01 -1.878653000e+00
55000000.0 6.250760000e-01 -1.882945000e+00
55900000.0 6.596500000e-01 -1.885708000e+00
56800000.0 6.989220000e-01 -1.886906000e+00
57700000.0 7.348880000e-01 -1.884286000e+00
58600000.0 7.725510000e-01 -1.884827000e+00
59500000.0 8.110210000e-01 -1.880624000e+00
60400000.0 8.514040000e-01 -1.876624000e+00
61300000.0 8.891490000e-01 -1.870434000e+00
62200000.0 9.293520000e-01 -1.863668000e+00
63100000.0 9.673810000e-01 -1.853858000e+00
64000000.0 1.005454000e+00 -1.843457000e+00
64900000.0 1.046801000e+00 -1.828193000e+00
65800000.0 1.084957000e+00 -1.812287000e+00
66700000.0 1.122026000e+00 -1.795395000e+00
67600000.0 1.158099000e+00 -1.776721000e+00
68500000.0 1.198114000e+00 -1.755557000e+00
69400000.0 1.231660000e+00 -1.733420000e+00
70300000.0 1.269007000e+00 -1.712104000e+00
71200000.0 1.301376000e+00 -1.685244000e+00
72100000.0 1.336023000e+00 -1.659239000e+00
73000000.0 1.369427000e+00 -1.628797000e+00
73900000.0 1.398085000e+00 -1.599632000e+00
74800000.0 1.427738000e+00 -1.567388000e+00
75700000.0 1.455165000e+00 -1.533062000e+00
76600000.0 1.480586000e+00 -1.500929000e+00
77500000.0 1.505018000e+00 -1.465456000e+00
78400000.0 1.527865000e+00 -1.431981000e+00
79300000.0 1.547276000e+00 -1.395131000e+00
80200000.0 1.567365000e+00 -1.358354000e+00
81100000.0 1.584309000e+00 -1.320270000e+00
82000000.0 1.601063000e+00 -1.285646000e+00
82900000.0 1.613134000e+00 -1.248853000e+00
83800000.0 1.624314000e+00 -1.209287000e+00
84700000.0 1.634178000e+00 -1.172797000e+00
85600000.0 1.644530000e+00 -1.136309000e+00
86500000.0 1.651741000e+00 -1.098528000e+00
87400000.0 1.657376000e+00 -1.063538000e+00
88300000.0 1.659346000e+00 -1.024442000e+00
89200000.0 1.664463000e+00 -9.911270000e-01
90100000.0 1.663925000e+00 -9.554990000e-01
91000000.0 1.664039000e+00 -9.217820000e-01
91900000.0 1.662884000e+00 -8.889910000e-01
92800000.0 1.662236000e+00 -8.555750000e-01
93700000.0 1.658188000e+00 -8.227200000e-01
94600000.0 1.653723000e+00 -7.910210000e-01
95500000.0 1.648153000e+00 -7.620390000e-01
96400000.0 1.643439000e+00 -7.313080000e-01
97300000.0 1.635717000e+00 -7.016010000e-01
98200000.0 1.627015000e+00 -6.747780000e-01
99100000.0 1.620423000e+00 -6.470850000e-01
100000000.0 1.609695000e+00 -6.192420000e-01
109000000.0 1.501427000e+00 -3.999030000e-01
118000000.0 1.377482000e+00 -2.437150000e-01
127000000.0 1.256109000e+00 -1.386300000e-01
136000000.0 1.147624000e+00 -6.833800000e-02
145000000.0 1.049972000e+00 -1.981300000e-02
154000000.0 1.000832000e+00 7.080000000e-04
163000000.0 1.002041000e+00 -7.760000000e-04
172000000.0 1.002670000e+00 -8.960000000e-04
181000000.0 1.003162000e+00 -8.360000000e-04
190000000.0 1.004471000e+00 -1.144000000e-03
199000000.0 1.004749000e+00 -1.504000000e-03
208000000.0 1.005206000e+00 -7.220000000e-04
217000000.0 1.005794000e+00 -2.261000000e-03
226000000.0 1.006266000e+00 -2.378000000e-03
235000000.0 1.005360000e+00 -5.950000000e-04
244000000.0 1.006369000e+00 -1.687000000e-03
253000000.0 1.005748000e+00 -1.343000000e-03
262000000.0 1.005637000e+00 -6.870000000e-04
271000000.0 1.004680000e+00 -7.610000000e-04
280000000.0 1.003450000e+00 3.480000000e-04
289000000.0 1.003003000e+00 -1.055000000e-03
298000000.0 1.001198000e+00 2.800000000e-05
307000000.0 1.002026000e+00 -1.404000000e-03
316000000.0 1.003152000e+00 -1.580000000e-04
325000000.0 1.004233000e+00 4.640000000e-04
334000000.0 1.005699000e+00 -1.818000000e-03
343000000.0 1.004921000e+00 -1.784000000e-03
352000000.0 1.004609000e+00 3.600000000e-05
361000000.0 1.006503000e+00 1.398000000e-03
370000000.0 1.006716000e+00 9.010000000e-04
379000000.0 1.005103000e+00 1.038000000e-03
388000000.0 1.006155000e+00 2.252000000e-03
397000000.0 1.006356000e+00 2.172000000e-03
406000000.0 9.857190000e-01 -5.052800000e-02
415000000.0 1.003957000e+00 1.995000000e-03
424000000.0 1.002371000e+00 1.603000000e-03
433000000.0 1.001584000e+00 1.272000000e-03
442000000.0 1.002133000e+00 4.460000000e-04
451000000.0 9.980490000e-01 -2.320000000e-04
460000000.0 1.001539000e+00 1.916000000e-03
469000000.0 1.003410000e+00 4.566000000e-03
478000000.0 1.004102000e+00 4.222000000e-03
487000000.0 1.005729000e+00 4.823000000e-03
496000000.0 1.005563000e+00 4.009000000e-03
505000000.0 1.006699000e+00 7.501000000e-03
514000000.0 1.008767000e+00 7.032000000e-03
523000000.0 1.008474000e+00 7.401000000e-03
532000000.0 1.008219000e+00 8.206000000e-03
541000000.0 1.007799000e+00 9.678000000e-03
550000000.0 1.008942000e+00 7.963000000e-03
559000000.0 1.010004000e+00 7.431000000e-03
568000000.0 1.008479000e+00 9.418000000e-03
577000000.0 1.005160000e+00 7.378000000e-03
586000000.0 1.005638000e+00 5.839000000e-03
595000000.0 1.005109000e+00 1.029800000e-02
604000000.0 1.005155000e+00 3.346000000e-03
613000000.0 1.005354000e+00 5.483000000e-03
622000000.0 1.008367000e+00 8.166000000e-03
631000000.0 1.011900000e+00 3.514000000e-03
640000000.0 1.014381000e+00 6.691000000e-03
649000000.0 1.018003000e+00 8.107000000e-03
658000000.0 1.018764000e+00 8.862000000e-03
667000000.0 1.018899000e+00 6.331000000e-03
676000000.0 1.016731000e+00 7.903000000e-03
685000000.0 1.016759000e+00 1.018300000e-02
694000000.0 1.013557000e+00 2.082000000e-03
703000000.0 1.012224000e+00 7.453000000e-03
712000000.0 1.012069000e+00 4.800000000e-03
721000000.0 1.011383000e+00 4.373000000e-03
730000000.0 1.008129000e+00 4.647000000e-03
739000000.0 1.004754000e+00 3.899000000e-03
748000000.0 1.001566000e+00 3.152000000e-03
757000000.0 1.001848000e+00 2.998000000e-03
766000000.0 1.007426000e+00 -2.440000000e-03
775000000.0 1.012997000e+00 -5.000000000e-03
784000000.0 1.014601000e+00 -2.112000000e-03
793000000.0 1.014709000e+00 -1.710000000e-04
802000000.0 1.014394000e+00 -2.576000000e-03
811000000.0 1.016614000e+00 -4.127000000e-03
820000000.0 1.018891000e+00 -8.099000000e-03
829000000.0 1.017116000e+00 -4.196000000e-03
838000000.0 1.017428000e+00 -8.559000000e-03
847000000.0 1.016573000e+00 -7.743000000e-03
856000000.0 1.015861000e+00 -7.457000000e-03
865000000.0 1.011949000e+00 -4.940000000e-03
874000000.0 1.011858000e+00 -5.754000000e-03
883000000.0 1.009190000e+00 -3.232000000e-03
892000000.0 1.002765000e+00 1.790000000e-03
901000000.0 9.997230000e-01 -6.180000000e-04
910000000.0 9.984990000e-01 3.050000000e-04
919000000.0 1.001805000e+00 -3.376000000e-03
928000000.0 1.003103000e+00 -2.618000000e-03
937000000.0 1.003010000e+00 -3.673000000e-03
946000000.0 1.004086000e+00 -3.882000000e-03
955000000.0 1.006259000e+00 -8.709000000e-03
964000000.0 1.003941000e+00 -1.254800000e-02
973000000.0 1.005774000e+00 -8.770000000e-03
982000000.0 1.006166000e+00 -1.193600000e-02
991000000.0 1.006617000e+00 -1.136800000e-02
1000000000.0 1.002976000e+00 -5.229000000e-03
1004500000.0 1.003826000e+00 -6.854000000e-03
1009000000.0 1.003176000e+00 -8.668000000e-03
1013500000.0 1.002242000e+00 -6.649000000e-03
1018000000.0 1.004117000e+00 -8.738000000e-03
1022500000.0 1.000494000e+00 -7.165000000e-03
1027000000.0 1.001465000e+00 -4.115000000e-03
1031500000.0 1.001835000e+00 -3.958000000e-03
1036000000.0 1.000928000e+00 -4.740000000e-03
1040500000.0 1.000324000e+00 -3.870000000e-04
1045000000.0 9.989370000e-01 3.867000000e-03
1049500000.0 9.998290000e-01 -1.482000000e-03
1054000000.0 1.001877000e+00 3.100000000e-05
1058500000.0 1.003352000e+00 5.656000000e-03
1063000000.0 9.968480000e-01 -1.888000000e-03
1067500000.0 1.000126000e+00 -4.660000000e-03
1072000000.0 9.965740000e-01 7.746000000e-03
1076500000.0 9.977000000e-01 -7.506000000e-03
1081000000.0 1.005058000e+00 -5.870000000e-04
1085500000.0 1.004819000e+00 -4.554000000e-03
1090000000.0 1.005754000e+00 8.000000000e-06
1094500000.0 1.004847000e+00 -3.235000000e-03
1099000000.0 1.001386000e+00 -1.969000000e-03
1103500000.0 1.000226000e+00 5.270000000e-04
1108000000.0 1.002983000e+00 2.120000000e-03
1112500000.0 1.002707000e+00 1.386000000e-03
1117000000.0 1.005238000e+00 -5.103000000e-03
1121500000.0 1.008244000e+00 1.757000000e-03
1126000000.0 1.006515000e+00 -4.995000000e-03
1130500000.0 1.005660000e+00 -9.290000000e-03
1135000000.0 1.009739000e+00 -1.732000000e-03
1139500000.0 1.003608000e+00 -3.257000000e-03
1144000000.0 1.009120000e+00 -4.312000000e-03
1148500000.0 1.002366000e+00 -2.470600000e-02
1153000000.0 1.008638000e+00 -8.812000000e-03
1157500000.0 1.000365000e+00 1.978000000e-03
1162000000.0 1.001362000e+00 -1.152400000e-02
1166500000.0 1.004444000e+00 -1.033600000e-02
1171000000.0 1.000327000e+00 -7.454000000e-03
1175500000.0 1.003771000e+00 -8.959000000e-03
1180000000.0 1.000494000e+00 -6.272000000e-03
1184500000.0 1.000976000e+00 -6.390000000e-03
1189000000.0 1.001582000e+00 -1.248000000e-03
1193500000.0 1.000480000e+00 -2.691000000e-03
1198000000.0 1.003769000e+00 2.941000000e-03
1202500000.0 9.999720000e-01 -2.247000000e-03
1207000000.0 1.005370000e+00 -6.920000000e-04
1211500000.0 1.005519000e+00 1.901000000e-03
1216000000.0 1.007028000e+00 -1.019100000e-02
1220500000.0 1.006099000e+00 2.040000000e-04
1225000000.0 9.994280000e-01 -2.595000000e-03
1229500000.0 9.997470000e-01 -6.992000000e-03
1234000000.0 9.994220000e-01 -3.677000000e-03
1238500000.0 1.003911000e+00 -7.975000000e-03
1243000000.0 1.003814000e+00 -1.450000000e-04
1247500000.0 1.005534000e+00 -3.042000000e-03
1252000000.0 1.003082000e+00 -7.166000000e-03
1256500000.0 1.004205000e+00 -5.310000000e-03
1261000000.0 1.001227000e+00 -3.139000000e-03
1265500000.0 1.006273000e+00 6.094000000e-03
1270000000.0 1.001258000e+00 8.320000000e-04
1274500000.0 1.002007000e+00 6.007000000e-03
1279000000.0 1.004921000e+00 -9.020000000e-03
1283500000.0 1.003901000e+00 -5.240000000e-04
1288000000.0 1.005726000e+00 3.995000000e-03
1292500000.0 9.994510000e-01 -4.364000000e-03
1297000000.0 1.005238000e+00 -3.306000000e-03
1301500000.0 1.000873000e+00 -2.468000000e-03
1306000000.0 9.455520000e-01 -7.109200000e-02
1310500000.0 9.977960000e-01 -2.110000000e-03
1315000000.0 1.005414000e+00 4.836000000e-03
1319500000.0 1.001550000e+00 -3.278000000e-03
1324000000.0 1.003213000e+00 7.046000000e-03
1328500000.0 1.005750000e+00 3.938000000e-03
1333000000.0 9.975240000e-01 -6.168000000e-03
1337500000.0 1.007168000e+00 3.011000000e-03
1342000000.0 9.994090000e-01 -6.100000000e-04
1346500000.0 1.007910000e+00 2.162000000e-03
1351000000.0 1.004311000e+00 7.640000000e-04
1355500000.0 1.001601000e+00 4.783000000e-03
1360000000.0 1.005047000e+00 1.186200000e-02
1364500000.0 1.001725000e+00 6.801000000e-03
1369000000.0 9.958920000e-01 1.271900000e-02
1373500000.0 1.002447000e+00 6.642000000e-03
1378000000.0 1.005372000e+00 7.352000000e-03
1382500000.0 1.008153000e+00 8.053000000e-03
1387000000.0 9.990200000e-01 9.167000000e-03
1391500000.0 1.002486000e+00 4.072000000e-03
1396000000.0 1.001211000e+00 4.036000000e-03
1400500000.0 1.006684000e+00 1.054700000e-02
1405000000.0 1.002554000e+00 1.438700000e-02
1409500000.0 9.996940000e-01 1.313400000e-02
1414000000.0 1.005337000e+00 1.193000000e-02
1418500000.0 1.008134000e+00 1.676100000e-02
1423000000.0 1.005942000e+00 5.867000000e-03
1427500000.0 9.986430000e-01 1.572900000e-02
1432000000.0 1.000337000e+00 1.806200000e-02
1436500000.0 1.002074000e+00 8.949000000e-03
1441000000.0 1.003065000e+00 1.108700000e-02
1445500000.0 1.000760000e+00 1.425900000e-02
1450000000.0 1.001390000e+00 1.257000000e-02
