! piloto_saltos / abierto_tramosA / r10
# HZ S RI R 50
50000.0 1.007508000e+00 -7.037500000e-02
59500.0 1.006350000e+00 -5.613200000e-02
69000.0 1.002700000e+00 -4.102300000e-02
78500.0 1.003557000e+00 -2.915200000e-02
88000.0 1.001316000e+00 -1.642500000e-02
97500.0 1.000013000e+00 -4.508000000e-03
107000.0 1.001274000e+00 8.666000000e-03
116500.0 1.000453000e+00 2.057900000e-02
126000.0 1.001438000e+00 3.524800000e-02
135500.0 1.000747000e+00 4.631600000e-02
145000.0 1.001755000e+00 5.853900000e-02
154500.0 1.002281000e+00 7.001800000e-02
164000.0 1.002344000e+00 8.238500000e-02
173500.0 1.002283000e+00 9.396300000e-02
183000.0 1.002521000e+00 1.058910000e-01
192500.0 1.004078000e+00 1.180330000e-01
202000.0 1.004021000e+00 1.300760000e-01
211500.0 1.004104000e+00 1.417140000e-01
221000.0 1.003770000e+00 1.527820000e-01
230500.0 1.005209000e+00 1.644240000e-01
240000.0 1.001700000e+00 2.675310000e-01
249500.0 1.005175000e+00 1.863450000e-01
259000.0 1.005440000e+00 1.985020000e-01
268500.0 1.005822000e+00 2.097370000e-01
278000.0 1.006099000e+00 2.204930000e-01
287500.0 1.005843000e+00 2.313910000e-01
297000.0 1.006453000e+00 2.422240000e-01
306500.0 1.006514000e+00 2.537490000e-01
316000.0 1.007213000e+00 2.642610000e-01
325500.0 1.006802000e+00 2.751960000e-01
335000.0 1.007439000e+00 2.862860000e-01
344500.0 1.007613000e+00 2.977100000e-01
354000.0 1.008451000e+00 3.085250000e-01
363500.0 1.008543000e+00 3.185660000e-01
373000.0 1.008053000e+00 3.290310000e-01
382500.0 1.008526000e+00 3.399330000e-01
392000.0 1.009037000e+00 3.508940000e-01
401500.0 1.009138000e+00 3.603930000e-01
411000.0 1.009945000e+00 3.714870000e-01
420500.0 1.010134000e+00 3.816970000e-01
430000.0 1.010320000e+00 3.910490000e-01
439500.0 1.010471000e+00 4.013300000e-01
449000.0 1.010092000e+00 4.118370000e-01
458500.0 1.011003000e+00 4.225170000e-01
468000.0 1.010605000e+00 4.329290000e-01
477500.0 1.011480000e+00 4.428680000e-01
487000.0 1.012054000e+00 4.533330000e-01
496500.0 1.012526000e+00 4.638380000e-01
506000.0 1.013200000e+00 4.725860000e-01
515500.0 1.013716000e+00 4.829780000e-01
525000.0 1.013089000e+00 4.930640000e-01
534500.0 1.014689000e+00 5.030190000e-01
544000.0 1.013734000e+00 5.134720000e-01
553500.0 1.014822000e+00 5.229260000e-01
563000.0 1.015536000e+00 5.333820000e-01
572500.0 1.015967000e+00 5.419120000e-01
582000.0 1.016221000e+00 5.527840000e-01
591500.0 1.017068000e+00 5.626690000e-01
601000.0 1.017356000e+00 5.725900000e-01
610500.0 1.017999000e+00 5.828910000e-01
620000.0 1.018876000e+00 5.918390000e-01
629500.0 1.019266000e+00 6.012180000e-01
639000.0 1.019338000e+00 6.107870000e-01
648500.0 1.020658000e+00 6.200750000e-01
658000.0 1.021285000e+00 6.315200000e-01
667500.0 1.021679000e+00 6.392920000e-01
677000.0 1.023693000e+00 6.493900000e-01
686500.0 1.024379000e+00 6.579480000e-01
696000.0 1.024623000e+00 6.688200000e-01
705500.0 1.025495000e+00 6.791690000e-01
715000.0 1.026544000e+00 6.881310000e-01
724500.0 1.027272000e+00 6.976340000e-01
734000.0 1.029574000e+00 7.067020000e-01
743500.0 1.032050000e+00 7.149130000e-01
753000.0 1.031112000e+00 7.264420000e-01
762500.0 1.032575000e+00 7.346530000e-01
772000.0 1.032410000e+00 7.444890000e-01
781500.0 1.035942000e+00 7.528010000e-01
791000.0 1.035975000e+00 7.629870000e-01
800500.0 1.038454000e+00 7.705440000e-01
810000.0 1.040678000e+00 7.810920000e-01
819500.0 1.040283000e+00 7.912980000e-01
829000.0 1.041911000e+00 7.999710000e-01
838500.0 1.043395000e+00 8.078620000e-01
848000.0 1.045355000e+00 8.185620000e-01
857500.0 1.048620000e+00 8.280190000e-01
867000.0 1.049465000e+00 8.366080000e-01
876500.0 1.050857000e+00 8.436640000e-01
886000.0 1.053693000e+00 8.549460000e-01
895500.0 1.055412000e+00 8.628630000e-01
905000.0 1.056891000e+00 8.730090000e-01
914500.0 1.060039000e+00 8.811400000e-01
924000.0 1.061471000e+00 8.911100000e-01
933500.0 1.064829000e+00 9.006210000e-01
943000.0 1.066579000e+00 9.089990000e-01
952500.0 1.069463000e+00 9.171270000e-01
962000.0 1.070934000e+00 9.256770000e-01
971500.0 1.074725000e+00 9.341610000e-01
981000.0 1.077175000e+00 9.433910000e-01
990500.0 1.078743000e+00 9.502160000e-01
1000000.0 1.083235000e+00 9.612420000e-01
1090000.0 1.110487000e+00 1.040560000e+00
1180000.0 1.151583000e+00 1.116975000e+00
1270000.0 1.204404000e+00 1.186290000e+00
1360000.0 1.261870000e+00 1.247291000e+00
1450000.0 1.334018000e+00 1.300103000e+00
1540000.0 1.413209000e+00 1.335300000e+00
1630000.0 1.502701000e+00 1.355907000e+00
1720000.0 1.592623000e+00 1.354518000e+00
1810000.0 1.685887000e+00 1.334784000e+00
1900000.0 1.771294000e+00 1.290796000e+00
1990000.0 1.841065000e+00 1.230599000e+00
2080000.0 1.901349000e+00 1.152435000e+00
2170000.0 1.941657000e+00 1.067646000e+00
2260000.0 1.963117000e+00 9.803410000e-01
2350000.0 1.967395000e+00 8.873080000e-01
2440000.0 1.961098000e+00 8.034220000e-01
2530000.0 1.940329000e+00 7.250720000e-01
2620000.0 1.912511000e+00 6.495870000e-01
2710000.0 1.877224000e+00 5.887810000e-01
2800000.0 1.837701000e+00 5.322480000e-01
2890000.0 1.800359000e+00 4.841840000e-01
2980000.0 1.760638000e+00 4.439500000e-01
3070000.0 1.721809000e+00 4.055640000e-01
3160000.0 1.682354000e+00 3.702190000e-01
3250000.0 1.648115000e+00 3.412350000e-01
3340000.0 1.614233000e+00 3.153930000e-01
3430000.0 1.581550000e+00 2.929760000e-01
3520000.0 1.552633000e+00 2.707590000e-01
3610000.0 1.524661000e+00 2.509130000e-01
3700000.0 1.498228000e+00 2.331520000e-01
3790000.0 1.474815000e+00 2.155410000e-01
3880000.0 1.452677000e+00 1.962910000e-01
3970000.0 1.430691000e+00 1.811360000e-01
4060000.0 1.412125000e+00 1.652760000e-01
4150000.0 1.393152000e+00 1.504620000e-01
4240000.0 1.378004000e+00 1.360230000e-01
4330000.0 1.362442000e+00 1.239220000e-01
4420000.0 1.348721000e+00 1.093890000e-01
4510000.0 1.336373000e+00 9.602600000e-02
4600000.0 1.325052000e+00 8.190900000e-02
4690000.0 1.314972000e+00 6.966400000e-02
4780000.0 1.305736000e+00 5.642000000e-02
4870000.0 1.297705000e+00 4.260000000e-02
4960000.0 1.290616000e+00 3.152800000e-02
5050000.0 1.275899000e+00 1.791300000e-02
5140000.0 1.271829000e+00 3.849000000e-03
5230000.0 1.266196000e+00 -6.911000000e-03
5320000.0 1.262347000e+00 -1.796300000e-02
5410000.0 1.257352000e+00 -3.058500000e-02
5500000.0 1.254440000e+00 -4.182800000e-02
5590000.0 1.250863000e+00 -5.311100000e-02
5680000.0 1.247727000e+00 -6.657100000e-02
5770000.0 1.243876000e+00 -7.642200000e-02
5860000.0 1.240738000e+00 -8.691000000e-02
5950000.0 1.239398000e+00 -9.825500000e-02
6040000.0 1.235682000e+00 -1.082770000e-01
6130000.0 1.233990000e+00 -1.178370000e-01
6220000.0 1.231241000e+00 -1.266080000e-01
6310000.0 1.229021000e+00 -1.344130000e-01
6400000.0 1.228243000e+00 -1.426600000e-01
6490000.0 1.226000000e+00 -1.508290000e-01
6580000.0 1.229346000e+00 -1.357470000e-01
6670000.0 1.218219000e+00 -1.863670000e-01
6760000.0 1.227574000e+00 -1.508450000e-01
6850000.0 1.216537000e+00 -1.990860000e-01
6940000.0 1.224405000e+00 -1.595190000e-01
7030000.0 1.214707000e+00 -2.066110000e-01
7120000.0 1.224084000e+00 -1.670620000e-01
7210000.0 1.213286000e+00 -2.121490000e-01
7300000.0 1.219267000e+00 -1.915230000e-01
7390000.0 1.219432000e+00 -1.935340000e-01
7480000.0 1.219965000e+00 -1.931610000e-01
7570000.0 -2.426340000e-01 -1.257849000e+00
7660000.0 -2.415900000e-01 -1.258757000e+00
7750000.0 -2.397260000e-01 -1.258947000e+00
7840000.0 -2.396130000e-01 -1.259388000e+00
7930000.0 -2.390770000e-01 -1.260775000e+00
8020000.0 -2.395940000e-01 -1.261103000e+00
8110000.0 -2.384240000e-01 -1.260818000e+00
8200000.0 -2.371450000e-01 -1.261642000e+00
8290000.0 -2.371820000e-01 -1.262596000e+00
8380000.0 -2.368930000e-01 -1.263457000e+00
8470000.0 -2.365250000e-01 -1.263086000e+00
8560000.0 -2.355270000e-01 -1.263361000e+00
8650000.0 -2.340170000e-01 -1.264737000e+00
8740000.0 -2.334910000e-01 -1.265098000e+00
8830000.0 -2.330210000e-01 -1.265203000e+00
8920000.0 -2.310670000e-01 -1.267245000e+00
9010000.0 -2.311770000e-01 -1.267561000e+00
9100000.0 -2.309290000e-01 -1.268717000e+00
9190000.0 -2.288480000e-01 -1.268730000e+00
9280000.0 -2.290700000e-01 -1.269261000e+00
9370000.0 -2.270870000e-01 -1.270808000e+00
9460000.0 -2.273580000e-01 -1.270158000e+00
9550000.0 -2.273980000e-01 -1.269994000e+00
9640000.0 -2.266220000e-01 -1.272930000e+00
9730000.0 -2.264260000e-01 -1.272608000e+00
9820000.0 -2.253550000e-01 -1.273671000e+00
9910000.0 -2.256530000e-01 -1.275068000e+00
10000000.0 -2.240330000e-01 -1.276454000e+00
10900000.0 -2.180720000e-01 -1.283460000e+00
11800000.0 -2.131710000e-01 -1.295022000e+00
12700000.0 -2.067380000e-01 -1.303076000e+00
13600000.0 -2.011420000e-01 -1.315698000e+00
14500000.0 -1.946060000e-01 -1.326216000e+00
15400000.0 -1.896060000e-01 -1.336795000e+00
16300000.0 -1.839690000e-01 -1.349261000e+00
17200000.0 -1.752560000e-01 -1.361647000e+00
18100000.0 -1.687690000e-01 -1.373059000e+00
19000000.0 -1.610690000e-01 -1.384738000e+00
19900000.0 -1.537480000e-01 -1.396464000e+00
20800000.0 -1.447980000e-01 -1.410467000e+00
21700000.0 -1.366720000e-01 -1.422137000e+00
22600000.0 -1.281070000e-01 -1.435398000e+00
23500000.0 -1.173630000e-01 -1.450197000e+00
24400000.0 -1.074940000e-01 -1.463478000e+00
25300000.0 -9.716700000e-02 -1.476007000e+00
26200000.0 -8.536700000e-02 -1.491091000e+00
27100000.0 -7.659100000e-02 -1.503706000e+00
28000000.0 -6.381700000e-02 -1.519619000e+00
28900000.0 -5.102100000e-02 -1.533359000e+00
29800000.0 -3.795300000e-02 -1.547409000e+00
30700000.0 -2.505500000e-02 -1.563202000e+00
31600000.0 -1.111900000e-02 -1.576658000e+00
32500000.0 3.836000000e-03 -1.591181000e+00
33400000.0 1.936500000e-02 -1.605502000e+00
34300000.0 3.597300000e-02 -1.620579000e+00
35200000.0 5.208700000e-02 -1.634052000e+00
36100000.0 6.890900000e-02 -1.650172000e+00
37000000.0 8.653300000e-02 -1.665736000e+00
37900000.0 1.050000000e-01 -1.678961000e+00
38800000.0 1.264600000e-01 -1.691819000e+00
39700000.0 1.461830000e-01 -1.708428000e+00
40600000.0 1.676760000e-01 -1.721679000e+00
41500000.0 1.894430000e-01 -1.736066000e+00
42400000.0 2.120200000e-01 -1.748703000e+00
43300000.0 2.364200000e-01 -1.762495000e+00
44200000.0 2.609350000e-01 -1.777189000e+00
45100000.0 2.846980000e-01 -1.788255000e+00
46000000.0 3.126590000e-01 -1.801185000e+00
46900000.0 3.389060000e-01 -1.812036000e+00
47800000.0 3.666340000e-01 -1.821797000e+00
48700000.0 3.960430000e-01 -1.833124000e+00
49600000.0 4.254870000e-01 -1.841862000e+00
50500000.0 4.577200000e-01 -1.851899000e+00
51400000.0 4.883470000e-01 -1.859533000e+00
52300000.0 5.228680000e-01 -1.865675000e+00
53200000.0 5.547740000e-01 -1.873286000e+00
54100000.0 5.895800000e-01 -1.878664000e+00
55000000.0 6.264180000e-01 -1.882382000e+00
55900000.0 6.607770000e-01 -1.884102000e+00
56800000.0 6.981360000e-01 -1.884755000e+00
57700000.0 7.339980000e-01 -1.884748000e+00
58600000.0 7.711610000e-01 -1.883288000e+00
59500000.0 8.105640000e-01 -1.881686000e+00
60400000.0 8.493100000e-01 -1.878290000e+00
61300000.0 8.862440000e-01 -1.870939000e+00
62200000.0 9.278170000e-01 -1.860542000e+00
63100000.0 9.674040000e-01 -1.852625000e+00
64000000.0 1.004626000e+00 -1.840805000e+00
64900000.0 1.047723000e+00 -1.826539000e+00
65800000.0 1.085271000e+00 -1.811481000e+00
66700000.0 1.121044000e+00 -1.792824000e+00
67600000.0 1.161426000e+00 -1.776048000e+00
68500000.0 1.198489000e+00 -1.756322000e+00
69400000.0 1.231781000e+00 -1.733041000e+00
70300000.0 1.270602000e+00 -1.710589000e+00
71200000.0 1.304736000e+00 -1.684531000e+00
72100000.0 1.335745000e+00 -1.657667000e+00
73000000.0 1.369103000e+00 -1.626986000e+00
73900000.0 1.398037000e+00 -1.596986000e+00
74800000.0 1.428440000e+00 -1.565359000e+00
75700000.0 1.455273000e+00 -1.534279000e+00
76600000.0 1.480007000e+00 -1.499802000e+00
77500000.0 1.506622000e+00 -1.466519000e+00
78400000.0 1.527666000e+00 -1.431124000e+00
79300000.0 1.547995000e+00 -1.394507000e+00
80200000.0 1.566368000e+00 -1.359702000e+00
81100000.0 1.585420000e+00 -1.322007000e+00
82000000.0 1.601019000e+00 -1.286027000e+00
82900000.0 1.613323000e+00 -1.247018000e+00
83800000.0 1.627978000e+00 -1.210985000e+00
84700000.0 1.636215000e+00 -1.172437000e+00
85600000.0 1.645615000e+00 -1.135311000e+00
86500000.0 1.650664000e+00 -1.099056000e+00
87400000.0 1.635705000e+00 -1.093893000e+00
88300000.0 1.660581000e+00 -1.025148000e+00
89200000.0 1.645589000e+00 -1.020097000e+00
90100000.0 1.681467000e+00 -9.232490000e-01
91000000.0 1.647976000e+00 -9.529400000e-01
91900000.0 1.679810000e+00 -8.578380000e-01
92800000.0 1.646192000e+00 -8.871410000e-01
93700000.0 1.672221000e+00 -7.919650000e-01
94600000.0 1.637109000e+00 -8.222010000e-01
95500000.0 1.662022000e+00 -7.314830000e-01
96400000.0 1.642471000e+00 -7.307750000e-01
97300000.0 1.635178000e+00 -7.040690000e-01
98200000.0 1.627692000e+00 -6.744520000e-01
99100000.0 1.619399000e+00 -6.475190000e-01
100000000.0 1.609698000e+00 -6.206900000e-01
109000000.0 1.501613000e+00 -3.999430000e-01
118000000.0 1.376812000e+00 -2.445570000e-01
127000000.0 1.257557000e+00 -1.371280000e-01
136000000.0 1.148199000e+00 -6.926000000e-02
145000000.0 1.049706000e+00 -1.884200000e-02
154000000.0 1.000458000e+00 1.092000000e-03
163000000.0 1.001852000e+00 8.330000000e-04
172000000.0 1.003261000e+00 -4.700000000e-05
181000000.0 1.003491000e+00 -1.434000000e-03
190000000.0 1.004276000e+00 -3.050000000e-04
199000000.0 1.005769000e+00 -1.131000000e-03
208000000.0 1.005533000e+00 -1.590000000e-03
217000000.0 1.006323000e+00 -1.755000000e-03
226000000.0 1.006118000e+00 -1.322000000e-03
235000000.0 1.007046000e+00 -4.120000000e-04
244000000.0 1.006574000e+00 3.540000000e-04
253000000.0 1.006167000e+00 -4.690000000e-04
262000000.0 1.005064000e+00 1.720000000e-04
271000000.0 1.004096000e+00 -8.920000000e-04
280000000.0 1.004096000e+00 -5.610000000e-04
289000000.0 1.003581000e+00 9.790000000e-04
298000000.0 1.001464000e+00 -1.432000000e-03
307000000.0 1.002702000e+00 -1.178000000e-03
316000000.0 1.002260000e+00 -1.318000000e-03
325000000.0 1.004260000e+00 -8.560000000e-04
334000000.0 1.004876000e+00 4.160000000e-04
343000000.0 1.006066000e+00 -1.491000000e-03
352000000.0 1.005650000e+00 6.520000000e-04
361000000.0 1.012472000e+00 3.687200000e-02
370000000.0 1.007054000e+00 -9.500000000e-05
379000000.0 1.013200000e+00 3.772800000e-02
388000000.0 1.005967000e+00 1.331000000e-03
397000000.0 1.013783000e+00 3.806500000e-02
406000000.0 1.002571000e+00 -1.603700000e-02
415000000.0 1.004695000e+00 1.714000000e-03
424000000.0 1.003471000e+00 2.102100000e-02
433000000.0 1.003359000e+00 2.066200000e-02
442000000.0 1.001731000e+00 2.235000000e-03
451000000.0 9.990990000e-01 2.565000000e-03
460000000.0 1.000221000e+00 6.930000000e-04
469000000.0 1.003084000e+00 1.204000000e-03
478000000.0 1.004870000e+00 4.538000000e-03
487000000.0 1.006388000e+00 1.654000000e-03
496000000.0 1.005635000e+00 6.112000000e-03
505000000.0 1.007423000e+00 2.877000000e-03
514000000.0 1.008205000e+00 5.983000000e-03
523000000.0 1.007026000e+00 5.698000000e-03
532000000.0 1.008201000e+00 6.584000000e-03
541000000.0 1.009778000e+00 7.644000000e-03
550000000.0 1.007095000e+00 9.330000000e-03
559000000.0 1.006790000e+00 7.778000000e-03
568000000.0 1.007593000e+00 9.499000000e-03
577000000.0 1.006782000e+00 9.750000000e-03
586000000.0 1.003880000e+00 6.401000000e-03
595000000.0 1.006078000e+00 8.528000000e-03
604000000.0 1.006321000e+00 5.541000000e-03
613000000.0 1.006905000e+00 5.463000000e-03
622000000.0 1.010683000e+00 5.883000000e-03
631000000.0 1.012880000e+00 1.104100000e-02
640000000.0 1.015821000e+00 1.196400000e-02
649000000.0 1.016550000e+00 8.621000000e-03
658000000.0 1.016555000e+00 8.174000000e-03
667000000.0 1.016171000e+00 7.771000000e-03
676000000.0 1.018566000e+00 1.268900000e-02
685000000.0 1.016522000e+00 7.055000000e-03
694000000.0 1.015981000e+00 4.741000000e-03
703000000.0 1.012673000e+00 6.493000000e-03
712000000.0 1.014992000e+00 5.429000000e-03
721000000.0 1.009977000e+00 6.056000000e-03
730000000.0 1.006709000e+00 6.768000000e-03
739000000.0 1.004978000e+00 4.596000000e-03
748000000.0 1.001237000e+00 2.000000000e-06
757000000.0 1.005831000e+00 -9.240000000e-04
766000000.0 1.005826000e+00 -7.880000000e-04
775000000.0 1.009360000e+00 -2.333000000e-03
784000000.0 1.012101000e+00 4.700000000e-05
793000000.0 1.016579000e+00 -5.192000000e-03
802000000.0 1.014912000e+00 -6.208000000e-03
811000000.0 1.018888000e+00 -7.648000000e-03
820000000.0 1.018488000e+00 -5.196000000e-03
829000000.0 1.016696000e+00 -4.497000000e-03
838000000.0 1.018028000e+00 -3.023000000e-03
847000000.0 1.019351000e+00 -1.350000000e-03
856000000.0 1.014631000e+00 -4.545000000e-03
865000000.0 1.012555000e+00 8.800000000e-05
874000000.0 1.008579000e+00 6.430000000e-04
883000000.0 1.008972000e+00 -8.480000000e-04
892000000.0 1.002480000e+00 -7.500000000e-04
901000000.0 1.000787000e+00 1.691000000e-03
910000000.0 1.002489000e+00 -2.827000000e-03
919000000.0 1.003699000e+00 -2.006000000e-03
928000000.0 1.003659000e+00 -5.507000000e-03
937000000.0 1.004607000e+00 -6.494000000e-03
946000000.0 1.005951000e+00 -3.342000000e-03
955000000.0 1.002791000e+00 -7.259000000e-03
964000000.0 1.004121000e+00 -2.877000000e-03
973000000.0 1.005759000e+00 -9.211000000e-03
982000000.0 1.007238000e+00 -6.796000000e-03
991000000.0 1.003231000e+00 -1.421100000e-02
1000000000.0 1.006037000e+00 -5.714000000e-03
1004500000.0 1.004469000e+00 -5.473000000e-03
1009000000.0 1.005293000e+00 -4.277000000e-03
1013500000.0 1.005653000e+00 -6.040000000e-03
1018000000.0 1.004116000e+00 -7.282000000e-03
1022500000.0 9.987520000e-01 -2.765000000e-03
1027000000.0 1.004762000e+00 -4.816000000e-03
1031500000.0 1.001337000e+00 -5.539000000e-03
1036000000.0 1.001548000e+00 -6.840000000e-04
1040500000.0 1.001051000e+00 3.303000000e-03
1045000000.0 1.002866000e+00 -1.051000000e-03
1049500000.0 1.000687000e+00 -1.130000000e-04
1054000000.0 9.999640000e-01 3.410000000e-04
1058500000.0 1.002695000e+00 2.180000000e-03
1063000000.0 1.000173000e+00 4.795000000e-03
1067500000.0 9.995660000e-01 -3.162000000e-03
1072000000.0 1.000644000e+00 -3.403000000e-03
1076500000.0 1.004262000e+00 2.890000000e-03
1081000000.0 1.005626000e+00 -3.934000000e-03
1085500000.0 1.000887000e+00 -2.899000000e-03
1090000000.0 9.993470000e-01 -3.696000000e-03
1094500000.0 1.006050000e+00 -2.966000000e-03
1099000000.0 1.003673000e+00 -8.003000000e-03
1103500000.0 1.003558000e+00 -3.943000000e-03
1108000000.0 1.000877000e+00 -1.234000000e-03
1112500000.0 1.004398000e+00 3.082000000e-03
1117000000.0 1.005962000e+00 -1.241200000e-02
1121500000.0 1.003488000e+00 -4.270000000e-04
1126000000.0 1.112474000e+00 9.014300000e-02
1130500000.0 1.002999000e+00 -3.551000000e-03
1135000000.0 1.004779000e+00 -1.045700000e-02
1139500000.0 1.003665000e+00 -3.900000000e-05
1144000000.0 1.005819000e+00 -3.187000000e-03
1148500000.0 1.007263000e+00 -1.500000000e-03
1153000000.0 1.007190000e+00 -7.227000000e-03
1157500000.0 1.002364000e+00 -1.901000000e-03
1162000000.0 1.003757000e+00 -8.487000000e-03
1166500000.0 1.006063000e+00 -4.435000000e-03
1171000000.0 1.006823000e+00 -5.810000000e-03
1175500000.0 1.004769000e+00 -3.429000000e-03
1180000000.0 1.007567000e+00 -1.949000000e-03
1184500000.0 1.002305000e+00 -2.568000000e-03
1189000000.0 1.004487000e+00 5.068000000e-03
1193500000.0 1.008157000e+00 3.678000000e-03
1198000000.0 9.984560000e-01 8.190000000e-04
1202500000.0 1.006440000e+00 2.327000000e-03
1207000000.0 1.008629000e+00 -5.079000000e-03
1211500000.0 1.005871000e+00 -3.820000000e-04
1216000000.0 1.008890000e+00 -4.306000000e-03
1220500000.0 1.005883000e+00 -1.708000000e-03
1225000000.0 1.009238000e+00 -2.907000000e-03
1229500000.0 1.001895000e+00 -3.780000000e-04
1234000000.0 1.004906000e+00 -4.931000000e-03
1238500000.0 1.003202000e+00 -8.178000000e-03
1243000000.0 1.004360000e+00 -5.030000000e-04
1247500000.0 1.000975000e+00 -3.352000000e-03
1252000000.0 1.006218000e+00 6.840000000e-04
1256500000.0 9.998490000e-01 1.485000000e-03
1261000000.0 1.003876000e+00 5.575000000e-03
1265500000.0 1.013080000e+00 -2.160000000e-04
1270000000.0 1.006441000e+00 1.845000000e-03
1274500000.0 1.007994000e+00 1.049000000e-03
1279000000.0 1.001791000e+00 -4.533000000e-03
1283500000.0 1.003189000e+00 -1.681000000e-03
1288000000.0 1.000735000e+00 -2.317000000e-03
1292500000.0 1.002734000e+00 1.461000000e-03
1297000000.0 1.001985000e+00 -9.679000000e-03
1301500000.0 1.007459000e+00 3.050000000e-03
1306000000.0 1.003125000e+00 4.790000000e-04
1310500000.0 1.007755000e+00 8.196000000e-03
1315000000.0 1.004342000e+00 1.220800000e-02
1319500000.0 1.000131000e+00 9.811000000e-03
1324000000.0 1.006734000e+00 3.642000000e-03
1328500000.0 1.007763000e+00 1.791000000e-03
1333000000.0 1.008002000e+00 -4.920000000e-04
1337500000.0 1.006963000e+00 1.200000000e-05
1342000000.0 1.001353000e+00 3.996000000e-03
1346500000.0 1.001468000e+00 9.460000000e-03
1351000000.0 1.000498000e+00 7.004000000e-03
1355500000.0 1.002108000e+00 7.487000000e-03
1360000000.0 1.005018000e+00 4.781000000e-03
1364500000.0 1.007755000e+00 5.063000000e-03
1369000000.0 1.000564000e+00 1.688800000e-02
1373500000.0 1.008301000e+00 2.077000000e-03
1378000000.0 1.000657000e+00 7.300000000e-04
1382500000.0 1.002032000e+00 1.375000000e-02
1387000000.0 9.995290000e-01 9.069000000e-03
1391500000.0 1.006829000e+00 3.535000000e-03
1396000000.0 1.003693000e+00 1.087500000e-02
1400500000.0 1.004843000e+00 1.437800000e-02
1405000000.0 1.002472000e+00 3.160000000e-03
1409500000.0 1.002682000e+00 1.056800000e-02
1414000000.0 1.004833000e+00 1.676600000e-02
1418500000.0 1.002463000e+00 1.190900000e-02
1423000000.0 1.005845000e+00 1.683300000e-02
1427500000.0 1.013090000e+00 8.194000000e-03
1432000000.0 1.002163000e+00 1.470200000e-02
1436500000.0 1.001051000e+00 7.215000000e-03
1441000000.0 1.001490000e+00 1.012300000e-02
1445500000.0 1.002917000e+00 1.397000000e-02
1450000000.0 1.000777000e+00 1.444100000e-02
