! piloto_saltos / abierto_51puntos / r01
# HZ S RI R 50
50000.0 1.006582000e+00 -7.023700000e-02
69000.0 1.004885000e+00 -4.371400000e-02
88000.0 1.000758000e+00 -1.680700000e-02
107000.0 9.998910000e-01 8.945000000e-03
126000.0 9.985000000e-01 3.441800000e-02
145000.0 1.001825000e+00 5.811600000e-02
164000.0 1.002048000e+00 8.188700000e-02
183000.0 1.003288000e+00 1.057110000e-01
202000.0 1.002995000e+00 1.292740000e-01
221000.0 1.004482000e+00 1.525930000e-01
240000.0 1.004356000e+00 1.748880000e-01
259000.0 1.005954000e+00 1.980770000e-01
278000.0 9.980560000e-01 2.028850000e-01
297000.0 1.006797000e+00 2.424790000e-01
316000.0 1.007025000e+00 2.646140000e-01
335000.0 1.003592000e+00 3.039210000e-01
354000.0 1.011871000e+00 2.881650000e-01
373000.0 1.004303000e+00 3.473930000e-01
392000.0 1.012857000e+00 3.307640000e-01
411000.0 1.004663000e+00 3.886890000e-01
430000.0 1.014428000e+00 3.729460000e-01
449000.0 1.004976000e+00 4.306750000e-01
468000.0 1.011150000e+00 4.323840000e-01
487000.0 1.104826000e+00 4.869970000e-01
506000.0 1.008634000e+00 4.389720000e-01
525000.0 1.013537000e+00 4.928590000e-01
544000.0 1.014817000e+00 5.131410000e-01
563000.0 1.014785000e+00 5.321350000e-01
582000.0 1.016544000e+00 5.517410000e-01
601000.0 1.017098000e+00 5.718320000e-01
620000.0 1.018686000e+00 5.911370000e-01
639000.0 1.019456000e+00 6.104870000e-01
658000.0 1.021628000e+00 6.293780000e-01
677000.0 1.022420000e+00 6.479230000e-01
696000.0 1.024031000e+00 6.668750000e-01
715000.0 1.027503000e+00 6.861340000e-01
734000.0 1.028894000e+00 7.063280000e-01
753000.0 1.030576000e+00 7.237020000e-01
772000.0 1.032856000e+00 7.416200000e-01
791000.0 1.035680000e+00 7.620510000e-01
810000.0 1.037956000e+00 7.794080000e-01
829000.0 1.043228000e+00 7.989120000e-01
848000.0 1.045662000e+00 8.162900000e-01
867000.0 1.048732000e+00 8.341530000e-01
886000.0 1.053591000e+00 8.531370000e-01
905000.0 1.057657000e+00 8.708650000e-01
924000.0 1.060735000e+00 8.895070000e-01
943000.0 1.067480000e+00 9.070710000e-01
962000.0 1.070968000e+00 9.239990000e-01
981000.0 1.076400000e+00 9.431800000e-01
1000000.0 1.082461000e+00 9.600210000e-01
1180000.0 1.150365000e+00 1.116534000e+00
1360000.0 1.260261000e+00 1.246950000e+00
1540000.0 1.409686000e+00 1.335172000e+00
1720000.0 1.589110000e+00 1.356113000e+00
1900000.0 1.763411000e+00 1.291881000e+00
2080000.0 1.898060000e+00 1.158385000e+00
2260000.0 1.961842000e+00 9.810350000e-01
2440000.0 1.959885000e+00 8.059130000e-01
2620000.0 1.913723000e+00 6.539500000e-01
2800000.0 1.839534000e+00 5.356520000e-01
2980000.0 1.763786000e+00 4.423270000e-01
3160000.0 1.683580000e+00 3.266660000e-01
3340000.0 1.611171000e+00 3.328110000e-01
3520000.0 1.552620000e+00 2.964480000e-01
3700000.0 1.500342000e+00 2.330900000e-01
3880000.0 1.453161000e+00 1.970750000e-01
4060000.0 1.411380000e+00 1.657450000e-01
4240000.0 1.377631000e+00 1.383010000e-01
4420000.0 1.348873000e+00 1.086310000e-01
4600000.0 1.325345000e+00 8.062700000e-02
4780000.0 1.306015000e+00 5.685800000e-02
4960000.0 1.290920000e+00 3.172800000e-02
5140000.0 1.270967000e+00 5.548000000e-03
5320000.0 1.263149000e+00 -1.783800000e-02
5500000.0 1.253617000e+00 -4.219000000e-02
5680000.0 1.247179000e+00 -6.597500000e-02
5860000.0 1.242854000e+00 -8.642200000e-02
6040000.0 1.236475000e+00 -1.085040000e-01
6220000.0 1.231449000e+00 -1.262080000e-01
6400000.0 1.227680000e+00 -1.426580000e-01
6580000.0 1.225854000e+00 -1.584600000e-01
6760000.0 1.222192000e+00 -1.720840000e-01
6940000.0 1.220410000e+00 -1.819260000e-01
7120000.0 1.219574000e+00 -1.890650000e-01
7300000.0 1.218875000e+00 -1.927600000e-01
7480000.0 1.219512000e+00 -1.927600000e-01
7660000.0 -2.404280000e-01 -1.259047000e+00
7840000.0 -2.393440000e-01 -1.259727000e+00
8020000.0 -2.384690000e-01 -1.260918000e+00
8200000.0 -2.367210000e-01 -1.262372000e+00
8380000.0 -2.355990000e-01 -1.262755000e+00
8560000.0 -2.344210000e-01 -1.265148000e+00
8740000.0 -2.337190000e-01 -1.265269000e+00
8920000.0 -2.318290000e-01 -1.267503000e+00
9100000.0 -2.297940000e-01 -1.267945000e+00
9280000.0 -2.301010000e-01 -1.269316000e+00
9460000.0 -2.296960000e-01 -1.270620000e+00
9640000.0 -2.274750000e-01 -1.271902000e+00
9820000.0 -2.259950000e-01 -1.275128000e+00
10000000.0 -2.241520000e-01 -1.274816000e+00
11800000.0 -2.117390000e-01 -1.296131000e+00
13600000.0 -1.996710000e-01 -1.315275000e+00
15400000.0 -1.898480000e-01 -1.337880000e+00
17200000.0 -1.748050000e-01 -1.361135000e+00
19000000.0 -1.604400000e-01 -1.385052000e+00
20800000.0 -1.454120000e-01 -1.408748000e+00
22600000.0 -1.279260000e-01 -1.436044000e+00
24400000.0 -1.081140000e-01 -1.463094000e+00
26200000.0 -8.755000000e-02 -1.489553000e+00
28000000.0 -6.341600000e-02 -1.518525000e+00
29800000.0 -3.873100000e-02 -1.547642000e+00
31600000.0 -1.207300000e-02 -1.575708000e+00
33400000.0 1.801300000e-02 -1.604848000e+00
35200000.0 1.129770000e-01 -1.645118000e+00
37000000.0 1.172490000e-01 -1.665722000e+00
38800000.0 1.266990000e-01 -1.693034000e+00
40600000.0 1.682150000e-01 -1.722643000e+00
42400000.0 2.118030000e-01 -1.748130000e+00
44200000.0 2.587180000e-01 -1.776725000e+00
46000000.0 3.119580000e-01 -1.800622000e+00
47800000.0 3.688210000e-01 -1.823076000e+00
49600000.0 4.257280000e-01 -1.844064000e+00
51400000.0 4.901280000e-01 -1.860984000e+00
53200000.0 5.553160000e-01 -1.872302000e+00
55000000.0 6.246630000e-01 -1.880524000e+00
56800000.0 6.985690000e-01 -1.885403000e+00
58600000.0 7.726870000e-01 -1.884378000e+00
60400000.0 8.509980000e-01 -1.876064000e+00
62200000.0 9.270150000e-01 -1.863316000e+00
64000000.0 1.004234000e+00 -1.841259000e+00
65800000.0 1.084063000e+00 -1.811484000e+00
67600000.0 1.160290000e+00 -1.776228000e+00
69400000.0 1.234578000e+00 -1.733323000e+00
71200000.0 1.304093000e+00 -1.683189000e+00
73000000.0 1.369476000e+00 -1.628238000e+00
74800000.0 1.429081000e+00 -1.566414000e+00
76600000.0 1.481940000e+00 -1.502113000e+00
78400000.0 1.526440000e+00 -1.431329000e+00
80200000.0 1.567583000e+00 -1.359298000e+00
82000000.0 1.599520000e+00 -1.284100000e+00
83800000.0 1.624661000e+00 -1.209921000e+00
85600000.0 1.640040000e+00 -1.132234000e+00
87400000.0 1.656440000e+00 -1.063886000e+00
89200000.0 1.661478000e+00 -9.895100000e-01
91000000.0 1.664242000e+00 -9.202650000e-01
92800000.0 1.660649000e+00 -8.559500000e-01
94600000.0 1.652725000e+00 -7.913940000e-01
96400000.0 1.640467000e+00 -7.304830000e-01
98200000.0 1.627310000e+00 -6.736150000e-01
100000000.0 1.608547000e+00 -6.202370000e-01
118000000.0 1.377969000e+00 -2.452070000e-01
136000000.0 1.148120000e+00 -6.815600000e-02
154000000.0 1.001077000e+00 7.450000000e-04
172000000.0 1.002796000e+00 -1.239000000e-03
190000000.0 1.004030000e+00 -8.990000000e-04
208000000.0 1.005816000e+00 -1.498000000e-03
226000000.0 1.005073000e+00 -1.398000000e-03
244000000.0 1.006090000e+00 -9.020000000e-04
262000000.0 1.004632000e+00 -1.935000000e-03
280000000.0 1.013882000e+00 7.126600000e-02
298000000.0 1.002159000e+00 1.300000000e-04
316000000.0 1.003108000e+00 1.009000000e-03
334000000.0 1.005015000e+00 -1.656000000e-03
352000000.0 1.006428000e+00 1.960000000e-03
370000000.0 1.006390000e+00 -6.300000000e-04
388000000.0 1.006295000e+00 1.681000000e-03
406000000.0 1.004068000e+00 3.290000000e-04
424000000.0 1.003693000e+00 -5.280000000e-04
442000000.0 9.986600000e-01 -1.813000000e-03
460000000.0 1.000561000e+00 1.778000000e-03
478000000.0 1.003309000e+00 2.880000000e-03
496000000.0 1.007323000e+00 6.559000000e-03
514000000.0 1.009475000e+00 5.166000000e-03
532000000.0 1.008387000e+00 8.664000000e-03
550000000.0 1.005589000e+00 8.223000000e-03
568000000.0 1.008414000e+00 6.497000000e-03
586000000.0 1.005208000e+00 5.584000000e-03
604000000.0 1.004640000e+00 4.921000000e-03
622000000.0 1.008620000e+00 1.047000000e-02
640000000.0 1.011930000e+00 4.844000000e-03
658000000.0 1.017942000e+00 1.192400000e-02
676000000.0 1.016426000e+00 8.322000000e-03
694000000.0 1.017362000e+00 3.999000000e-03
712000000.0 1.014032000e+00 9.352000000e-03
730000000.0 1.008726000e+00 5.469000000e-03
748000000.0 1.002048000e+00 -1.055000000e-03
766000000.0 1.008500000e+00 -2.508000000e-03
784000000.0 1.010385000e+00 -2.059500000e-02
802000000.0 1.019344000e+00 -4.872000000e-03
820000000.0 1.018035000e+00 1.153100000e-02
838000000.0 1.018345000e+00 -5.309000000e-03
856000000.0 1.015396000e+00 -2.168600000e-02
874000000.0 1.007573000e+00 -4.904000000e-03
892000000.0 1.006571000e+00 1.717500000e-02
910000000.0 1.000928000e+00 1.234600000e-02
928000000.0 1.004964000e+00 -7.081000000e-03
946000000.0 1.005946000e+00 -7.436000000e-03
964000000.0 1.003127000e+00 -1.019300000e-02
982000000.0 1.003069000e+00 -1.235000000e-02
1000000000.0 1.003167000e+00 -1.061200000e-02
1009000000.0 1.001860000e+00 -7.657000000e-03
1018000000.0 1.004901000e+00 -7.312000000e-03
1027000000.0 1.002597000e+00 -7.492000000e-03
1036000000.0 9.989130000e-01 1.775000000e-03
1045000000.0 1.000975000e+00 -5.440000000e-04
1054000000.0 1.000025000e+00 -1.071000000e-03
1063000000.0 1.002414000e+00 -1.140000000e-04
1072000000.0 1.004927000e+00 -1.442000000e-03
1081000000.0 1.003123000e+00 -4.558000000e-03
1090000000.0 9.967700000e-01 3.484000000e-03
1099000000.0 1.003760000e+00 9.008000000e-03
1108000000.0 1.018354000e+00 4.818000000e-02
1117000000.0 9.934740000e-01 -3.500400000e-02
1126000000.0 1.004583000e+00 -5.596000000e-03
1135000000.0 1.005239000e+00 -7.581000000e-03
1144000000.0 1.004165000e+00 -6.835000000e-03
1153000000.0 1.007972000e+00 -3.787000000e-03
1162000000.0 1.003050000e+00 -1.293000000e-03
1171000000.0 1.004740000e+00 -2.417000000e-03
1180000000.0 1.002234000e+00 -2.090000000e-04
1189000000.0 1.005152000e+00 1.126000000e-03
1198000000.0 1.003152000e+00 -6.501000000e-03
1207000000.0 1.004538000e+00 1.308000000e-03
1216000000.0 1.005901000e+00 -4.706000000e-03
1225000000.0 1.001245000e+00 -1.784000000e-03
1234000000.0 1.005264000e+00 -7.057000000e-03
1243000000.0 1.007389000e+00 -4.670000000e-03
1252000000.0 1.003181000e+00 -4.198000000e-03
1261000000.0 1.004799000e+00 -2.114000000e-03
1270000000.0 1.003796000e+00 8.500000000e-04
1279000000.0 1.003991000e+00 -3.273000000e-03
1288000000.0 1.003922000e+00 -2.630000000e-04
1297000000.0 1.004943000e+00 -3.620000000e-03
1306000000.0 1.004163000e+00 -1.013000000e-03
1315000000.0 9.995050000e-01 2.487000000e-03
1324000000.0 1.005472000e+00 1.322000000e-03
1333000000.0 1.004523000e+00 1.222400000e-02
1342000000.0 1.003000000e+00 1.198900000e-02
1351000000.0 9.999240000e-01 -3.621000000e-03
1360000000.0 1.006360000e+00 9.525000000e-03
1369000000.0 1.006392000e+00 9.889000000e-03
1378000000.0 1.001214000e+00 1.108200000e-02
1387000000.0 9.943560000e-01 5.984000000e-03
1396000000.0 1.010810000e+00 1.052200000e-02
1405000000.0 1.002484000e+00 1.683700000e-02
1414000000.0 1.001698000e+00 1.968500000e-02
1423000000.0 1.006234000e+00 1.594100000e-02
1432000000.0 1.001402000e+00 1.122500000e-02
1441000000.0 9.978350000e-01 9.970000000e-03
1450000000.0 1.001865000e+00 1.045200000e-02
