! piloto_saltos / abierto_tramosB / r07
# HZ S RI R 50
50000.0 1.005430000e+00 -6.916500000e-02
52500.0 1.005894000e+00 -6.623000000e-02
55000.0 1.006394000e+00 -6.200800000e-02
57500.0 1.005532000e+00 -5.793000000e-02
60000.0 1.009414000e+00 -5.357300000e-02
62500.0 1.004456000e+00 -5.146100000e-02
65000.0 1.004831000e+00 -4.788200000e-02
67500.0 1.004600000e+00 -4.410700000e-02
70000.0 1.004725000e+00 -4.015300000e-02
72500.0 1.001786000e+00 -3.693600000e-02
75000.0 1.002875000e+00 -3.261300000e-02
77500.0 1.002251000e+00 -3.060800000e-02
80000.0 1.002919000e+00 -2.601600000e-02
82500.0 1.002590000e+00 -2.292500000e-02
85000.0 1.002801000e+00 -1.940200000e-02
87500.0 1.001735000e+00 -1.710300000e-02
90000.0 1.002913000e+00 -1.324300000e-02
92500.0 1.001071000e+00 -1.018100000e-02
95000.0 1.001297000e+00 -7.029000000e-03
97500.0 1.001460000e+00 -3.750000000e-03
100000.0 1.000831000e+00 -1.520000000e-04
102500.0 1.018757000e+00 3.758300000e-02
105000.0 1.001343000e+00 6.029000000e-03
107500.0 9.998260000e-01 9.268000000e-03
110000.0 1.000538000e+00 1.358200000e-02
112500.0 1.000312000e+00 1.564800000e-02
115000.0 1.000118000e+00 1.943000000e-02
117500.0 1.000159000e+00 2.363700000e-02
120000.0 9.996000000e-01 2.620900000e-02
122500.0 1.000649000e+00 2.922600000e-02
125000.0 1.000417000e+00 3.274400000e-02
127500.0 1.000550000e+00 3.609300000e-02
130000.0 1.000584000e+00 3.906700000e-02
132500.0 1.001092000e+00 4.162100000e-02
135000.0 1.001140000e+00 4.548300000e-02
137500.0 1.001695000e+00 5.263600000e-02
140000.0 1.001606000e+00 5.244000000e-02
142500.0 1.000906000e+00 5.437200000e-02
145000.0 1.001364000e+00 5.811600000e-02
147500.0 1.001941000e+00 6.210400000e-02
150000.0 1.002429000e+00 6.519800000e-02
152500.0 1.002203000e+00 6.780400000e-02
155000.0 1.001789000e+00 7.077200000e-02
157500.0 1.002004000e+00 7.437200000e-02
160000.0 1.001980000e+00 7.700000000e-02
162500.0 1.003058000e+00 7.985400000e-02
165000.0 1.002209000e+00 8.376200000e-02
167500.0 1.002407000e+00 8.770700000e-02
170000.0 1.002912000e+00 9.093800000e-02
172500.0 1.002718000e+00 9.327300000e-02
175000.0 1.003018000e+00 9.612800000e-02
177500.0 1.002349000e+00 9.889900000e-02
180000.0 1.002898000e+00 1.023200000e-01
182500.0 1.002910000e+00 1.049200000e-01
185000.0 1.002859000e+00 1.087700000e-01
187500.0 1.004015000e+00 1.116410000e-01
190000.0 1.003886000e+00 1.153720000e-01
192500.0 1.004368000e+00 1.178780000e-01
195000.0 1.003863000e+00 1.214860000e-01
197500.0 1.003370000e+00 1.244050000e-01
200000.0 1.003698000e+00 1.266830000e-01
202500.0 1.003797000e+00 1.301780000e-01
205000.0 1.004034000e+00 1.333660000e-01
207500.0 1.004412000e+00 1.367690000e-01
210000.0 1.004972000e+00 1.400740000e-01
212500.0 1.004606000e+00 1.424190000e-01
215000.0 1.003905000e+00 1.452680000e-01
217500.0 1.004029000e+00 1.485570000e-01
220000.0 1.004100000e+00 1.514240000e-01
222500.0 1.004488000e+00 1.551090000e-01
225000.0 1.004576000e+00 1.571930000e-01
227500.0 1.005597000e+00 1.602000000e-01
230000.0 1.004617000e+00 1.633940000e-01
232500.0 1.004469000e+00 1.664220000e-01
235000.0 1.004856000e+00 1.699820000e-01
237500.0 1.003863000e+00 1.725860000e-01
240000.0 1.005393000e+00 1.754810000e-01
242500.0 1.004879000e+00 1.792250000e-01
245000.0 1.005099000e+00 1.819970000e-01
247500.0 1.005454000e+00 1.850780000e-01
250000.0 1.005407000e+00 1.876680000e-01
252500.0 1.004981000e+00 1.904100000e-01
255000.0 1.006616000e+00 1.932980000e-01
257500.0 1.005945000e+00 1.971280000e-01
260000.0 1.005132000e+00 1.998550000e-01
262500.0 1.006281000e+00 2.029650000e-01
265000.0 1.005691000e+00 2.056170000e-01
267500.0 1.005721000e+00 2.086100000e-01
270000.0 1.005741000e+00 2.115140000e-01
272500.0 1.006846000e+00 2.138110000e-01
275000.0 1.006398000e+00 2.170120000e-01
277500.0 1.006134000e+00 2.195210000e-01
280000.0 1.006504000e+00 2.231140000e-01
282500.0 1.006406000e+00 2.258440000e-01
285000.0 1.006025000e+00 2.287380000e-01
287500.0 1.005605000e+00 2.325960000e-01
290000.0 1.006362000e+00 2.341620000e-01
292500.0 1.006585000e+00 2.373470000e-01
295000.0 1.006273000e+00 2.400630000e-01
297500.0 1.006361000e+00 2.435090000e-01
300000.0 1.006804000e+00 2.462150000e-01
327000.0 1.005030000e+00 2.759190000e-01
354000.0 1.006357000e+00 3.063920000e-01
381000.0 1.007300000e+00 3.363980000e-01
408000.0 1.009110000e+00 3.669370000e-01
435000.0 1.010232000e+00 3.963270000e-01
462000.0 1.010708000e+00 4.260370000e-01
489000.0 1.011368000e+00 4.548740000e-01
516000.0 1.012467000e+00 4.833620000e-01
543000.0 1.013529000e+00 5.124190000e-01
570000.0 1.015761000e+00 5.403270000e-01
597000.0 1.015692000e+00 5.676360000e-01
624000.0 1.019451000e+00 5.956590000e-01
651000.0 1.021635000e+00 6.226350000e-01
678000.0 1.023531000e+00 6.509720000e-01
705000.0 1.025764000e+00 6.763680000e-01
732000.0 1.029666000e+00 7.037350000e-01
759000.0 1.031345000e+00 7.308150000e-01
786000.0 1.035560000e+00 7.572110000e-01
813000.0 1.040017000e+00 7.842390000e-01
840000.0 1.043613000e+00 8.099490000e-01
867000.0 1.049158000e+00 8.348000000e-01
894000.0 1.055824000e+00 8.622080000e-01
921000.0 1.062561000e+00 8.871950000e-01
948000.0 1.067587000e+00 9.119580000e-01
975000.0 1.073063000e+00 9.381550000e-01
1002000.0 1.082104000e+00 9.634450000e-01
1029000.0 1.091048000e+00 9.865450000e-01
1056000.0 1.099995000e+00 1.011570000e+00
1083000.0 1.110848000e+00 1.034875000e+00
1110000.0 1.121850000e+00 1.058824000e+00
1137000.0 1.132874000e+00 1.082581000e+00
1164000.0 1.146297000e+00 1.104790000e+00
1191000.0 1.179552000e+00 1.103498000e+00
1218000.0 1.155946000e+00 1.170605000e+00
1245000.0 1.207829000e+00 1.145942000e+00
1272000.0 1.186528000e+00 1.212757000e+00
1299000.0 1.241750000e+00 1.185424000e+00
1326000.0 1.241500000e+00 1.227566000e+00
1353000.0 1.278883000e+00 1.221380000e+00
1380000.0 1.258801000e+00 1.285694000e+00
1407000.0 1.321051000e+00 1.251910000e+00
1434000.0 1.323699000e+00 1.290533000e+00
1461000.0 1.343945000e+00 1.303004000e+00
1488000.0 1.370388000e+00 1.315524000e+00
1515000.0 1.392455000e+00 1.326226000e+00
1542000.0 1.418753000e+00 1.337457000e+00
1569000.0 1.443447000e+00 1.344980000e+00
1596000.0 1.470449000e+00 1.346282000e+00
1623000.0 1.495545000e+00 1.351303000e+00
1650000.0 1.524896000e+00 1.355753000e+00
1677000.0 1.550573000e+00 1.354471000e+00
1704000.0 1.579460000e+00 1.354318000e+00
1731000.0 1.604718000e+00 1.348461000e+00
1758000.0 1.633813000e+00 1.347674000e+00
1785000.0 1.660636000e+00 1.338845000e+00
1812000.0 1.685712000e+00 1.330579000e+00
1839000.0 1.713088000e+00 1.319609000e+00
1866000.0 1.741016000e+00 1.310425000e+00
1893000.0 1.762091000e+00 1.292261000e+00
1920000.0 1.784588000e+00 1.276301000e+00
1947000.0 1.810686000e+00 1.262015000e+00
1974000.0 1.829437000e+00 1.239321000e+00
2001000.0 1.851069000e+00 1.223577000e+00
2028000.0 1.869829000e+00 1.197361000e+00
2055000.0 1.886557000e+00 1.173319000e+00
2082000.0 1.900438000e+00 1.149330000e+00
2109000.0 1.914121000e+00 1.125930000e+00
2136000.0 1.926548000e+00 1.098817000e+00
2163000.0 1.935841000e+00 1.074425000e+00
2190000.0 1.947293000e+00 1.046815000e+00
2217000.0 1.954300000e+00 1.021534000e+00
2244000.0 1.960025000e+00 9.914770000e-01
2271000.0 1.964390000e+00 9.654480000e-01
2298000.0 1.967835000e+00 9.414890000e-01
2325000.0 1.967355000e+00 9.152990000e-01
2352000.0 1.968121000e+00 8.853440000e-01
2379000.0 1.964000000e+00 8.585200000e-01
2406000.0 1.965127000e+00 8.342320000e-01
2433000.0 1.957059000e+00 8.105160000e-01
2460000.0 1.955010000e+00 7.837460000e-01
2487000.0 1.948745000e+00 7.605340000e-01
2514000.0 1.942733000e+00 7.369460000e-01
2541000.0 1.935461000e+00 7.156220000e-01
2568000.0 1.927445000e+00 6.953530000e-01
2595000.0 1.918094000e+00 6.713160000e-01
2622000.0 1.907792000e+00 6.501510000e-01
2649000.0 1.898093000e+00 6.312210000e-01
2676000.0 1.887646000e+00 6.125290000e-01
2703000.0 1.876257000e+00 5.951250000e-01
2730000.0 1.868597000e+00 5.786990000e-01
2757000.0 1.857130000e+00 5.599370000e-01
2784000.0 1.843980000e+00 5.451070000e-01
2811000.0 1.833835000e+00 5.286100000e-01
2838000.0 1.822622000e+00 5.122750000e-01
2865000.0 1.810635000e+00 5.015470000e-01
2892000.0 1.797198000e+00 4.854010000e-01
2919000.0 1.786418000e+00 4.732530000e-01
2946000.0 1.773873000e+00 4.575820000e-01
2973000.0 1.762621000e+00 4.466350000e-01
3000000.0 1.751077000e+00 4.347470000e-01
3270000.0 1.639680000e+00 3.362020000e-01
3540000.0 1.547329000e+00 2.653940000e-01
3810000.0 1.468461000e+00 2.089620000e-01
4080000.0 1.407961000e+00 1.616640000e-01
4350000.0 1.359241000e+00 1.199110000e-01
4620000.0 1.321762000e+00 7.799100000e-02
4890000.0 1.294888000e+00 4.035500000e-02
5160000.0 1.270927000e+00 3.294000000e-03
5430000.0 1.257126000e+00 -3.472000000e-02
5700000.0 1.247580000e+00 -6.688600000e-02
5970000.0 1.239357000e+00 -1.004110000e-01
6240000.0 1.231079000e+00 -1.294060000e-01
6510000.0 1.226419000e+00 -1.529420000e-01
6780000.0 1.222246000e+00 -1.726910000e-01
7050000.0 1.220206000e+00 -1.872970000e-01
7320000.0 1.219244000e+00 -1.919100000e-01
7590000.0 -2.418150000e-01 -1.258398000e+00
7860000.0 -2.401220000e-01 -1.259801000e+00
8130000.0 -2.374060000e-01 -1.259706000e+00
8400000.0 -2.350140000e-01 -1.262298000e+00
8670000.0 -2.327310000e-01 -1.264741000e+00
8940000.0 -3.041830000e-01 -1.152081000e+00
9210000.0 -2.305950000e-01 -1.267993000e+00
9480000.0 -2.272530000e-01 -1.269843000e+00
9750000.0 -2.264910000e-01 -1.273707000e+00
10020000.0 -2.238340000e-01 -1.276102000e+00
10290000.0 -2.220400000e-01 -1.278849000e+00
10560000.0 -2.202740000e-01 -1.281435000e+00
10830000.0 -2.182570000e-01 -1.282441000e+00
11100000.0 -2.175820000e-01 -1.286651000e+00
11370000.0 -2.152670000e-01 -1.288799000e+00
11640000.0 -2.139060000e-01 -1.292322000e+00
11910000.0 -2.113920000e-01 -1.294251000e+00
12180000.0 -2.100270000e-01 -1.296986000e+00
12450000.0 -2.090860000e-01 -1.300782000e+00
12720000.0 -2.069360000e-01 -1.303727000e+00
12990000.0 -2.055900000e-01 -1.306823000e+00
13260000.0 -2.025150000e-01 -1.310012000e+00
13530000.0 -2.010960000e-01 -1.313205000e+00
13800000.0 -1.995130000e-01 -1.315710000e+00
14070000.0 -1.970300000e-01 -1.319824000e+00
14340000.0 -1.951200000e-01 -1.324426000e+00
14610000.0 -1.945400000e-01 -1.326566000e+00
14880000.0 -1.932370000e-01 -1.330548000e+00
15150000.0 -1.891280000e-01 -1.333162000e+00
15420000.0 -1.887580000e-01 -1.336937000e+00
15690000.0 -1.865510000e-01 -1.341182000e+00
15960000.0 -1.849460000e-01 -1.344959000e+00
16230000.0 -1.833240000e-01 -1.347539000e+00
16500000.0 -1.803010000e-01 -1.350986000e+00
16770000.0 -1.784760000e-01 -1.354837000e+00
17040000.0 -1.765280000e-01 -1.358429000e+00
17310000.0 -1.747290000e-01 -1.363539000e+00
17580000.0 -1.730230000e-01 -1.365215000e+00
17850000.0 -1.717260000e-01 -1.369809000e+00
18120000.0 -1.692800000e-01 -1.371374000e+00
18390000.0 -1.656040000e-01 -1.376575000e+00
18660000.0 -1.641640000e-01 -1.380534000e+00
18930000.0 -1.609850000e-01 -1.384213000e+00
19200000.0 -1.848300000e-01 -1.382383000e+00
19470000.0 -1.321080000e-01 -1.395815000e+00
19740000.0 -1.802750000e-01 -1.390126000e+00
20010000.0 -1.268800000e-01 -1.402013000e+00
20280000.0 -1.752640000e-01 -1.398116000e+00
20550000.0 -1.215330000e-01 -1.410954000e+00
20820000.0 -1.699830000e-01 -1.406053000e+00
21090000.0 -1.422470000e-01 -1.414035000e+00
21360000.0 -1.397300000e-01 -1.418632000e+00
21630000.0 -1.370600000e-01 -1.421035000e+00
21900000.0 -1.357500000e-01 -1.426682000e+00
22170000.0 -1.322320000e-01 -1.429480000e+00
22440000.0 -1.297190000e-01 -1.433424000e+00
22710000.0 -1.270520000e-01 -1.437784000e+00
22980000.0 -1.231560000e-01 -1.441379000e+00
23250000.0 -1.207350000e-01 -1.445795000e+00
23520000.0 -1.181870000e-01 -1.450069000e+00
23790000.0 -1.150270000e-01 -1.452888000e+00
24060000.0 -1.115890000e-01 -1.457952000e+00
24330000.0 -1.097360000e-01 -1.461756000e+00
24600000.0 -1.073430000e-01 -1.466482000e+00
24870000.0 -1.033520000e-01 -1.468966000e+00
25140000.0 -9.919300000e-02 -1.474632000e+00
25410000.0 -9.633100000e-02 -1.478607000e+00
25680000.0 -9.311300000e-02 -1.483036000e+00
25950000.0 -8.928200000e-02 -1.486216000e+00
26220000.0 -8.783600000e-02 -1.491146000e+00
26490000.0 -8.485400000e-02 -1.494409000e+00
26760000.0 -7.928200000e-02 -1.499738000e+00
27030000.0 -7.679800000e-02 -1.503707000e+00
27300000.0 -7.409000000e-02 -1.507455000e+00
27570000.0 -6.922500000e-02 -1.511518000e+00
27840000.0 -6.490700000e-02 -1.515782000e+00
28110000.0 -6.232700000e-02 -1.520389000e+00
28380000.0 -5.944600000e-02 -1.525297000e+00
28650000.0 -5.563600000e-02 -1.529195000e+00
28920000.0 -5.111600000e-02 -1.533691000e+00
29190000.0 -4.704300000e-02 -1.537574000e+00
29460000.0 -4.379000000e-02 -1.542096000e+00
29730000.0 -3.910300000e-02 -1.545828000e+00
30000000.0 -3.594100000e-02 -1.549866000e+00
32700000.0 5.773000000e-03 -1.592953000e+00
35400000.0 5.485400000e-02 -1.638896000e+00
38100000.0 1.114930000e-01 -1.682888000e+00
40800000.0 1.721340000e-01 -1.724284000e+00
43500000.0 2.419650000e-01 -1.766602000e+00
46200000.0 3.170790000e-01 -1.803702000e+00
48900000.0 4.046660000e-01 -1.833956000e+00
51600000.0 4.960640000e-01 -1.861370000e+00
54300000.0 5.972490000e-01 -1.879595000e+00
57000000.0 7.066150000e-01 -1.885119000e+00
59700000.0 8.187650000e-01 -1.879529000e+00
62400000.0 9.379930000e-01 -1.859283000e+00
65100000.0 1.054546000e+00 -1.822897000e+00
67800000.0 1.168537000e+00 -1.773345000e+00
70500000.0 1.276769000e+00 -1.705117000e+00
73200000.0 1.371873000e+00 -1.622575000e+00
75900000.0 1.459901000e+00 -1.529012000e+00
78600000.0 1.531934000e+00 -1.423319000e+00
81300000.0 1.587726000e+00 -1.313089000e+00
84000000.0 1.627917000e+00 -1.199879000e+00
86700000.0 1.651218000e+00 -1.089600000e+00
89400000.0 1.662283000e+00 -9.824480000e-01
92100000.0 1.661691000e+00 -8.812200000e-01
94800000.0 1.651405000e+00 -7.851700000e-01
97500000.0 1.633681000e+00 -6.946570000e-01
100200000.0 1.610096000e+00 -6.163560000e-01
102900000.0 1.579813000e+00 -5.398580000e-01
105600000.0 1.544293000e+00 -4.731630000e-01
108300000.0 1.511695000e+00 -4.114140000e-01
111000000.0 1.473576000e+00 -3.590420000e-01
113700000.0 1.436021000e+00 -3.104400000e-01
116400000.0 1.399448000e+00 -2.672570000e-01
119100000.0 1.362193000e+00 -2.281170000e-01
121800000.0 1.325339000e+00 -1.939930000e-01
124500000.0 1.288645000e+00 -1.632580000e-01
127200000.0 1.254582000e+00 -1.355190000e-01
129900000.0 1.219766000e+00 -1.113190000e-01
132600000.0 1.187696000e+00 -8.849900000e-02
135300000.0 1.157821000e+00 -7.319100000e-02
138000000.0 1.124982000e+00 -5.593100000e-02
140700000.0 1.096514000e+00 -3.917600000e-02
143400000.0 1.066310000e+00 -2.669700000e-02
146100000.0 1.039469000e+00 -1.379100000e-02
148800000.0 1.011473000e+00 -5.248000000e-03
151500000.0 1.000525000e+00 1.646000000e-03
154200000.0 1.000618000e+00 5.190000000e-04
156900000.0 1.000901000e+00 8.710000000e-04
159600000.0 1.000962000e+00 2.300000000e-04
162300000.0 1.002210000e+00 4.810000000e-04
165000000.0 1.002434000e+00 -1.266000000e-03
167700000.0 1.003413000e+00 -2.200000000e-04
170400000.0 1.001902000e+00 -9.250000000e-04
173100000.0 1.002745000e+00 2.590000000e-04
175800000.0 1.003746000e+00 -5.140000000e-04
178500000.0 1.004016000e+00 -7.140000000e-04
181200000.0 1.003655000e+00 7.590000000e-04
183900000.0 1.004383000e+00 -1.019000000e-03
186600000.0 1.004962000e+00 -4.790000000e-04
189300000.0 1.002753000e+00 -1.082000000e-03
192000000.0 1.004665000e+00 -7.130000000e-04
194700000.0 1.003506000e+00 -1.600000000e-03
197400000.0 1.005480000e+00 -1.178000000e-03
200100000.0 1.005073000e+00 -1.444000000e-03
202800000.0 1.006424000e+00 -1.223000000e-03
205500000.0 1.005998000e+00 -1.484000000e-03
208200000.0 1.004794000e+00 -5.070000000e-04
210900000.0 1.005424000e+00 -1.882000000e-03
213600000.0 1.006304000e+00 -1.946000000e-03
216300000.0 1.006947000e+00 -3.160000000e-04
219000000.0 1.006353000e+00 -1.513000000e-03
221700000.0 1.007042000e+00 -5.530000000e-04
224400000.0 1.007004000e+00 -2.292000000e-03
227100000.0 1.005799000e+00 -2.413000000e-03
229800000.0 1.005164000e+00 -1.820000000e-03
232500000.0 1.006307000e+00 -1.430000000e-03
235200000.0 1.005925000e+00 -1.430000000e-03
237900000.0 1.006705000e+00 -8.880000000e-04
240600000.0 1.005898000e+00 -8.150000000e-04
243300000.0 1.004272000e+00 -1.655000000e-03
246000000.0 1.006342000e+00 -6.350000000e-04
248700000.0 1.007347000e+00 3.730000000e-04
251400000.0 1.005669000e+00 -1.327000000e-03
254100000.0 1.005229000e+00 4.030000000e-04
256800000.0 1.003977000e+00 -1.445000000e-03
259500000.0 1.005794000e+00 -8.140000000e-04
262200000.0 1.004444000e+00 -1.177000000e-03
264900000.0 1.005519000e+00 -1.230000000e-03
267600000.0 1.004925000e+00 -8.300000000e-04
270300000.0 1.005111000e+00 -1.255000000e-03
273000000.0 1.004441000e+00 -3.340000000e-04
275700000.0 1.004262000e+00 -9.650000000e-04
278400000.0 1.000684000e+00 1.670000000e-04
281100000.0 1.004148000e+00 -1.691000000e-03
283800000.0 1.004346000e+00 -8.210000000e-04
286500000.0 1.003598000e+00 -1.109000000e-03
289200000.0 1.002028000e+00 1.219000000e-03
291900000.0 1.002833000e+00 -4.470000000e-04
294600000.0 1.002056000e+00 -3.061000000e-03
297300000.0 1.002748000e+00 -5.510000000e-04
300000000.0 1.001178000e+00 -1.920000000e-04
311500000.0 1.003579000e+00 7.000000000e-06
323000000.0 1.004488000e+00 -7.560000000e-04
334500000.0 1.004371000e+00 3.810000000e-04
346000000.0 1.005659000e+00 1.950000000e-04
357500000.0 1.006958000e+00 -6.280000000e-04
369000000.0 1.007432000e+00 2.829000000e-03
380500000.0 1.006511000e+00 2.058000000e-03
392000000.0 1.006614000e+00 1.166000000e-03
403500000.0 1.004339000e+00 -1.000000000e-05
415000000.0 1.003123000e+00 1.011000000e-03
426500000.0 1.003248000e+00 2.278000000e-03
438000000.0 1.001547000e+00 3.025000000e-03
449500000.0 1.000469000e+00 -1.900000000e-05
461000000.0 1.001910000e+00 3.364000000e-03
472500000.0 1.002459000e+00 3.873000000e-03
484000000.0 1.004948000e+00 4.936000000e-03
495500000.0 1.006259000e+00 1.694000000e-03
507000000.0 1.006332000e+00 6.920000000e-03
518500000.0 1.008058000e+00 4.713000000e-03
530000000.0 1.007114000e+00 6.706000000e-03
541500000.0 1.007868000e+00 6.337000000e-03
553000000.0 1.007467000e+00 1.000600000e-02
564500000.0 1.007518000e+00 9.794000000e-03
576000000.0 1.004248000e+00 7.092000000e-03
587500000.0 1.004084000e+00 6.853000000e-03
599000000.0 1.002514000e+00 6.575000000e-03
610500000.0 1.009459000e+00 5.539000000e-03
622000000.0 9.443540000e-01 -1.347520000e-01
633500000.0 1.014168000e+00 8.862000000e-03
645000000.0 1.015740000e+00 7.487000000e-03
656500000.0 1.014825000e+00 7.425000000e-03
668000000.0 1.015174000e+00 9.055000000e-03
679500000.0 1.014342000e+00 5.858000000e-03
691000000.0 1.014181000e+00 9.497000000e-03
702500000.0 1.023393000e+00 4.305600000e-02
714000000.0 1.010794000e+00 4.657000000e-03
725500000.0 1.008467000e+00 8.347000000e-03
737000000.0 1.006893000e+00 6.075000000e-03
748500000.0 1.002073000e+00 1.901000000e-03
760000000.0 1.002695000e+00 -4.900000000e-04
771500000.0 1.009834000e+00 1.427000000e-03
783000000.0 1.013664000e+00 -7.212000000e-03
794500000.0 1.015411000e+00 -4.915000000e-03
806000000.0 1.016549000e+00 -3.441000000e-03
817500000.0 1.016839000e+00 -7.150000000e-03
829000000.0 1.019489000e+00 -3.438000000e-03
840500000.0 1.019226000e+00 -5.628000000e-03
852000000.0 1.016914000e+00 -3.025000000e-03
863500000.0 1.014000000e+00 -5.668000000e-03
875000000.0 1.010688000e+00 -6.973000000e-03
886500000.0 1.004022000e+00 -7.214000000e-03
898000000.0 1.002883000e+00 1.340000000e-04
909500000.0 1.002456000e+00 -1.922100000e-02
921000000.0 1.006341000e+00 -2.011000000e-03
932500000.0 1.005187000e+00 1.298300000e-02
944000000.0 1.006330000e+00 -8.489000000e-03
955500000.0 1.007169000e+00 -8.118000000e-03
967000000.0 1.004495000e+00 -1.346000000e-02
978500000.0 1.005720000e+00 8.251000000e-03
990000000.0 1.003791000e+00 -4.764000000e-03
1001500000.0 1.002234000e+00 -2.735800000e-02
1013000000.0 1.003066000e+00 -7.219000000e-03
1024500000.0 9.987460000e-01 -9.098000000e-03
1036000000.0 1.001904000e+00 -1.476000000e-03
1047500000.0 1.001355000e+00 -2.375000000e-03
1059000000.0 1.003128000e+00 4.250000000e-04
1070500000.0 9.989950000e-01 -5.708000000e-03
1082000000.0 1.001149000e+00 -2.393000000e-03
1093500000.0 1.009518000e+00 -3.300000000e-03
1105000000.0 1.009309000e+00 -2.300000000e-04
1116500000.0 1.006884000e+00 -2.928000000e-03
1128000000.0 1.011902000e+00 -3.362500000e-02
1139500000.0 1.005372000e+00 -1.017300000e-02
1151000000.0 1.004103000e+00 -8.517000000e-03
1162500000.0 1.006653000e+00 -3.303000000e-03
1174000000.0 1.006769000e+00 -2.255000000e-03
1185500000.0 1.001283000e+00 -5.410000000e-03
1197000000.0 1.004264000e+00 -1.533000000e-03
1208500000.0 1.008895000e+00 -4.922000000e-03
1220000000.0 1.004037000e+00 -5.597000000e-03
1231500000.0 1.007071000e+00 -2.000000000e-03
1243000000.0 1.003028000e+00 -4.863000000e-03
1254500000.0 1.002571000e+00 2.000000000e-05
1266000000.0 1.004796000e+00 -8.406000000e-03
1277500000.0 1.003660000e+00 1.930000000e-04
1289000000.0 1.003883000e+00 4.914000000e-03
1300500000.0 1.003389000e+00 -1.235000000e-02
1312000000.0 9.978710000e-01 9.080000000e-04
1323500000.0 1.007864000e+00 2.871000000e-03
1335000000.0 1.003450000e+00 -3.830000000e-04
1346500000.0 1.002397000e+00 7.642000000e-03
1358000000.0 9.980700000e-01 1.299500000e-02
1369500000.0 1.007456000e+00 8.565000000e-03
1381000000.0 1.008506000e+00 1.153100000e-02
1392500000.0 1.004945000e+00 1.734200000e-02
1404000000.0 1.004464000e+00 3.144300000e-02
1415500000.0 1.005340000e+00 1.976300000e-02
1427000000.0 1.012612000e+00 1.699200000e-02
1438500000.0 1.003696000e+00 1.124000000e-02
1450000000.0 1.000817000e+00 9.255000000e-03
