! piloto_saltos / abierto_101puntos / r03
# HZ S RI R 50
50000.0 1.006773000e+00 -6.978900000e-02
59500.0 1.003313000e+00 -5.627000000e-02
69000.0 1.003139000e+00 -4.024900000e-02
78500.0 1.002023000e+00 -2.868200000e-02
88000.0 1.001920000e+00 -1.725800000e-02
97500.0 1.000578000e+00 -4.392000000e-03
107000.0 1.000962000e+00 9.248000000e-03
116500.0 1.000784000e+00 2.095900000e-02
126000.0 1.003440000e+00 3.261200000e-02
135500.0 1.001274000e+00 4.458700000e-02
145000.0 1.001747000e+00 5.839300000e-02
154500.0 1.002501000e+00 6.995400000e-02
164000.0 1.002201000e+00 8.178800000e-02
173500.0 1.002850000e+00 9.409000000e-02
183000.0 1.002722000e+00 1.060660000e-01
192500.0 1.003008000e+00 1.178180000e-01
202000.0 1.003726000e+00 1.292040000e-01
211500.0 1.003890000e+00 1.409850000e-01
221000.0 1.004002000e+00 1.530030000e-01
230500.0 1.004867000e+00 1.641520000e-01
240000.0 9.816090000e-01 1.077170000e-01
249500.0 1.005371000e+00 1.862860000e-01
259000.0 1.005473000e+00 1.983430000e-01
268500.0 1.005568000e+00 2.088750000e-01
278000.0 1.005862000e+00 2.212910000e-01
287500.0 1.006607000e+00 2.313200000e-01
297000.0 1.006486000e+00 2.428840000e-01
306500.0 1.007578000e+00 2.536030000e-01
316000.0 1.007462000e+00 2.646500000e-01
325500.0 1.007301000e+00 2.756210000e-01
335000.0 1.007645000e+00 2.866970000e-01
344500.0 1.007573000e+00 2.972020000e-01
354000.0 1.008662000e+00 3.074580000e-01
363500.0 1.008036000e+00 3.183470000e-01
373000.0 1.008622000e+00 3.288510000e-01
382500.0 1.007891000e+00 3.402050000e-01
392000.0 1.008554000e+00 3.497900000e-01
401500.0 1.004303000e+00 3.781720000e-01
411000.0 1.013898000e+00 3.524260000e-01
420500.0 1.004907000e+00 3.999820000e-01
430000.0 1.015791000e+00 3.732600000e-01
439500.0 1.004703000e+00 4.198660000e-01
449000.0 1.015896000e+00 3.926690000e-01
458500.0 1.005648000e+00 4.405030000e-01
468000.0 1.016715000e+00 4.136610000e-01
477500.0 1.005875000e+00 4.616100000e-01
487000.0 1.018055000e+00 4.341300000e-01
496500.0 1.011812000e+00 4.626460000e-01
506000.0 1.012821000e+00 4.728380000e-01
515500.0 1.013522000e+00 4.828330000e-01
525000.0 1.013701000e+00 4.927610000e-01
534500.0 1.014311000e+00 5.032690000e-01
544000.0 1.014045000e+00 5.112430000e-01
553500.0 1.015068000e+00 5.226140000e-01
563000.0 1.014957000e+00 5.326010000e-01
572500.0 1.015494000e+00 5.428950000e-01
582000.0 1.016652000e+00 5.528800000e-01
591500.0 1.016324000e+00 5.620530000e-01
601000.0 1.017541000e+00 5.718050000e-01
610500.0 1.017834000e+00 5.823320000e-01
620000.0 1.019123000e+00 5.907170000e-01
629500.0 1.018656000e+00 6.012040000e-01
639000.0 1.019045000e+00 6.100520000e-01
648500.0 1.020263000e+00 6.201980000e-01
658000.0 1.020758000e+00 6.295550000e-01
667500.0 1.022285000e+00 6.389870000e-01
677000.0 1.021998000e+00 6.491890000e-01
686500.0 1.023995000e+00 6.583190000e-01
696000.0 1.024339000e+00 6.676690000e-01
705500.0 1.026982000e+00 6.783040000e-01
715000.0 1.025949000e+00 6.870670000e-01
724500.0 1.027723000e+00 6.964420000e-01
734000.0 1.027454000e+00 7.067070000e-01
743500.0 1.029071000e+00 7.148170000e-01
753000.0 1.032668000e+00 7.245780000e-01
762500.0 1.032421000e+00 7.345970000e-01
772000.0 1.031925000e+00 7.435310000e-01
781500.0 1.034126000e+00 7.525230000e-01
791000.0 1.036375000e+00 7.623110000e-01
800500.0 1.038333000e+00 7.720120000e-01
810000.0 1.039735000e+00 7.807330000e-01
819500.0 1.040573000e+00 7.901900000e-01
829000.0 1.040934000e+00 7.988840000e-01
838500.0 1.044687000e+00 8.076200000e-01
848000.0 1.045267000e+00 8.164530000e-01
857500.0 1.046649000e+00 8.260940000e-01
867000.0 1.049414000e+00 8.356840000e-01
876500.0 1.050761000e+00 8.440120000e-01
886000.0 1.053957000e+00 8.536900000e-01
895500.0 1.055363000e+00 8.620480000e-01
905000.0 1.055348000e+00 8.711400000e-01
914500.0 1.059350000e+00 8.806410000e-01
924000.0 1.060971000e+00 8.892440000e-01
933500.0 1.064614000e+00 8.977100000e-01
943000.0 1.066673000e+00 9.072310000e-01
952500.0 1.067557000e+00 9.157600000e-01
962000.0 1.071726000e+00 9.251740000e-01
971500.0 1.073729000e+00 9.337720000e-01
981000.0 1.075214000e+00 9.430530000e-01
990500.0 1.079627000e+00 9.501870000e-01
1000000.0 1.082098000e+00 9.609480000e-01
1090000.0 1.110099000e+00 1.038978000e+00
1180000.0 1.151503000e+00 1.117137000e+00
1270000.0 1.201788000e+00 1.186006000e+00
1360000.0 1.261097000e+00 1.247676000e+00
1450000.0 1.333825000e+00 1.298779000e+00
1540000.0 1.411958000e+00 1.334160000e+00
1630000.0 1.500352000e+00 1.355742000e+00
1720000.0 1.590554000e+00 1.355210000e+00
1810000.0 1.683458000e+00 1.331317000e+00
1900000.0 1.766216000e+00 1.290283000e+00
1990000.0 1.839940000e+00 1.231734000e+00
2080000.0 1.901966000e+00 1.155941000e+00
2170000.0 1.938409000e+00 1.072215000e+00
2260000.0 1.962267000e+00 9.835950000e-01
2350000.0 1.968452000e+00 8.957940000e-01
2440000.0 1.962386000e+00 8.066700000e-01
2530000.0 1.939669000e+00 7.279610000e-01
2620000.0 1.914337000e+00 6.548540000e-01
2710000.0 1.878207000e+00 5.886520000e-01
2800000.0 1.840348000e+00 5.380700000e-01
2890000.0 1.801521000e+00 4.852890000e-01
2980000.0 1.761461000e+00 4.416600000e-01
3070000.0 1.721488000e+00 4.046950000e-01
3160000.0 1.684865000e+00 3.709950000e-01
3250000.0 1.650348000e+00 3.433390000e-01
3340000.0 1.617484000e+00 3.155030000e-01
3430000.0 1.583410000e+00 2.931160000e-01
3520000.0 1.552033000e+00 2.681930000e-01
3610000.0 1.525782000e+00 2.511940000e-01
3700000.0 1.501099000e+00 2.313250000e-01
3790000.0 1.475423000e+00 2.141580000e-01
3880000.0 1.452661000e+00 1.987760000e-01
3970000.0 1.431058000e+00 1.800980000e-01
4060000.0 1.411963000e+00 1.666650000e-01
4150000.0 1.394046000e+00 1.508510000e-01
4240000.0 1.377608000e+00 1.367450000e-01
4330000.0 1.363766000e+00 1.220330000e-01
4420000.0 1.348550000e+00 1.082600000e-01
4510000.0 1.336299000e+00 9.442200000e-02
4600000.0 1.325656000e+00 8.230200000e-02
4690000.0 1.315511000e+00 6.923700000e-02
4780000.0 1.305319000e+00 5.648000000e-02
4870000.0 1.298059000e+00 4.293200000e-02
4960000.0 1.289794000e+00 3.005900000e-02
5050000.0 1.276250000e+00 1.859500000e-02
5140000.0 1.270475000e+00 5.879000000e-03
5230000.0 1.267215000e+00 -6.594000000e-03
5320000.0 1.262025000e+00 -1.922500000e-02
5410000.0 1.259459000e+00 -3.076600000e-02
5500000.0 1.254520000e+00 -4.209000000e-02
5590000.0 1.250705000e+00 -5.392000000e-02
5680000.0 1.246959000e+00 -6.556900000e-02
5770000.0 1.244411000e+00 -7.657000000e-02
5860000.0 1.241975000e+00 -8.737300000e-02
5950000.0 1.239133000e+00 -9.670800000e-02
6040000.0 1.236269000e+00 -1.070020000e-01
6130000.0 1.234984000e+00 -1.169730000e-01
6220000.0 1.230481000e+00 -1.268680000e-01
6310000.0 1.230054000e+00 -1.346320000e-01
6400000.0 1.228285000e+00 -1.434330000e-01
6490000.0 1.223315000e+00 -1.705730000e-01
6580000.0 1.224797000e+00 -1.577320000e-01
6670000.0 1.223062000e+00 -1.651120000e-01
6760000.0 1.222109000e+00 -1.716420000e-01
6850000.0 1.222278000e+00 -1.759890000e-01
6940000.0 1.220471000e+00 -1.806110000e-01
7030000.0 1.219827000e+00 -1.848660000e-01
7120000.0 1.218683000e+00 -1.885450000e-01
7210000.0 1.219122000e+00 -1.915330000e-01
7300000.0 1.219960000e+00 -1.917560000e-01
7390000.0 1.219192000e+00 -1.929580000e-01
7480000.0 1.219246000e+00 -1.937160000e-01
7570000.0 -2.427170000e-01 -1.259590000e+00
7660000.0 -2.422580000e-01 -1.258374000e+00
7750000.0 -2.410960000e-01 -1.258570000e+00
7840000.0 -2.397050000e-01 -1.260607000e+00
7930000.0 -2.391510000e-01 -1.260286000e+00
8020000.0 -2.392840000e-01 -1.259756000e+00
8110000.0 -2.378430000e-01 -1.260597000e+00
8200000.0 -2.378280000e-01 -1.261297000e+00
8290000.0 -2.378640000e-01 -1.263662000e+00
8380000.0 -2.357210000e-01 -1.262774000e+00
8470000.0 -2.344490000e-01 -1.263665000e+00
8560000.0 -2.350360000e-01 -1.263220000e+00
8650000.0 -2.344140000e-01 -1.264624000e+00
8740000.0 -2.334480000e-01 -1.264754000e+00
8830000.0 -2.328770000e-01 -1.265604000e+00
8920000.0 -2.333230000e-01 -1.265953000e+00
9010000.0 -2.310890000e-01 -1.268335000e+00
9100000.0 -2.306240000e-01 -1.267943000e+00
9190000.0 -2.303060000e-01 -1.267925000e+00
9280000.0 -2.292730000e-01 -1.269689000e+00
9370000.0 -2.291210000e-01 -1.269313000e+00
9460000.0 -2.275770000e-01 -1.270205000e+00
9550000.0 -2.284920000e-01 -1.272344000e+00
9640000.0 -2.261310000e-01 -1.272167000e+00
9730000.0 -2.268520000e-01 -1.273569000e+00
9820000.0 -2.261330000e-01 -1.274413000e+00
9910000.0 -2.257520000e-01 -1.274706000e+00
10000000.0 -2.248790000e-01 -1.276397000e+00
10900000.0 -2.195290000e-01 -1.284553000e+00
11800000.0 -2.123510000e-01 -1.293180000e+00
12700000.0 -2.060160000e-01 -1.303710000e+00
13600000.0 -2.008030000e-01 -1.314959000e+00
14500000.0 -1.936060000e-01 -1.326612000e+00
15400000.0 -1.882320000e-01 -1.337378000e+00
16300000.0 -1.823990000e-01 -1.349034000e+00
17200000.0 -1.760740000e-01 -1.360506000e+00
18100000.0 -1.686220000e-01 -1.372960000e+00
19000000.0 -1.613430000e-01 -1.384315000e+00
19900000.0 -1.527120000e-01 -1.397207000e+00
20800000.0 -1.452100000e-01 -1.410481000e+00
21700000.0 -1.370190000e-01 -1.422266000e+00
22600000.0 -1.274600000e-01 -1.435518000e+00
23500000.0 -1.193520000e-01 -1.451146000e+00
24400000.0 -1.081800000e-01 -1.461619000e+00
25300000.0 -9.738700000e-02 -1.476165000e+00
26200000.0 -8.734100000e-02 -1.489284000e+00
27100000.0 -7.476200000e-02 -1.506265000e+00
28000000.0 -6.332600000e-02 -1.518683000e+00
28900000.0 -5.068400000e-02 -1.534131000e+00
29800000.0 -3.762600000e-02 -1.546698000e+00
30700000.0 -2.456600000e-02 -1.560500000e+00
31600000.0 -1.182100000e-02 -1.575549000e+00
32500000.0 2.354000000e-03 -1.591792000e+00
33400000.0 1.897300000e-02 -1.605071000e+00
34300000.0 3.564900000e-02 -1.619942000e+00
35200000.0 5.167600000e-02 -1.634550000e+00
36100000.0 6.918400000e-02 -1.649525000e+00
37000000.0 8.756100000e-02 -1.663934000e+00
37900000.0 1.057450000e-01 -1.679675000e+00
38800000.0 1.253020000e-01 -1.693523000e+00
39700000.0 1.458560000e-01 -1.708421000e+00
40600000.0 1.670850000e-01 -1.721833000e+00
41500000.0 1.881330000e-01 -1.734637000e+00
42400000.0 2.110130000e-01 -1.749979000e+00
43300000.0 2.363800000e-01 -1.763596000e+00
44200000.0 2.598110000e-01 -1.776099000e+00
45100000.0 2.859530000e-01 -1.788445000e+00
46000000.0 3.116250000e-01 -1.800515000e+00
46900000.0 3.389270000e-01 -1.812113000e+00
47800000.0 3.667930000e-01 -1.824029000e+00
48700000.0 3.966560000e-01 -1.831770000e+00
49600000.0 4.260930000e-01 -1.843512000e+00
50500000.0 4.576550000e-01 -1.852340000e+00
51400000.0 4.891140000e-01 -1.858146000e+00
52300000.0 5.229830000e-01 -1.867678000e+00
53200000.0 5.557560000e-01 -1.873282000e+00
54100000.0 5.888630000e-01 -1.878139000e+00
55000000.0 6.246580000e-01 -1.881925000e+00
55900000.0 6.597790000e-01 -1.886638000e+00
56800000.0 7.000030000e-01 -1.885579000e+00
57700000.0 7.350180000e-01 -1.885013000e+00
58600000.0 7.713780000e-01 -1.883768000e+00
59500000.0 8.099020000e-01 -1.880143000e+00
60400000.0 8.496390000e-01 -1.875765000e+00
61300000.0 8.879960000e-01 -1.869482000e+00
62200000.0 9.263120000e-01 -1.862379000e+00
63100000.0 9.657780000e-01 -1.852483000e+00
64000000.0 1.004342000e+00 -1.840685000e+00
64900000.0 1.046057000e+00 -1.827155000e+00
65800000.0 1.086483000e+00 -1.812854000e+00
66700000.0 1.122642000e+00 -1.795493000e+00
67600000.0 1.160301000e+00 -1.775159000e+00
68500000.0 1.197295000e+00 -1.756505000e+00
69400000.0 1.231831000e+00 -1.735030000e+00
70300000.0 1.270757000e+00 -1.709319000e+00
71200000.0 1.305021000e+00 -1.683896000e+00
72100000.0 1.337387000e+00 -1.657040000e+00
73000000.0 1.368766000e+00 -1.626556000e+00
73900000.0 1.398433000e+00 -1.596998000e+00
74800000.0 1.426388000e+00 -1.567011000e+00
75700000.0 1.454622000e+00 -1.534990000e+00
76600000.0 1.479779000e+00 -1.500618000e+00
77500000.0 1.505660000e+00 -1.467469000e+00
78400000.0 1.527340000e+00 -1.432988000e+00
79300000.0 1.548778000e+00 -1.395869000e+00
80200000.0 1.568236000e+00 -1.357576000e+00
81100000.0 1.585218000e+00 -1.321221000e+00
82000000.0 1.599857000e+00 -1.285173000e+00
82900000.0 1.611945000e+00 -1.247198000e+00
83800000.0 1.625114000e+00 -1.209808000e+00
84700000.0 1.635248000e+00 -1.172463000e+00
85600000.0 1.645007000e+00 -1.135296000e+00
86500000.0 1.650964000e+00 -1.098540000e+00
87400000.0 1.639004000e+00 -1.091878000e+00
88300000.0 1.678524000e+00 -9.945860000e-01
89200000.0 1.644891000e+00 -1.021341000e+00
90100000.0 1.681888000e+00 -9.262610000e-01
91000000.0 1.647893000e+00 -9.521520000e-01
91900000.0 1.677287000e+00 -8.573350000e-01
92800000.0 1.642959000e+00 -8.852900000e-01
93700000.0 1.656484000e+00 -8.222720000e-01
94600000.0 1.638111000e+00 -8.210600000e-01
95500000.0 1.661296000e+00 -7.289170000e-01
96400000.0 1.641911000e+00 -7.299990000e-01
97300000.0 1.633351000e+00 -7.007160000e-01
98200000.0 1.627122000e+00 -6.718560000e-01
99100000.0 1.619583000e+00 -6.470910000e-01
100000000.0 1.609884000e+00 -6.201330000e-01
109000000.0 1.501098000e+00 -3.992250000e-01
118000000.0 1.377429000e+00 -2.447850000e-01
127000000.0 1.258104000e+00 -1.375150000e-01
136000000.0 1.148048000e+00 -6.935900000e-02
145000000.0 1.050014000e+00 -2.020900000e-02
154000000.0 1.000716000e+00 1.065000000e-03
163000000.0 1.001315000e+00 -3.470000000e-04
172000000.0 1.002379000e+00 -1.950000000e-04
181000000.0 1.003370000e+00 -1.009000000e-03
190000000.0 1.004844000e+00 -1.016000000e-03
199000000.0 1.004714000e+00 -7.600000000e-04
208000000.0 1.004551000e+00 -6.900000000e-04
217000000.0 1.006099000e+00 3.300000000e-04
226000000.0 1.006293000e+00 -2.094000000e-03
235000000.0 1.006685000e+00 -1.002000000e-03
244000000.0 1.005993000e+00 -5.960000000e-04
253000000.0 1.005883000e+00 6.700000000e-05
262000000.0 1.005668000e+00 3.530000000e-04
271000000.0 1.005396000e+00 5.460000000e-04
280000000.0 1.003834000e+00 1.114000000e-03
289000000.0 1.003356000e+00 -9.000000000e-04
298000000.0 1.002512000e+00 -1.340000000e-04
307000000.0 1.002679000e+00 -6.480000000e-04
316000000.0 1.003134000e+00 1.099000000e-03
325000000.0 1.004172000e+00 -2.020000000e-04
334000000.0 1.005767000e+00 1.431000000e-03
343000000.0 1.006662000e+00 4.960000000e-04
352000000.0 1.004484000e+00 -1.756000000e-02
361000000.0 1.005744000e+00 -1.831900000e-02
370000000.0 1.013376000e+00 5.597400000e-02
379000000.0 1.006920000e+00 -1.550000000e-04
388000000.0 1.006932000e+00 1.530000000e-03
397000000.0 1.005558000e+00 2.986000000e-03
406000000.0 1.007320000e+00 1.947700000e-02
415000000.0 1.004168000e+00 -2.640000000e-04
424000000.0 1.003896000e+00 1.155000000e-03
433000000.0 1.001420000e+00 1.713000000e-03
442000000.0 9.999360000e-01 2.755000000e-03
451000000.0 9.995830000e-01 3.015000000e-03
460000000.0 1.002095000e+00 4.673000000e-03
469000000.0 1.003238000e+00 2.675000000e-03
478000000.0 1.003772000e+00 3.360000000e-03
487000000.0 1.005354000e+00 4.402000000e-03
496000000.0 1.007457000e+00 5.723000000e-03
505000000.0 1.006994000e+00 6.298000000e-03
514000000.0 1.008248000e+00 7.075000000e-03
523000000.0 1.010114000e+00 4.762000000e-03
532000000.0 1.008253000e+00 7.579000000e-03
541000000.0 1.009874000e+00 9.504000000e-03
550000000.0 1.009426000e+00 9.561000000e-03
559000000.0 1.007970000e+00 6.713000000e-03
568000000.0 1.009205000e+00 9.061000000e-03
577000000.0 1.005182000e+00 7.280000000e-03
586000000.0 1.005952000e+00 7.593000000e-03
595000000.0 1.004780000e+00 6.630000000e-03
604000000.0 1.001764000e+00 6.831000000e-03
613000000.0 1.005004000e+00 6.409000000e-03
622000000.0 1.010088000e+00 8.007000000e-03
631000000.0 1.011725000e+00 8.322000000e-03
640000000.0 1.016323000e+00 9.442000000e-03
649000000.0 1.013276000e+00 1.030300000e-02
658000000.0 1.012731000e+00 1.240500000e-02
667000000.0 1.013595000e+00 7.271000000e-03
676000000.0 1.016005000e+00 6.458000000e-03
685000000.0 1.013322000e+00 1.031900000e-02
694000000.0 1.016338000e+00 7.436000000e-03
703000000.0 1.015684000e+00 5.188000000e-03
712000000.0 1.012155000e+00 -6.930000000e-04
721000000.0 1.009598000e+00 7.706000000e-03
730000000.0 1.008143000e+00 6.743000000e-03
739000000.0 1.005301000e+00 4.036000000e-03
748000000.0 1.002109000e+00 1.350000000e-04
757000000.0 1.005745000e+00 1.305000000e-03
766000000.0 1.007308000e+00 -1.421000000e-03
775000000.0 1.011293000e+00 -7.120000000e-04
784000000.0 1.014643000e+00 -1.480000000e-03
793000000.0 1.011948000e+00 -7.630000000e-03
802000000.0 1.015676000e+00 -1.005800000e-02
811000000.0 1.013996000e+00 -9.397000000e-03
820000000.0 1.017522000e+00 -7.821000000e-03
829000000.0 1.015121000e+00 -5.544000000e-03
838000000.0 1.017903000e+00 -6.274000000e-03
847000000.0 1.017656000e+00 -6.450000000e-03
856000000.0 1.014920000e+00 -6.611000000e-03
865000000.0 1.013476000e+00 -5.749000000e-03
874000000.0 1.009647000e+00 -1.364000000e-03
883000000.0 1.007988000e+00 -2.873000000e-03
892000000.0 1.002773000e+00 1.308000000e-03
901000000.0 1.002028000e+00 -1.749000000e-03
910000000.0 9.986690000e-01 -3.723000000e-03
919000000.0 1.003515000e+00 -6.275000000e-03
928000000.0 1.006310000e+00 -8.155000000e-03
937000000.0 1.004772000e+00 -8.464000000e-03
946000000.0 1.004535000e+00 -6.643000000e-03
955000000.0 1.006292000e+00 -8.495000000e-03
964000000.0 1.003288000e+00 -5.181000000e-03
973000000.0 1.002792000e+00 -3.582000000e-03
982000000.0 1.004483000e+00 -1.273100000e-02
991000000.0 1.005672000e+00 -9.528000000e-03
1000000000.0 1.004432000e+00 -8.995000000e-03
1004500000.0 1.004741000e+00 -5.667000000e-03
1009000000.0 1.003827000e+00 -8.780000000e-03
1013500000.0 1.002975000e+00 -9.025000000e-03
1018000000.0 1.003099000e+00 -4.337000000e-03
1022500000.0 1.003956000e+00 -4.220000000e-03
1027000000.0 1.002711000e+00 -2.991000000e-03
1031500000.0 1.000737000e+00 -7.018000000e-03
1036000000.0 1.000369000e+00 -3.620000000e-03
1040500000.0 9.996530000e-01 -2.803000000e-03
1045000000.0 1.001221000e+00 -3.222000000e-03
1049500000.0 1.001326000e+00 -6.361000000e-03
1054000000.0 1.001997000e+00 -3.015000000e-03
1058500000.0 1.001222000e+00 -2.246000000e-03
1063000000.0 1.001648000e+00 1.025000000e-03
1067500000.0 9.986990000e-01 -2.029000000e-03
1072000000.0 1.003238000e+00 -5.053000000e-03
1076500000.0 1.003837000e+00 -3.353000000e-03
1081000000.0 1.000990000e+00 -2.010000000e-04
1085500000.0 1.004634000e+00 -5.329000000e-03
1090000000.0 1.005336000e+00 8.470000000e-04
1094500000.0 1.002384000e+00 -2.096000000e-03
1099000000.0 1.005063000e+00 9.710000000e-04
1103500000.0 1.002256000e+00 -7.166000000e-03
1108000000.0 1.006654000e+00 -1.364000000e-03
1112500000.0 1.001758000e+00 -1.413000000e-03
1117000000.0 1.003288000e+00 8.150000000e-04
1121500000.0 1.003997000e+00 -9.849000000e-03
1126000000.0 9.946760000e-01 -5.001000000e-03
1130500000.0 1.003565000e+00 -1.350600000e-02
1135000000.0 1.003339000e+00 -6.733000000e-03
1139500000.0 9.996780000e-01 -4.191100000e-02
1144000000.0 1.004190000e+00 -2.913000000e-03
1148500000.0 1.001272000e+00 -3.412000000e-03
1153000000.0 1.000397000e+00 -6.909000000e-03
1157500000.0 1.005178000e+00 -3.147000000e-03
1162000000.0 1.012449000e+00 2.744500000e-02
1166500000.0 1.007103000e+00 -3.540000000e-03
1171000000.0 1.004184000e+00 -5.052000000e-03
1175500000.0 1.003867000e+00 -1.337000000e-03
1180000000.0 1.001863000e+00 -9.024000000e-03
1184500000.0 1.001728000e+00 -5.152000000e-03
1189000000.0 1.005341000e+00 6.158000000e-03
1193500000.0 1.000338000e+00 -5.353000000e-03
1198000000.0 1.001773000e+00 -7.077000000e-03
1202500000.0 1.003988000e+00 -1.084000000e-03
1207000000.0 1.002927000e+00 -9.984000000e-03
1211500000.0 1.004029000e+00 -2.009000000e-03
1216000000.0 1.000993000e+00 -2.807000000e-03
1220500000.0 1.003688000e+00 2.507000000e-03
1225000000.0 1.001071000e+00 -6.791000000e-03
1229500000.0 1.009534000e+00 -3.214000000e-03
1234000000.0 1.005483000e+00 -2.400000000e-04
1238500000.0 1.007888000e+00 -3.110000000e-04
1243000000.0 1.003495000e+00 -1.870000000e-04
1247500000.0 1.002238000e+00 -6.846000000e-03
1252000000.0 1.005836000e+00 -3.810000000e-04
1256500000.0 9.997480000e-01 -5.665000000e-03
1261000000.0 1.006039000e+00 -5.685000000e-03
1265500000.0 1.004479000e+00 3.227000000e-03
1270000000.0 1.001286000e+00 1.332000000e-03
1274500000.0 9.987780000e-01 5.651000000e-03
1279000000.0 1.001421000e+00 2.514000000e-03
1283500000.0 1.005365000e+00 -4.179000000e-03
1288000000.0 1.004801000e+00 -4.872000000e-03
1292500000.0 1.002111000e+00 -1.061500000e-02
1297000000.0 1.000049000e+00 8.209000000e-03
1301500000.0 1.005722000e+00 -7.297000000e-03
1306000000.0 1.001843000e+00 -1.627000000e-03
1310500000.0 1.000202000e+00 9.927000000e-03
1315000000.0 1.010783000e+00 2.224000000e-03
1319500000.0 1.003319000e+00 6.902000000e-03
1324000000.0 1.005270000e+00 7.800000000e-05
1328500000.0 1.008956000e+00 7.574000000e-03
1333000000.0 1.010614000e+00 -1.200000000e-05
1337500000.0 9.979410000e-01 7.805000000e-03
1342000000.0 1.008282000e+00 -1.607000000e-03
1346500000.0 9.976210000e-01 -1.772000000e-03
1351000000.0 1.002777000e+00 1.312700000e-02
1355500000.0 1.004022000e+00 3.916000000e-03
1360000000.0 1.002404000e+00 5.356000000e-03
1364500000.0 1.001134000e+00 3.118000000e-03
1369000000.0 1.004734000e+00 7.059000000e-03
1373500000.0 1.002342000e+00 1.063000000e-03
1378000000.0 1.005964000e+00 1.027700000e-02
1382500000.0 1.001598000e+00 1.863000000e-03
1387000000.0 1.004875000e+00 1.011200000e-02
1391500000.0 1.004133000e+00 1.737300000e-02
1396000000.0 1.007378000e+00 1.609200000e-02
1400500000.0 1.001783000e+00 1.198000000e-02
1405000000.0 1.007128000e+00 4.643000000e-03
1409500000.0 9.991080000e-01 1.190500000e-02
1414000000.0 1.002685000e+00 1.092500000e-02
1418500000.0 1.001411000e+00 1.494400000e-02
1423000000.0 1.002876000e+00 8.248000000e-03
1427500000.0 9.981230000e-01 2.106100000e-02
1432000000.0 1.001856000e+00 1.579400000e-02
1436500000.0 9.999050000e-01 6.789000000e-03
1441000000.0 1.001320000e+00 2.069200000e-02
1445500000.0 1.002121000e+00 1.584100000e-02
1450000000.0 1.003245000e+00 6.188000000e-03
