! piloto_saltos / abierto_51puntos / r02
# HZ S RI R 50
50000.0 1.006126000e+00 -7.057700000e-02
69000.0 1.003365000e+00 -4.182300000e-02
88000.0 1.001984000e+00 -1.566900000e-02
107000.0 9.994840000e-01 8.300000000e-03
126000.0 1.003210000e+00 3.273500000e-02
145000.0 1.000843000e+00 5.802300000e-02
164000.0 1.002154000e+00 8.215200000e-02
183000.0 1.002835000e+00 1.053340000e-01
202000.0 1.003646000e+00 1.286730000e-01
221000.0 1.004555000e+00 1.529050000e-01
240000.0 1.006663000e+00 1.749760000e-01
259000.0 1.005276000e+00 1.977050000e-01
278000.0 1.005378000e+00 2.204400000e-01
297000.0 1.006123000e+00 2.426230000e-01
316000.0 1.007233000e+00 2.642320000e-01
335000.0 1.007034000e+00 2.858220000e-01
354000.0 1.008098000e+00 3.069820000e-01
373000.0 9.947410000e-01 3.305470000e-01
392000.0 1.008306000e+00 3.489370000e-01
411000.0 1.009610000e+00 3.708250000e-01
430000.0 1.015150000e+00 3.728290000e-01
449000.0 1.010982000e+00 4.117150000e-01
468000.0 1.017398000e+00 4.144980000e-01
487000.0 1.012008000e+00 4.525690000e-01
506000.0 1.036910000e+00 4.996230000e-01
525000.0 1.013578000e+00 4.929960000e-01
544000.0 1.014627000e+00 5.125460000e-01
563000.0 1.015836000e+00 5.323290000e-01
582000.0 1.016587000e+00 5.529810000e-01
601000.0 1.017562000e+00 5.720990000e-01
620000.0 1.018309000e+00 5.902060000e-01
639000.0 1.019178000e+00 6.111740000e-01
658000.0 1.020595000e+00 6.299390000e-01
677000.0 1.021907000e+00 6.491840000e-01
696000.0 1.026279000e+00 6.679180000e-01
715000.0 1.027069000e+00 6.861540000e-01
734000.0 1.028563000e+00 7.053760000e-01
753000.0 1.031072000e+00 7.251450000e-01
772000.0 1.033697000e+00 7.443460000e-01
791000.0 1.035388000e+00 7.603010000e-01
810000.0 1.039125000e+00 7.795440000e-01
829000.0 1.042490000e+00 7.993220000e-01
848000.0 1.045508000e+00 8.178010000e-01
867000.0 1.049900000e+00 8.361490000e-01
886000.0 1.052450000e+00 8.524920000e-01
905000.0 1.056267000e+00 8.703390000e-01
924000.0 1.062539000e+00 8.896080000e-01
943000.0 1.064783000e+00 9.070420000e-01
962000.0 1.069840000e+00 9.248430000e-01
981000.0 1.077154000e+00 9.424060000e-01
1000000.0 1.080740000e+00 9.592090000e-01
1180000.0 1.151751000e+00 1.115857000e+00
1360000.0 1.261205000e+00 1.250840000e+00
1540000.0 1.410154000e+00 1.335330000e+00
1720000.0 1.592725000e+00 1.355886000e+00
1900000.0 1.767176000e+00 1.289810000e+00
2080000.0 1.900149000e+00 1.157050000e+00
2260000.0 1.964013000e+00 9.782060000e-01
2440000.0 1.960001000e+00 8.059980000e-01
2620000.0 1.910300000e+00 6.547830000e-01
2800000.0 1.839538000e+00 5.343860000e-01
2980000.0 1.762014000e+00 4.421700000e-01
3160000.0 1.684708000e+00 3.714070000e-01
3340000.0 1.620391000e+00 2.934200000e-01
3520000.0 1.550249000e+00 2.546140000e-01
3700000.0 1.498280000e+00 2.314400000e-01
3880000.0 1.452195000e+00 1.966950000e-01
4060000.0 1.413060000e+00 1.652740000e-01
4240000.0 1.378872000e+00 1.370280000e-01
4420000.0 1.350152000e+00 1.080120000e-01
4600000.0 1.325904000e+00 8.221000000e-02
4780000.0 1.306544000e+00 5.690700000e-02
4960000.0 1.290277000e+00 2.960200000e-02
5140000.0 1.270435000e+00 5.761000000e-03
5320000.0 1.262537000e+00 -1.815900000e-02
5500000.0 1.255434000e+00 -4.336200000e-02
5680000.0 1.246756000e+00 -6.640000000e-02
5860000.0 1.241436000e+00 -8.714600000e-02
6040000.0 1.236045000e+00 -1.068620000e-01
6220000.0 1.231392000e+00 -1.259160000e-01
6400000.0 1.228712000e+00 -1.438110000e-01
6580000.0 1.224640000e+00 -1.587430000e-01
6760000.0 1.223099000e+00 -1.716650000e-01
6940000.0 1.220119000e+00 -1.821420000e-01
7120000.0 1.220005000e+00 -1.881940000e-01
7300000.0 1.218475000e+00 -1.921470000e-01
7480000.0 1.219779000e+00 -1.916060000e-01
7660000.0 -2.418910000e-01 -1.258361000e+00
7840000.0 -2.407830000e-01 -1.258460000e+00
8020000.0 -2.389210000e-01 -1.260098000e+00
8200000.0 -2.369300000e-01 -1.262033000e+00
8380000.0 -2.357570000e-01 -1.262660000e+00
8560000.0 -2.345020000e-01 -1.263054000e+00
8740000.0 -2.321040000e-01 -1.266921000e+00
8920000.0 -2.305500000e-01 -1.266699000e+00
9100000.0 -2.317860000e-01 -1.268074000e+00
9280000.0 -2.297410000e-01 -1.269415000e+00
9460000.0 -2.281870000e-01 -1.269981000e+00
9640000.0 -2.266770000e-01 -1.272437000e+00
9820000.0 -2.262500000e-01 -1.273067000e+00
10000000.0 -2.256240000e-01 -1.275669000e+00
11800000.0 -2.134400000e-01 -1.295373000e+00
13600000.0 -2.007610000e-01 -1.315113000e+00
15400000.0 -1.889670000e-01 -1.336228000e+00
17200000.0 -1.749700000e-01 -1.359967000e+00
19000000.0 -1.617390000e-01 -1.383862000e+00
20800000.0 -1.450730000e-01 -1.410348000e+00
22600000.0 -1.275390000e-01 -1.436374000e+00
24400000.0 -1.080190000e-01 -1.462516000e+00
26200000.0 -8.668700000e-02 -1.490811000e+00
28000000.0 -6.536200000e-02 -1.518340000e+00
29800000.0 -3.860500000e-02 -1.548241000e+00
31600000.0 -1.085100000e-02 -1.577217000e+00
33400000.0 -3.698600000e-02 -1.595068000e+00
35200000.0 1.120200000e-01 -1.645059000e+00
37000000.0 8.685300000e-02 -1.665643000e+00
38800000.0 1.249860000e-01 -1.693453000e+00
40600000.0 1.687300000e-01 -1.721031000e+00
42400000.0 2.130540000e-01 -1.750842000e+00
44200000.0 2.609340000e-01 -1.776717000e+00
46000000.0 3.124540000e-01 -1.800884000e+00
47800000.0 3.685700000e-01 -1.824173000e+00
49600000.0 4.262120000e-01 -1.842422000e+00
51400000.0 4.899570000e-01 -1.858705000e+00
53200000.0 5.538270000e-01 -1.872930000e+00
55000000.0 6.269300000e-01 -1.880597000e+00
56800000.0 6.974120000e-01 -1.884861000e+00
58600000.0 7.737250000e-01 -1.881931000e+00
60400000.0 8.486980000e-01 -1.874872000e+00
62200000.0 9.264460000e-01 -1.862185000e+00
64000000.0 1.006333000e+00 -1.841022000e+00
65800000.0 1.087021000e+00 -1.811936000e+00
67600000.0 1.159495000e+00 -1.777812000e+00
69400000.0 1.233418000e+00 -1.732399000e+00
71200000.0 1.303630000e+00 -1.684372000e+00
73000000.0 1.368406000e+00 -1.628026000e+00
74800000.0 1.427531000e+00 -1.566383000e+00
76600000.0 1.480734000e+00 -1.499425000e+00
78400000.0 1.529027000e+00 -1.431046000e+00
80200000.0 1.566509000e+00 -1.358407000e+00
82000000.0 1.600887000e+00 -1.285285000e+00
83800000.0 1.626192000e+00 -1.209925000e+00
85600000.0 1.643796000e+00 -1.136787000e+00
87400000.0 1.658215000e+00 -1.063535000e+00
89200000.0 1.662852000e+00 -9.901230000e-01
91000000.0 1.663732000e+00 -9.222430000e-01
92800000.0 1.660599000e+00 -8.531200000e-01
94600000.0 1.651706000e+00 -7.911020000e-01
96400000.0 1.641423000e+00 -7.306300000e-01
98200000.0 1.625015000e+00 -6.734880000e-01
100000000.0 1.608888000e+00 -6.191030000e-01
118000000.0 1.377465000e+00 -2.438600000e-01
136000000.0 1.147508000e+00 -6.908300000e-02
154000000.0 1.000667000e+00 7.310000000e-04
172000000.0 1.002536000e+00 -1.157000000e-03
190000000.0 1.004830000e+00 -1.488000000e-03
208000000.0 1.005794000e+00 -2.747000000e-03
226000000.0 1.006675000e+00 -6.850000000e-04
244000000.0 1.006043000e+00 -2.601000000e-03
262000000.0 1.005229000e+00 -8.940000000e-04
280000000.0 1.009920000e+00 3.593900000e-02
298000000.0 1.000921000e+00 6.770000000e-04
316000000.0 1.010924000e+00 3.508200000e-02
334000000.0 1.005272000e+00 -1.100000000e-05
352000000.0 1.004794000e+00 2.093000000e-03
370000000.0 1.006801000e+00 4.650000000e-04
388000000.0 1.006655000e+00 1.412000000e-03
406000000.0 1.004666000e+00 1.130000000e-03
424000000.0 1.003675000e+00 3.882000000e-03
442000000.0 1.000810000e+00 1.459000000e-03
460000000.0 1.002153000e+00 5.306000000e-03
478000000.0 1.005100000e+00 3.070000000e-03
496000000.0 1.006302000e+00 6.523000000e-03
514000000.0 1.007138000e+00 5.216000000e-03
532000000.0 1.009518000e+00 8.068000000e-03
550000000.0 1.006586000e+00 9.952000000e-03
568000000.0 1.006033000e+00 5.351000000e-03
586000000.0 1.005427000e+00 5.152000000e-03
604000000.0 1.002389000e+00 7.965000000e-03
622000000.0 1.009574000e+00 8.856000000e-03
640000000.0 1.011193000e+00 6.985000000e-03
658000000.0 1.017977000e+00 1.322700000e-02
676000000.0 1.020024000e+00 9.136000000e-03
694000000.0 1.015996000e+00 9.311000000e-03
712000000.0 1.007177000e+00 9.211000000e-03
730000000.0 1.009638000e+00 4.987000000e-03
748000000.0 1.001982000e+00 -1.800000000e-05
766000000.0 1.008221000e+00 1.500000000e-04
784000000.0 1.015018000e+00 -2.551000000e-03
802000000.0 1.015995000e+00 -4.156000000e-03
820000000.0 1.016496000e+00 -2.585000000e-03
838000000.0 1.018462000e+00 -1.959000000e-03
856000000.0 1.013699000e+00 -5.234000000e-03
874000000.0 1.009664000e+00 -5.963000000e-03
892000000.0 1.006703000e+00 -3.460000000e-04
910000000.0 8.995340000e-01 -1.126220000e-01
928000000.0 1.003870000e+00 -5.877000000e-03
946000000.0 1.004450000e+00 -4.957000000e-03
964000000.0 1.005715000e+00 -9.898000000e-03
982000000.0 1.005524000e+00 -1.127600000e-02
1000000000.0 1.004364000e+00 -1.289000000e-02
1009000000.0 1.003936000e+00 -2.703000000e-03
1018000000.0 1.005132000e+00 -8.095000000e-03
1027000000.0 1.001139000e+00 -2.790000000e-03
1036000000.0 1.001064000e+00 6.200000000e-04
1045000000.0 9.984510000e-01 3.815000000e-03
1054000000.0 9.998360000e-01 1.706000000e-03
1063000000.0 1.003896000e+00 -1.467000000e-03
1072000000.0 1.004182000e+00 3.196000000e-03
1081000000.0 1.002380000e+00 -5.707000000e-03
1090000000.0 1.002334000e+00 -2.693000000e-03
1099000000.0 1.004473000e+00 -2.378000000e-03
1108000000.0 1.003997000e+00 1.210000000e-04
1117000000.0 1.002804000e+00 -7.506000000e-03
1126000000.0 1.006724000e+00 -4.229000000e-03
1135000000.0 1.006207000e+00 -7.960000000e-03
1144000000.0 1.003993000e+00 -4.912000000e-03
1153000000.0 9.999730000e-01 -8.832000000e-03
1162000000.0 1.005524000e+00 -6.645000000e-03
1171000000.0 1.006224000e+00 -7.322000000e-03
1180000000.0 1.005710000e+00 1.798000000e-03
1189000000.0 9.976140000e-01 -1.552000000e-03
1198000000.0 9.997230000e-01 -7.131000000e-03
1207000000.0 1.003307000e+00 -1.303000000e-03
1216000000.0 1.006022000e+00 2.130000000e-04
1225000000.0 1.002387000e+00 -1.170500000e-02
1234000000.0 9.997020000e-01 -5.044000000e-03
1243000000.0 1.001948000e+00 -7.760000000e-03
1252000000.0 1.005655000e+00 -6.738000000e-03
1261000000.0 1.001443000e+00 1.501000000e-03
1270000000.0 1.004866000e+00 -6.152000000e-03
1279000000.0 9.993170000e-01 1.616000000e-03
1288000000.0 1.003412000e+00 -2.348000000e-03
1297000000.0 1.005915000e+00 -2.578000000e-03
1306000000.0 1.000919000e+00 3.834000000e-03
1315000000.0 1.002954000e+00 4.046000000e-03
1324000000.0 1.000084000e+00 8.810000000e-04
1333000000.0 9.967690000e-01 -4.242000000e-03
1342000000.0 1.005768000e+00 1.319700000e-02
1351000000.0 1.003592000e+00 -5.272000000e-03
1360000000.0 1.003425000e+00 6.285000000e-03
1369000000.0 9.982450000e-01 6.393000000e-03
1378000000.0 1.005709000e+00 4.221000000e-03
1387000000.0 1.015279000e+00 1.439700000e-02
1396000000.0 9.977910000e-01 9.812000000e-03
1405000000.0 1.000293000e+00 1.789500000e-02
1414000000.0 1.010245000e+00 1.483500000e-02
1423000000.0 9.990090000e-01 8.358000000e-03
1432000000.0 1.004003000e+00 1.554300000e-02
1441000000.0 1.001920000e+00 2.849000000e-03
1450000000.0 1.001191000e+00 1.057000000e-02
