! piloto_saltos / abierto_101puntos / r10
# HZ S RI R 50
50000.0 1.005911000e+00 -7.008600000e-02
59500.0 1.003160000e+00 -5.613900000e-02
69000.0 1.002790000e+00 -4.103100000e-02
78500.0 1.002466000e+00 -2.893800000e-02
88000.0 1.000882000e+00 -1.651000000e-02
97500.0 1.000444000e+00 -3.433000000e-03
107000.0 1.000122000e+00 8.985000000e-03
116500.0 1.000157000e+00 2.142900000e-02
126000.0 1.001008000e+00 3.598800000e-02
135500.0 1.001206000e+00 4.473400000e-02
145000.0 1.001427000e+00 5.773100000e-02
154500.0 1.002289000e+00 6.993500000e-02
164000.0 1.001485000e+00 8.288700000e-02
173500.0 1.002387000e+00 9.349400000e-02
183000.0 1.003080000e+00 1.059190000e-01
192500.0 1.003180000e+00 1.179140000e-01
202000.0 1.004057000e+00 1.288590000e-01
211500.0 1.004296000e+00 1.402670000e-01
221000.0 1.004329000e+00 1.528090000e-01
230500.0 1.004514000e+00 1.640340000e-01
240000.0 1.004959000e+00 1.752360000e-01
249500.0 1.012772000e+00 2.040020000e-01
259000.0 1.005341000e+00 1.978450000e-01
268500.0 1.005978000e+00 2.098470000e-01
278000.0 1.006541000e+00 2.202960000e-01
287500.0 1.006760000e+00 2.321950000e-01
297000.0 1.006825000e+00 2.430050000e-01
306500.0 1.006621000e+00 2.540490000e-01
316000.0 1.007576000e+00 2.638920000e-01
325500.0 1.007748000e+00 2.750600000e-01
335000.0 1.007635000e+00 2.860640000e-01
344500.0 1.007766000e+00 2.966370000e-01
354000.0 1.007539000e+00 3.071730000e-01
363500.0 1.009188000e+00 3.183620000e-01
373000.0 1.008328000e+00 3.288700000e-01
382500.0 1.008830000e+00 3.393400000e-01
392000.0 1.009191000e+00 3.498940000e-01
401500.0 1.009218000e+00 3.602260000e-01
411000.0 1.008577000e+00 3.703660000e-01
420500.0 1.010091000e+00 3.815380000e-01
430000.0 1.009539000e+00 3.911120000e-01
439500.0 1.010915000e+00 4.019720000e-01
449000.0 1.010513000e+00 4.123410000e-01
458500.0 1.010685000e+00 4.214040000e-01
468000.0 1.011213000e+00 4.329010000e-01
477500.0 1.011327000e+00 4.430020000e-01
487000.0 1.012205000e+00 4.526280000e-01
496500.0 1.011869000e+00 4.629240000e-01
506000.0 1.012462000e+00 4.732850000e-01
515500.0 1.013623000e+00 4.840550000e-01
525000.0 1.012856000e+00 4.931260000e-01
534500.0 1.013853000e+00 5.029160000e-01
544000.0 1.014129000e+00 5.123040000e-01
553500.0 1.015447000e+00 5.228130000e-01
563000.0 1.015112000e+00 5.321530000e-01
572500.0 1.016264000e+00 5.418580000e-01
582000.0 1.015754000e+00 5.525400000e-01
591500.0 1.016311000e+00 5.617730000e-01
601000.0 1.017025000e+00 5.717770000e-01
610500.0 1.018339000e+00 5.814140000e-01
620000.0 1.017703000e+00 5.911160000e-01
629500.0 1.019134000e+00 6.010480000e-01
639000.0 1.019455000e+00 6.113700000e-01
648500.0 1.020193000e+00 6.199720000e-01
658000.0 1.021836000e+00 6.298520000e-01
667500.0 1.021892000e+00 6.397710000e-01
677000.0 1.023247000e+00 6.481100000e-01
686500.0 1.023955000e+00 6.586050000e-01
696000.0 1.025520000e+00 6.667880000e-01
705500.0 1.025897000e+00 6.774750000e-01
715000.0 1.026966000e+00 6.866630000e-01
724500.0 1.028194000e+00 6.968500000e-01
734000.0 1.027096000e+00 7.056990000e-01
743500.0 1.030005000e+00 7.146890000e-01
753000.0 1.031322000e+00 7.241700000e-01
762500.0 1.032133000e+00 7.353130000e-01
772000.0 1.034635000e+00 7.426780000e-01
781500.0 1.035310000e+00 7.530810000e-01
791000.0 1.035150000e+00 7.618380000e-01
800500.0 1.036501000e+00 7.705270000e-01
810000.0 1.038448000e+00 7.799780000e-01
819500.0 1.040667000e+00 7.899070000e-01
829000.0 1.041625000e+00 7.987020000e-01
838500.0 1.044145000e+00 8.070970000e-01
848000.0 1.045239000e+00 8.177320000e-01
857500.0 1.047081000e+00 8.257540000e-01
867000.0 1.049225000e+00 8.361980000e-01
876500.0 1.051234000e+00 8.435110000e-01
886000.0 1.052391000e+00 8.533910000e-01
895500.0 1.054728000e+00 8.612310000e-01
905000.0 1.056610000e+00 8.701270000e-01
914500.0 1.059435000e+00 8.800950000e-01
924000.0 1.061013000e+00 8.892900000e-01
933500.0 1.064058000e+00 8.979520000e-01
943000.0 1.065990000e+00 9.075810000e-01
952500.0 1.067966000e+00 9.165100000e-01
962000.0 1.070770000e+00 9.239070000e-01
971500.0 1.073399000e+00 9.319720000e-01
981000.0 1.076497000e+00 9.419960000e-01
990500.0 1.077791000e+00 9.506390000e-01
1000000.0 1.082208000e+00 9.592460000e-01
1090000.0 1.110500000e+00 1.039335000e+00
1180000.0 1.150139000e+00 1.116214000e+00
1270000.0 1.199106000e+00 1.185192000e+00
1360000.0 1.260191000e+00 1.246939000e+00
1450000.0 1.331917000e+00 1.298671000e+00
1540000.0 1.409990000e+00 1.335269000e+00
1630000.0 1.498954000e+00 1.354806000e+00
1720000.0 1.589478000e+00 1.356692000e+00
1810000.0 1.679577000e+00 1.332853000e+00
1900000.0 1.766303000e+00 1.294447000e+00
1990000.0 1.841174000e+00 1.230585000e+00
2080000.0 1.901163000e+00 1.158788000e+00
2170000.0 1.938987000e+00 1.070099000e+00
2260000.0 1.958958000e+00 9.799670000e-01
2350000.0 1.969770000e+00 8.907240000e-01
2440000.0 1.959359000e+00 8.064850000e-01
2530000.0 1.938598000e+00 7.266420000e-01
2620000.0 1.911515000e+00 6.545140000e-01
2710000.0 1.876038000e+00 5.920050000e-01
2800000.0 1.841568000e+00 5.350340000e-01
2890000.0 1.800866000e+00 4.865830000e-01
2980000.0 1.762809000e+00 4.423670000e-01
3070000.0 1.722068000e+00 4.054170000e-01
3160000.0 1.685738000e+00 3.711340000e-01
3250000.0 1.649872000e+00 3.428220000e-01
3340000.0 1.615357000e+00 3.166020000e-01
3430000.0 1.582692000e+00 2.920890000e-01
3520000.0 1.553693000e+00 2.697130000e-01
3610000.0 1.526099000e+00 2.510130000e-01
3700000.0 1.499015000e+00 2.319360000e-01
3790000.0 1.475782000e+00 2.134670000e-01
3880000.0 1.452428000e+00 1.977440000e-01
3970000.0 1.431926000e+00 1.818540000e-01
4060000.0 1.414113000e+00 1.659740000e-01
4150000.0 1.394567000e+00 1.516350000e-01
4240000.0 1.377781000e+00 1.367260000e-01
4330000.0 1.363499000e+00 1.218250000e-01
4420000.0 1.347415000e+00 1.089800000e-01
4510000.0 1.336827000e+00 9.502500000e-02
4600000.0 1.325483000e+00 8.219700000e-02
4690000.0 1.314624000e+00 6.902100000e-02
4780000.0 1.306284000e+00 5.575700000e-02
4870000.0 1.296941000e+00 4.333300000e-02
4960000.0 1.290394000e+00 3.058800000e-02
5050000.0 1.274105000e+00 1.842000000e-02
5140000.0 1.270556000e+00 6.193000000e-03
5230000.0 1.266690000e+00 -6.724000000e-03
5320000.0 1.261776000e+00 -1.898100000e-02
5410000.0 1.258807000e+00 -3.097600000e-02
5500000.0 1.254748000e+00 -4.094600000e-02
5590000.0 1.250381000e+00 -5.267400000e-02
5680000.0 1.247257000e+00 -6.513500000e-02
5770000.0 1.244737000e+00 -7.553600000e-02
5860000.0 1.242866000e+00 -8.600400000e-02
5950000.0 1.238682000e+00 -9.809000000e-02
6040000.0 1.236941000e+00 -1.068000000e-01
6130000.0 1.234043000e+00 -1.162500000e-01
6220000.0 1.232227000e+00 -1.267140000e-01
6310000.0 1.230260000e+00 -1.341200000e-01
6400000.0 1.227705000e+00 -1.424460000e-01
6490000.0 1.226756000e+00 -1.511130000e-01
6580000.0 1.224648000e+00 -1.599640000e-01
6670000.0 1.223671000e+00 -1.633680000e-01
6760000.0 1.222386000e+00 -1.709020000e-01
6850000.0 1.221739000e+00 -1.779040000e-01
6940000.0 1.219573000e+00 -1.812620000e-01
7030000.0 1.220260000e+00 -1.855430000e-01
7120000.0 1.219304000e+00 -1.889950000e-01
7210000.0 1.218329000e+00 -1.914780000e-01
7300000.0 1.218747000e+00 -1.929780000e-01
7390000.0 1.219168000e+00 -1.932780000e-01
7480000.0 1.218673000e+00 -1.931260000e-01
7570000.0 -2.418370000e-01 -1.258216000e+00
7660000.0 -2.425350000e-01 -1.259142000e+00
7750000.0 -2.410300000e-01 -1.259854000e+00
7840000.0 -2.401730000e-01 -1.259147000e+00
7930000.0 -2.395330000e-01 -1.259866000e+00
8020000.0 -2.372470000e-01 -1.260974000e+00
8110000.0 -2.375320000e-01 -1.260859000e+00
8200000.0 -2.381240000e-01 -1.262079000e+00
8290000.0 -2.363800000e-01 -1.262066000e+00
8380000.0 -2.350300000e-01 -1.261330000e+00
8470000.0 -2.353780000e-01 -1.263037000e+00
8560000.0 -2.351110000e-01 -1.263374000e+00
8650000.0 -2.338600000e-01 -1.263900000e+00
8740000.0 -2.333260000e-01 -1.266519000e+00
8830000.0 -2.328210000e-01 -1.264713000e+00
8920000.0 -2.313800000e-01 -1.267027000e+00
9010000.0 -2.316480000e-01 -1.266450000e+00
9100000.0 -2.305050000e-01 -1.267749000e+00
9190000.0 -2.302130000e-01 -1.268507000e+00
9280000.0 -2.291600000e-01 -1.268811000e+00
9370000.0 -2.278860000e-01 -1.270001000e+00
9460000.0 -2.280190000e-01 -1.271680000e+00
9550000.0 -2.283020000e-01 -1.272056000e+00
9640000.0 -2.271770000e-01 -1.272611000e+00
9730000.0 -2.265260000e-01 -1.272766000e+00
9820000.0 -2.260900000e-01 -1.272994000e+00
9910000.0 -2.251380000e-01 -1.274274000e+00
10000000.0 -2.245770000e-01 -1.276527000e+00
10900000.0 -2.193750000e-01 -1.284323000e+00
11800000.0 -2.127890000e-01 -1.293526000e+00
12700000.0 -2.072850000e-01 -1.303324000e+00
13600000.0 -2.007560000e-01 -1.316410000e+00
14500000.0 -1.956040000e-01 -1.325319000e+00
15400000.0 -1.881530000e-01 -1.336531000e+00
16300000.0 -1.827750000e-01 -1.348470000e+00
17200000.0 -1.759540000e-01 -1.360933000e+00
18100000.0 -1.684590000e-01 -1.373689000e+00
19000000.0 -1.613440000e-01 -1.385598000e+00
19900000.0 -1.525020000e-01 -1.398973000e+00
20800000.0 -1.446600000e-01 -1.410205000e+00
21700000.0 -1.367730000e-01 -1.422298000e+00
22600000.0 -1.279750000e-01 -1.436009000e+00
23500000.0 -1.179380000e-01 -1.449583000e+00
24400000.0 -1.071320000e-01 -1.462680000e+00
25300000.0 -9.786700000e-02 -1.476344000e+00
26200000.0 -8.657000000e-02 -1.490246000e+00
27100000.0 -7.533500000e-02 -1.504793000e+00
28000000.0 -6.238700000e-02 -1.517889000e+00
28900000.0 -5.173200000e-02 -1.532730000e+00
29800000.0 -3.869600000e-02 -1.546747000e+00
30700000.0 -2.517800000e-02 -1.562997000e+00
31600000.0 -1.203500000e-02 -1.575957000e+00
32500000.0 3.392000000e-03 -1.591121000e+00
33400000.0 1.898000000e-02 -1.605035000e+00
34300000.0 3.445800000e-02 -1.620757000e+00
35200000.0 5.166500000e-02 -1.634700000e+00
36100000.0 6.881700000e-02 -1.648751000e+00
37000000.0 8.567700000e-02 -1.664830000e+00
37900000.0 1.057580000e-01 -1.679255000e+00
38800000.0 1.252120000e-01 -1.692456000e+00
39700000.0 1.463830000e-01 -1.708666000e+00
40600000.0 1.669220000e-01 -1.724212000e+00
41500000.0 1.897390000e-01 -1.734976000e+00
42400000.0 2.117680000e-01 -1.748609000e+00
43300000.0 2.350680000e-01 -1.761784000e+00
44200000.0 2.589410000e-01 -1.775236000e+00
45100000.0 2.855200000e-01 -1.789310000e+00
46000000.0 3.128070000e-01 -1.800331000e+00
46900000.0 3.389330000e-01 -1.811641000e+00
47800000.0 3.667330000e-01 -1.822228000e+00
48700000.0 3.962760000e-01 -1.834172000e+00
49600000.0 4.263440000e-01 -1.842784000e+00
50500000.0 4.568900000e-01 -1.852209000e+00
51400000.0 4.894350000e-01 -1.861001000e+00
52300000.0 5.209860000e-01 -1.866022000e+00
53200000.0 5.554530000e-01 -1.873198000e+00
54100000.0 5.889800000e-01 -1.878857000e+00
55000000.0 6.257710000e-01 -1.883382000e+00
55900000.0 6.612560000e-01 -1.883325000e+00
56800000.0 6.983560000e-01 -1.886035000e+00
57700000.0 7.343170000e-01 -1.885779000e+00
58600000.0 7.722380000e-01 -1.884348000e+00
59500000.0 8.095300000e-01 -1.880381000e+00
60400000.0 8.492550000e-01 -1.877005000e+00
61300000.0 8.885420000e-01 -1.869574000e+00
62200000.0 9.286500000e-01 -1.861500000e+00
63100000.0 9.672690000e-01 -1.852293000e+00
64000000.0 1.004786000e+00 -1.839365000e+00
64900000.0 1.045345000e+00 -1.827776000e+00
65800000.0 1.083497000e+00 -1.812683000e+00
66700000.0 1.123189000e+00 -1.796443000e+00
67600000.0 1.158778000e+00 -1.775106000e+00
68500000.0 1.195522000e+00 -1.755683000e+00
69400000.0 1.234430000e+00 -1.732017000e+00
70300000.0 1.271022000e+00 -1.711924000e+00
71200000.0 1.302515000e+00 -1.684118000e+00
72100000.0 1.335381000e+00 -1.657560000e+00
73000000.0 1.369250000e+00 -1.628855000e+00
73900000.0 1.400182000e+00 -1.598431000e+00
74800000.0 1.427545000e+00 -1.565937000e+00
75700000.0 1.454383000e+00 -1.534509000e+00
76600000.0 1.481067000e+00 -1.499275000e+00
77500000.0 1.505748000e+00 -1.465997000e+00
78400000.0 1.528305000e+00 -1.429994000e+00
79300000.0 1.548659000e+00 -1.395171000e+00
80200000.0 1.568234000e+00 -1.358143000e+00
81100000.0 1.583839000e+00 -1.322174000e+00
82000000.0 1.601065000e+00 -1.283642000e+00
82900000.0 1.612325000e+00 -1.247276000e+00
83800000.0 1.624532000e+00 -1.209080000e+00
84700000.0 1.634564000e+00 -1.172291000e+00
85600000.0 1.643575000e+00 -1.135899000e+00
86500000.0 1.649974000e+00 -1.100186000e+00
87400000.0 1.657594000e+00 -1.062322000e+00
88300000.0 1.661812000e+00 -1.024877000e+00
89200000.0 1.664296000e+00 -9.921450000e-01
90100000.0 1.664111000e+00 -9.543060000e-01
91000000.0 1.665927000e+00 -9.201880000e-01
91900000.0 1.663196000e+00 -8.862280000e-01
92800000.0 1.659600000e+00 -8.545410000e-01
93700000.0 1.657614000e+00 -8.218110000e-01
94600000.0 1.651757000e+00 -7.915620000e-01
95500000.0 1.647018000e+00 -7.610510000e-01
96400000.0 1.641865000e+00 -7.313290000e-01
97300000.0 1.632621000e+00 -7.047070000e-01
98200000.0 1.628787000e+00 -6.748100000e-01
99100000.0 1.618221000e+00 -6.475820000e-01
100000000.0 1.610308000e+00 -6.176430000e-01
109000000.0 1.503222000e+00 -3.982660000e-01
118000000.0 1.377821000e+00 -2.438300000e-01
127000000.0 1.257526000e+00 -1.392270000e-01
136000000.0 1.147906000e+00 -6.864400000e-02
145000000.0 1.049044000e+00 -1.901200000e-02
154000000.0 1.000504000e+00 -3.600000000e-04
163000000.0 1.002035000e+00 -4.100000000e-05
172000000.0 1.002827000e+00 -4.660000000e-04
181000000.0 1.003782000e+00 -1.223000000e-03
190000000.0 1.004983000e+00 -1.226000000e-03
199000000.0 1.004970000e+00 -7.530000000e-04
208000000.0 1.005938000e+00 -1.168000000e-03
217000000.0 1.005683000e+00 -4.750000000e-04
226000000.0 1.006393000e+00 -1.366000000e-03
235000000.0 1.006281000e+00 -8.450000000e-04
244000000.0 1.006161000e+00 -2.000000000e-03
253000000.0 1.005481000e+00 -2.100000000e-05
262000000.0 1.005397000e+00 -2.300000000e-04
271000000.0 1.003618000e+00 -1.416000000e-03
280000000.0 1.004494000e+00 1.004000000e-03
289000000.0 1.003012000e+00 -4.430000000e-04
298000000.0 1.001437000e+00 4.160000000e-04
307000000.0 1.001380000e+00 -1.970000000e-04
316000000.0 1.003204000e+00 -2.080000000e-04
325000000.0 1.005591000e+00 7.760000000e-04
334000000.0 1.004667000e+00 -6.620000000e-04
343000000.0 1.005762000e+00 -8.320000000e-04
352000000.0 1.006261000e+00 8.760000000e-04
361000000.0 9.978300000e-01 -3.447600000e-02
370000000.0 1.008841000e+00 1.924900000e-02
379000000.0 1.006415000e+00 8.480000000e-04
388000000.0 1.005053000e+00 -1.761800000e-02
397000000.0 1.003762000e+00 -1.656500000e-02
406000000.0 1.004427000e+00 6.430000000e-04
415000000.0 1.004425000e+00 5.930000000e-04
424000000.0 9.870310000e-01 -6.962500000e-02
433000000.0 1.001643000e+00 1.930000000e-03
442000000.0 9.988620000e-01 9.310000000e-04
451000000.0 9.983810000e-01 1.831000000e-03
460000000.0 1.001754000e+00 1.931000000e-03
469000000.0 1.003251000e+00 3.422000000e-03
478000000.0 1.004141000e+00 3.777000000e-03
487000000.0 1.006258000e+00 5.336000000e-03
496000000.0 1.006841000e+00 5.193000000e-03
505000000.0 1.006462000e+00 4.348000000e-03
514000000.0 1.007529000e+00 6.916000000e-03
523000000.0 1.008243000e+00 5.657000000e-03
532000000.0 1.009585000e+00 7.119000000e-03
541000000.0 1.008821000e+00 1.025200000e-02
550000000.0 1.007939000e+00 8.449000000e-03
559000000.0 1.008955000e+00 6.933000000e-03
568000000.0 1.006390000e+00 1.206900000e-02
577000000.0 1.007668000e+00 9.875000000e-03
586000000.0 1.005554000e+00 6.752000000e-03
595000000.0 1.001101000e+00 4.715000000e-03
604000000.0 1.002567000e+00 6.450000000e-03
613000000.0 1.006959000e+00 7.641000000e-03
622000000.0 1.008514000e+00 4.064000000e-03
631000000.0 1.010317000e+00 7.935000000e-03
640000000.0 1.015221000e+00 8.558000000e-03
649000000.0 1.015105000e+00 5.565000000e-03
658000000.0 1.019479000e+00 1.005500000e-02
667000000.0 1.015022000e+00 9.578000000e-03
676000000.0 1.016713000e+00 6.430000000e-03
685000000.0 1.015286000e+00 7.372000000e-03
694000000.0 1.015675000e+00 3.337000000e-03
703000000.0 1.012496000e+00 8.306000000e-03
712000000.0 1.004063000e+00 3.247000000e-03
721000000.0 1.009337000e+00 7.314000000e-03
730000000.0 1.008218000e+00 5.663000000e-03
739000000.0 1.004584000e+00 2.024000000e-02
748000000.0 1.003030000e+00 4.270000000e-04
757000000.0 1.000611000e+00 -1.756200000e-02
766000000.0 1.006762000e+00 -4.323000000e-03
775000000.0 1.013720000e+00 1.525600000e-02
784000000.0 1.011175000e+00 -4.148000000e-03
793000000.0 1.012956000e+00 -2.180300000e-02
802000000.0 1.018243000e+00 -4.319000000e-03
811000000.0 1.018719000e+00 -6.458000000e-03
820000000.0 1.015920000e+00 -8.869000000e-03
829000000.0 1.016529000e+00 -6.433000000e-03
838000000.0 1.018544000e+00 -4.997000000e-03
847000000.0 1.018418000e+00 -6.928000000e-03
856000000.0 1.013527000e+00 -5.626000000e-03
865000000.0 1.012609000e+00 -4.308000000e-03
874000000.0 1.009258000e+00 -5.519000000e-03
883000000.0 1.009010000e+00 7.840000000e-04
892000000.0 1.005338000e+00 -4.000000000e-04
901000000.0 1.004712000e+00 6.930000000e-04
910000000.0 1.000408000e+00 -1.805000000e-03
919000000.0 1.004450000e+00 -5.790000000e-04
928000000.0 1.002672000e+00 -6.304000000e-03
937000000.0 1.005849000e+00 -6.719000000e-03
946000000.0 1.006209000e+00 -6.017000000e-03
955000000.0 1.004391000e+00 -6.859000000e-03
964000000.0 1.003790000e+00 -1.381300000e-02
973000000.0 1.005368000e+00 -3.130000000e-03
982000000.0 1.006256000e+00 -8.694000000e-03
991000000.0 1.007385000e+00 -1.161500000e-02
1000000000.0 1.002985000e+00 -6.241000000e-03
1004500000.0 1.004908000e+00 -9.753000000e-03
1009000000.0 1.004925000e+00 -1.049600000e-02
1013500000.0 1.001761000e+00 -6.612000000e-03
1018000000.0 1.006773000e+00 -1.440000000e-03
1022500000.0 1.003401000e+00 -8.132000000e-03
1027000000.0 1.004149000e+00 -6.152000000e-03
1031500000.0 1.004848000e+00 -8.153000000e-03
1036000000.0 1.001849000e+00 1.223000000e-03
1040500000.0 1.004695000e+00 -1.242000000e-03
1045000000.0 1.003881000e+00 -2.342000000e-03
1049500000.0 9.969300000e-01 -1.539500000e-02
1054000000.0 9.998890000e-01 4.640000000e-04
1058500000.0 1.001454000e+00 1.850000000e-02
1063000000.0 1.001783000e+00 1.972000000e-03
1067500000.0 1.000390000e+00 -2.103800000e-02
1072000000.0 1.003439000e+00 -2.034000000e-03
1076500000.0 1.001382000e+00 1.334900000e-02
1081000000.0 9.999930000e-01 3.532000000e-03
1085500000.0 1.003804000e+00 -2.685600000e-02
1090000000.0 9.991810000e-01 4.542000000e-03
1094500000.0 1.004680000e+00 -8.109000000e-03
1099000000.0 1.001697000e+00 2.809000000e-03
1103500000.0 1.003237000e+00 -5.030000000e-03
1108000000.0 1.002003000e+00 -2.252000000e-03
1112500000.0 1.005624000e+00 -4.867000000e-03
1117000000.0 9.993660000e-01 -1.585000000e-03
1121500000.0 1.003303000e+00 -4.069000000e-03
1126000000.0 1.010225000e+00 3.583400000e-02
1130500000.0 1.009284000e+00 1.887200000e-02
1135000000.0 1.003831000e+00 -6.476000000e-03
1139500000.0 1.004601000e+00 -4.928000000e-03
1144000000.0 1.002157000e+00 -5.697000000e-03
1148500000.0 1.005720000e+00 -2.871000000e-03
1153000000.0 1.007892000e+00 -1.078600000e-02
1157500000.0 1.001477000e+00 -1.277200000e-02
1162000000.0 1.007297000e+00 -2.628000000e-03
1166500000.0 1.000882000e+00 -5.115000000e-03
1171000000.0 1.004973000e+00 -2.341000000e-03
1175500000.0 1.005302000e+00 2.100000000e-03
1180000000.0 1.002170000e+00 -2.795000000e-03
1184500000.0 1.006021000e+00 1.439000000e-03
1189000000.0 1.006574000e+00 -7.109000000e-03
1193500000.0 1.006121000e+00 -3.625000000e-03
1198000000.0 1.002585000e+00 -3.330000000e-04
1202500000.0 1.004738000e+00 -1.911000000e-03
1207000000.0 1.003758000e+00 2.769000000e-03
1211500000.0 1.004131000e+00 -4.445000000e-03
1216000000.0 1.002572000e+00 -5.803000000e-03
1220500000.0 1.002454000e+00 -2.330000000e-04
1225000000.0 1.002575000e+00 -3.957000000e-03
1229500000.0 1.001965000e+00 -4.990000000e-03
1234000000.0 1.003415000e+00 3.960000000e-04
1238500000.0 1.009467000e+00 5.174000000e-03
1243000000.0 1.002373000e+00 1.241000000e-03
1247500000.0 1.008171000e+00 1.410000000e-04
1252000000.0 1.010525000e+00 -3.137000000e-03
1256500000.0 1.003402000e+00 -6.605000000e-03
1261000000.0 9.995060000e-01 3.920000000e-03
1265500000.0 1.002272000e+00 4.740000000e-04
1270000000.0 1.004799000e+00 -3.418000000e-03
1274500000.0 1.007752000e+00 2.145000000e-03
1279000000.0 1.003129000e+00 -1.783000000e-03
1283500000.0 1.000607000e+00 -2.533000000e-03
1288000000.0 1.002188000e+00 1.961000000e-03
1292500000.0 1.000574000e+00 3.039000000e-03
1297000000.0 9.962690000e-01 -1.869000000e-03
1301500000.0 1.001082000e+00 7.930000000e-04
1306000000.0 1.003371000e+00 5.824000000e-03
1310500000.0 9.970210000e-01 -3.915000000e-03
1315000000.0 1.005758000e+00 -3.920000000e-03
1319500000.0 9.983620000e-01 5.157000000e-03
1324000000.0 1.006256000e+00 2.277000000e-03
1328500000.0 1.003556000e+00 -1.256400000e-02
1333000000.0 9.965740000e-01 9.680000000e-03
1337500000.0 1.004637000e+00 2.054000000e-03
1342000000.0 1.001853000e+00 5.711000000e-03
1346500000.0 1.013930000e+00 -6.700000000e-04
1351000000.0 1.006490000e+00 2.535000000e-03
1355500000.0 1.007858000e+00 3.353000000e-03
1360000000.0 1.006326000e+00 -2.555000000e-03
1364500000.0 1.002805000e+00 7.695000000e-03
1369000000.0 9.986580000e-01 8.425000000e-03
1373500000.0 1.001829000e+00 5.029000000e-03
1378000000.0 1.003531000e+00 5.534000000e-03
1382500000.0 1.002996000e+00 3.693000000e-03
1387000000.0 1.007955000e+00 2.180600000e-02
1391500000.0 1.005590000e+00 7.754000000e-03
1396000000.0 1.007128000e+00 2.912000000e-03
1400500000.0 1.007750000e+00 1.502000000e-02
1405000000.0 1.003725000e+00 1.775600000e-02
1409500000.0 1.009961000e+00 1.170200000e-02
1414000000.0 1.001523000e+00 1.480000000e-02
1418500000.0 1.007837000e+00 8.117000000e-03
1423000000.0 1.010471000e+00 1.949300000e-02
1427500000.0 1.002210000e+00 1.775400000e-02
1432000000.0 1.004478000e+00 1.567700000e-02
1436500000.0 1.001372000e+00 1.064900000e-02
1441000000.0 1.002497000e+00 1.005900000e-02
1445500000.0 1.000053000e+00 1.489700000e-02
1450000000.0 1.001566000e+00 1.024400000e-02
