! piloto_saltos / abierto_51puntos / r06
# HZ S RI R 50
50000.0 1.006002000e+00 -6.992500000e-02
69000.0 1.006015000e+00 -4.438200000e-02
88000.0 1.002043000e+00 -1.620400000e-02
107000.0 1.000128000e+00 8.863000000e-03
126000.0 9.972000000e-01 3.327300000e-02
145000.0 1.000947000e+00 5.789700000e-02
164000.0 1.002455000e+00 8.210300000e-02
183000.0 1.002926000e+00 1.060110000e-01
202000.0 1.003709000e+00 1.293550000e-01
221000.0 1.004218000e+00 1.525730000e-01
240000.0 1.005304000e+00 1.753870000e-01
259000.0 1.005222000e+00 1.979700000e-01
278000.0 1.005812000e+00 2.199750000e-01
297000.0 1.006750000e+00 2.426810000e-01
316000.0 1.006758000e+00 2.642460000e-01
335000.0 1.006470000e+00 2.859820000e-01
354000.0 1.007790000e+00 3.074060000e-01
373000.0 1.008117000e+00 3.291810000e-01
392000.0 1.008828000e+00 3.498360000e-01
411000.0 1.009520000e+00 3.706800000e-01
430000.0 1.010177000e+00 3.912770000e-01
449000.0 1.010118000e+00 4.125770000e-01
468000.0 1.011205000e+00 4.333660000e-01
487000.0 1.000548000e+00 4.569810000e-01
506000.0 1.060408000e+00 5.265700000e-01
525000.0 1.012967000e+00 4.932310000e-01
544000.0 1.013630000e+00 5.127120000e-01
563000.0 1.015365000e+00 5.324800000e-01
582000.0 1.016625000e+00 5.518410000e-01
601000.0 1.016880000e+00 5.724660000e-01
620000.0 1.017992000e+00 5.910700000e-01
639000.0 1.019556000e+00 6.111040000e-01
658000.0 1.020735000e+00 6.305700000e-01
677000.0 1.024143000e+00 6.496760000e-01
696000.0 1.024195000e+00 6.684490000e-01
715000.0 1.027530000e+00 6.876470000e-01
734000.0 1.028851000e+00 7.069210000e-01
753000.0 1.031371000e+00 7.244200000e-01
772000.0 1.034114000e+00 7.439870000e-01
791000.0 1.036004000e+00 7.621990000e-01
810000.0 1.039978000e+00 7.817570000e-01
829000.0 1.042305000e+00 7.987850000e-01
848000.0 1.046540000e+00 8.169520000e-01
867000.0 1.048562000e+00 8.356500000e-01
886000.0 1.053143000e+00 8.538750000e-01
905000.0 1.056962000e+00 8.725950000e-01
924000.0 1.061945000e+00 8.898750000e-01
943000.0 1.064844000e+00 9.079670000e-01
962000.0 1.072329000e+00 9.255220000e-01
981000.0 1.077291000e+00 9.431120000e-01
1000000.0 1.082564000e+00 9.603930000e-01
1180000.0 1.150036000e+00 1.115717000e+00
1360000.0 1.261206000e+00 1.247610000e+00
1540000.0 1.411836000e+00 1.336083000e+00
1720000.0 1.587492000e+00 1.356652000e+00
1900000.0 1.767361000e+00 1.294105000e+00
2080000.0 1.899885000e+00 1.155868000e+00
2260000.0 1.962860000e+00 9.811350000e-01
2440000.0 1.960902000e+00 8.061360000e-01
2620000.0 1.911588000e+00 6.534990000e-01
2800000.0 1.839887000e+00 5.362330000e-01
2980000.0 1.762289000e+00 4.412710000e-01
3160000.0 1.686547000e+00 3.718020000e-01
3340000.0 1.617610000e+00 3.155950000e-01
3520000.0 1.544140000e+00 2.061650000e-01
3700000.0 1.499548000e+00 2.315440000e-01
3880000.0 1.452508000e+00 1.985310000e-01
4060000.0 1.412381000e+00 1.673340000e-01
4240000.0 1.377484000e+00 1.373120000e-01
4420000.0 1.349272000e+00 1.096620000e-01
4600000.0 1.325689000e+00 8.214200000e-02
4780000.0 1.306410000e+00 5.700500000e-02
4960000.0 1.289376000e+00 3.050100000e-02
5140000.0 1.270260000e+00 5.264000000e-03
5320000.0 1.262514000e+00 -1.908900000e-02
5500000.0 1.254222000e+00 -4.248100000e-02
5680000.0 1.248037000e+00 -6.599800000e-02
5860000.0 1.241249000e+00 -8.621400000e-02
6040000.0 1.237167000e+00 -1.067730000e-01
6220000.0 1.232889000e+00 -1.250610000e-01
6400000.0 1.228515000e+00 -1.429170000e-01
6580000.0 1.224748000e+00 -1.593230000e-01
6760000.0 1.223522000e+00 -1.712340000e-01
6940000.0 1.221070000e+00 -1.816490000e-01
7120000.0 1.219993000e+00 -1.889750000e-01
7300000.0 1.219146000e+00 -1.925710000e-01
7480000.0 1.218776000e+00 -1.932590000e-01
7660000.0 -2.429270000e-01 -1.258937000e+00
7840000.0 -2.402910000e-01 -1.261291000e+00
8020000.0 -2.383310000e-01 -1.260476000e+00
8200000.0 -2.377550000e-01 -1.262051000e+00
8380000.0 -2.575260000e-01 -1.257716000e+00
8560000.0 -2.344960000e-01 -1.263684000e+00
8740000.0 -2.344640000e-01 -1.265812000e+00
8920000.0 -2.320750000e-01 -1.266537000e+00
9100000.0 -2.307050000e-01 -1.268331000e+00
9280000.0 -2.297830000e-01 -1.269398000e+00
9460000.0 -2.285730000e-01 -1.271062000e+00
9640000.0 -2.271450000e-01 -1.273070000e+00
9820000.0 -2.250550000e-01 -1.273312000e+00
10000000.0 -2.249370000e-01 -1.275037000e+00
11800000.0 -2.128910000e-01 -1.293526000e+00
13600000.0 -2.010090000e-01 -1.314630000e+00
15400000.0 -1.883410000e-01 -1.337838000e+00
17200000.0 -1.758920000e-01 -1.360736000e+00
19000000.0 -1.611570000e-01 -1.384534000e+00
20800000.0 -1.450260000e-01 -1.411356000e+00
22600000.0 -1.268030000e-01 -1.435912000e+00
24400000.0 -1.086870000e-01 -1.463282000e+00
26200000.0 -8.604300000e-02 -1.490335000e+00
28000000.0 -6.419600000e-02 -1.518158000e+00
29800000.0 -4.006100000e-02 -1.547765000e+00
31600000.0 -5.011000000e-03 -1.355880000e+00
33400000.0 1.094400000e-01 -1.617385000e+00
35200000.0 1.121820000e-01 -1.644797000e+00
37000000.0 8.837600000e-02 -1.664108000e+00
38800000.0 1.263060000e-01 -1.694929000e+00
40600000.0 1.664510000e-01 -1.722719000e+00
42400000.0 2.113410000e-01 -1.748554000e+00
44200000.0 2.608870000e-01 -1.776199000e+00
46000000.0 3.127930000e-01 -1.801404000e+00
47800000.0 3.685790000e-01 -1.822395000e+00
49600000.0 4.275720000e-01 -1.843653000e+00
51400000.0 4.899760000e-01 -1.860842000e+00
53200000.0 5.571610000e-01 -1.872713000e+00
55000000.0 6.260290000e-01 -1.881651000e+00
56800000.0 6.982780000e-01 -1.885590000e+00
58600000.0 7.717520000e-01 -1.884111000e+00
60400000.0 8.497250000e-01 -1.876790000e+00
62200000.0 9.287560000e-01 -1.861498000e+00
64000000.0 1.005036000e+00 -1.839562000e+00
65800000.0 1.086439000e+00 -1.811041000e+00
67600000.0 1.160585000e+00 -1.777272000e+00
69400000.0 1.233442000e+00 -1.731633000e+00
71200000.0 1.301602000e+00 -1.684868000e+00
73000000.0 1.369893000e+00 -1.627651000e+00
74800000.0 1.429438000e+00 -1.566918000e+00
76600000.0 1.480537000e+00 -1.499076000e+00
78400000.0 1.526406000e+00 -1.430138000e+00
80200000.0 1.569396000e+00 -1.357292000e+00
82000000.0 1.600092000e+00 -1.285923000e+00
83800000.0 1.626840000e+00 -1.210133000e+00
85600000.0 1.644199000e+00 -1.135038000e+00
87400000.0 1.656757000e+00 -1.060890000e+00
89200000.0 1.663839000e+00 -9.901200000e-01
91000000.0 1.661985000e+00 -9.209260000e-01
92800000.0 1.660818000e+00 -8.564210000e-01
94600000.0 1.652838000e+00 -7.921430000e-01
96400000.0 1.641694000e+00 -7.311280000e-01
98200000.0 1.628204000e+00 -6.737390000e-01
100000000.0 1.608899000e+00 -6.195870000e-01
118000000.0 1.377505000e+00 -2.432480000e-01
136000000.0 1.147843000e+00 -6.843900000e-02
154000000.0 1.000044000e+00 3.610000000e-04
172000000.0 1.003114000e+00 -5.070000000e-04
190000000.0 1.004483000e+00 -1.475000000e-03
208000000.0 1.005552000e+00 -2.641000000e-03
226000000.0 1.006213000e+00 -2.728000000e-03
244000000.0 1.006211000e+00 6.920000000e-04
262000000.0 1.003371000e+00 -1.926100000e-02
280000000.0 1.003202000e+00 4.390000000e-04
298000000.0 9.998310000e-01 -1.778300000e-02
316000000.0 1.003139000e+00 4.190000000e-04
334000000.0 9.959820000e-01 -5.393200000e-02
352000000.0 1.005516000e+00 -1.650000000e-04
370000000.0 1.008323000e+00 2.082100000e-02
388000000.0 1.006038000e+00 2.021000000e-03
406000000.0 1.003447000e+00 -1.748400000e-02
424000000.0 1.003269000e+00 1.318000000e-03
442000000.0 1.002571000e+00 1.899300000e-02
460000000.0 1.001616000e+00 1.692000000e-03
478000000.0 1.004417000e+00 2.475000000e-03
496000000.0 1.006346000e+00 5.132000000e-03
514000000.0 1.008679000e+00 5.875000000e-03
532000000.0 1.009467000e+00 7.293000000e-03
550000000.0 1.011012000e+00 1.055000000e-02
568000000.0 1.008828000e+00 6.338000000e-03
586000000.0 1.003735000e+00 7.368000000e-03
604000000.0 1.004178000e+00 6.810000000e-03
622000000.0 1.008343000e+00 7.988000000e-03
640000000.0 1.013854000e+00 1.047800000e-02
658000000.0 1.016333000e+00 9.182000000e-03
676000000.0 1.017525000e+00 7.249000000e-03
694000000.0 1.012538000e+00 5.972000000e-03
712000000.0 1.016168000e+00 9.164000000e-03
730000000.0 1.008461000e+00 4.028000000e-03
748000000.0 1.003516000e+00 1.628000000e-03
766000000.0 1.007501000e+00 -1.296000000e-03
784000000.0 1.012230000e+00 6.370000000e-04
802000000.0 1.016350000e+00 -5.521000000e-03
820000000.0 1.018677000e+00 -4.489000000e-03
838000000.0 1.018588000e+00 -6.945000000e-03
856000000.0 1.014024000e+00 -1.645000000e-03
874000000.0 1.012131000e+00 -5.269000000e-03
892000000.0 1.007265000e+00 -1.314000000e-03
910000000.0 1.003313000e+00 6.066000000e-03
928000000.0 1.003163000e+00 -5.809000000e-03
946000000.0 1.006884000e+00 -7.287000000e-03
964000000.0 1.006768000e+00 -8.597000000e-03
982000000.0 1.003249000e+00 -6.424000000e-03
1000000000.0 1.003853000e+00 -7.683000000e-03
1009000000.0 1.005292000e+00 -2.202000000e-03
1018000000.0 1.002821000e+00 -7.995000000e-03
1027000000.0 1.001073000e+00 -3.230000000e-03
1036000000.0 9.997510000e-01 -5.566000000e-03
1045000000.0 9.977480000e-01 4.610000000e-04
1054000000.0 9.987030000e-01 6.140000000e-04
1063000000.0 1.004444000e+00 7.370000000e-04
1072000000.0 1.002409000e+00 -7.836000000e-03
1081000000.0 1.001434000e+00 5.420000000e-04
1090000000.0 1.002356000e+00 -4.525000000e-03
1099000000.0 1.009726000e+00 3.079400000e-02
1108000000.0 1.004820000e+00 -6.116000000e-03
1117000000.0 9.994470000e-01 4.500000000e-05
1126000000.0 1.004056000e+00 -5.500000000e-04
1135000000.0 1.004021000e+00 -5.509000000e-03
1144000000.0 1.006086000e+00 -5.942000000e-03
1153000000.0 1.008602000e+00 -5.882000000e-03
1162000000.0 1.004685000e+00 -3.519000000e-03
1171000000.0 1.004409000e+00 -6.835000000e-03
1180000000.0 1.002534000e+00 -6.409000000e-03
1189000000.0 1.005694000e+00 -7.670000000e-04
1198000000.0 1.004327000e+00 1.045000000e-03
1207000000.0 1.004654000e+00 -6.254000000e-03
1216000000.0 1.003720000e+00 -5.756000000e-03
1225000000.0 1.001134000e+00 -2.965000000e-03
1234000000.0 1.003061000e+00 -3.259000000e-03
1243000000.0 1.002656000e+00 -1.570000000e-04
1252000000.0 1.005811000e+00 3.989000000e-03
1261000000.0 1.001185000e+00 6.877000000e-03
1270000000.0 1.004970000e+00 -2.336000000e-03
1279000000.0 1.002492000e+00 -2.690000000e-03
1288000000.0 1.000771000e+00 3.105000000e-03
1297000000.0 1.008206000e+00 -7.988000000e-03
1306000000.0 1.003964000e+00 6.839000000e-03
1315000000.0 1.010314000e+00 7.216000000e-03
1324000000.0 1.006809000e+00 9.184000000e-03
1333000000.0 1.006245000e+00 1.145200000e-02
1342000000.0 1.006389000e+00 1.043700000e-02
1351000000.0 1.000837000e+00 -7.172000000e-03
1360000000.0 1.001043000e+00 -1.488000000e-03
1369000000.0 1.008940000e+00 1.025300000e-02
1378000000.0 1.003857000e+00 2.561000000e-03
1387000000.0 9.992360000e-01 6.651000000e-03
1396000000.0 1.003485000e+00 -1.520600000e-02
1405000000.0 1.003244000e+00 1.814500000e-02
1414000000.0 1.002693000e+00 1.800100000e-02
1423000000.0 1.004845000e+00 2.268500000e-02
1432000000.0 1.003337000e+00 1.497000000e-02
1441000000.0 1.001190000e+00 1.265200000e-02
1450000000.0 1.001132000e+00 9.496000000e-03
