! piloto_saltos / abierto_continuo / r08
# HZ S RI R 50
50000.0 1.004554000e+00 -7.056200000e-02
59500.0 1.005391000e+00 -5.681100000e-02
69000.0 1.003427000e+00 -4.134300000e-02
78500.0 1.002349000e+00 -2.960900000e-02
88000.0 1.000686000e+00 -1.684100000e-02
97500.0 1.000097000e+00 -5.025000000e-03
107000.0 1.000947000e+00 8.364000000e-03
116500.0 9.996700000e-01 2.067300000e-02
126000.0 9.986320000e-01 3.162300000e-02
135500.0 1.000061000e+00 4.414900000e-02
145000.0 1.001231000e+00 5.761100000e-02
154500.0 1.002527000e+00 6.929700000e-02
164000.0 1.002382000e+00 8.166500000e-02
173500.0 1.002809000e+00 9.277700000e-02
183000.0 1.002291000e+00 1.048130000e-01
192500.0 1.004018000e+00 1.176530000e-01
202000.0 1.003635000e+00 1.283960000e-01
211500.0 1.003968000e+00 1.402400000e-01
221000.0 1.004032000e+00 1.510940000e-01
230500.0 1.004046000e+00 1.632790000e-01
240000.0 1.004444000e+00 1.743020000e-01
249500.0 1.004907000e+00 1.857010000e-01
259000.0 1.005251000e+00 1.973330000e-01
268500.0 1.004691000e+00 2.076260000e-01
278000.0 1.005854000e+00 2.188390000e-01
287500.0 1.006173000e+00 2.304450000e-01
297000.0 1.006670000e+00 2.410530000e-01
306500.0 1.006958000e+00 2.516750000e-01
316000.0 1.006477000e+00 2.625670000e-01
325500.0 1.007121000e+00 2.739230000e-01
335000.0 1.006690000e+00 2.842680000e-01
344500.0 1.007371000e+00 2.952690000e-01
354000.0 1.007085000e+00 3.058760000e-01
363500.0 1.006966000e+00 3.165420000e-01
373000.0 1.007983000e+00 3.266030000e-01
382500.0 1.008453000e+00 3.373440000e-01
392000.0 1.007954000e+00 3.479820000e-01
401500.0 1.008922000e+00 3.586750000e-01
411000.0 1.009041000e+00 3.686140000e-01
420500.0 1.009368000e+00 3.793970000e-01
430000.0 1.009512000e+00 3.895190000e-01
439500.0 1.009532000e+00 4.000390000e-01
449000.0 1.009830000e+00 4.098970000e-01
458500.0 1.010332000e+00 4.198660000e-01
468000.0 1.011721000e+00 4.301690000e-01
477500.0 1.010372000e+00 4.409420000e-01
487000.0 1.011232000e+00 4.498360000e-01
496500.0 1.011392000e+00 4.607680000e-01
506000.0 1.011587000e+00 4.706890000e-01
515500.0 1.012312000e+00 4.807000000e-01
525000.0 1.012608000e+00 4.911500000e-01
534500.0 1.013248000e+00 5.016140000e-01
544000.0 1.013659000e+00 5.111780000e-01
553500.0 1.013960000e+00 5.202360000e-01
563000.0 1.014758000e+00 5.293500000e-01
572500.0 1.015460000e+00 5.401670000e-01
582000.0 1.014788000e+00 5.500620000e-01
591500.0 1.015512000e+00 5.601730000e-01
601000.0 1.015659000e+00 5.688340000e-01
610500.0 1.017205000e+00 5.794570000e-01
620000.0 1.017348000e+00 5.892080000e-01
629500.0 1.017678000e+00 5.973270000e-01
639000.0 1.018806000e+00 6.080590000e-01
648500.0 1.018881000e+00 6.176100000e-01
658000.0 1.019408000e+00 6.265720000e-01
667500.0 1.020886000e+00 6.367960000e-01
677000.0 1.022466000e+00 6.460240000e-01
686500.0 1.022760000e+00 6.551750000e-01
696000.0 1.023363000e+00 6.652530000e-01
705500.0 1.023499000e+00 6.749950000e-01
715000.0 1.025085000e+00 6.840650000e-01
724500.0 1.027119000e+00 6.929760000e-01
734000.0 1.027079000e+00 7.016000000e-01
743500.0 1.028554000e+00 7.114690000e-01
753000.0 1.028766000e+00 7.217230000e-01
762500.0 1.031787000e+00 7.301080000e-01
772000.0 1.031683000e+00 7.399920000e-01
781500.0 1.032430000e+00 7.491770000e-01
791000.0 1.033043000e+00 7.583840000e-01
800500.0 1.035491000e+00 7.677690000e-01
810000.0 1.036899000e+00 7.760870000e-01
819500.0 1.037473000e+00 7.871250000e-01
829000.0 1.039716000e+00 7.959190000e-01
838500.0 1.041050000e+00 8.043220000e-01
848000.0 1.043384000e+00 8.120870000e-01
857500.0 1.044530000e+00 8.215800000e-01
867000.0 1.046430000e+00 8.311790000e-01
876500.0 1.049299000e+00 8.401830000e-01
886000.0 1.049757000e+00 8.501620000e-01
895500.0 1.053479000e+00 8.584740000e-01
905000.0 1.053873000e+00 8.671210000e-01
914500.0 1.056429000e+00 8.767970000e-01
924000.0 1.058851000e+00 8.847210000e-01
933500.0 1.061949000e+00 8.938560000e-01
943000.0 1.065421000e+00 9.037750000e-01
952500.0 1.065809000e+00 9.112010000e-01
962000.0 1.068173000e+00 9.211790000e-01
971500.0 1.069811000e+00 9.303970000e-01
981000.0 1.072573000e+00 9.379350000e-01
990500.0 1.076243000e+00 9.481200000e-01
1000000.0 1.078014000e+00 9.548090000e-01
1090000.0 1.106318000e+00 1.034996000e+00
1180000.0 1.145855000e+00 1.110709000e+00
1270000.0 1.194847000e+00 1.180913000e+00
1360000.0 1.254547000e+00 1.242513000e+00
1450000.0 1.322527000e+00 1.294392000e+00
1540000.0 1.402574000e+00 1.334702000e+00
1630000.0 1.489612000e+00 1.353653000e+00
1720000.0 1.579852000e+00 1.355316000e+00
1810000.0 1.670760000e+00 1.338211000e+00
1900000.0 1.753282000e+00 1.296734000e+00
1990000.0 1.829259000e+00 1.239578000e+00
2080000.0 1.891148000e+00 1.166445000e+00
2170000.0 1.937108000e+00 1.080633000e+00
2260000.0 1.957484000e+00 9.929580000e-01
2350000.0 1.971943000e+00 9.037200000e-01
2440000.0 1.958086000e+00 8.174440000e-01
2530000.0 1.940068000e+00 7.371510000e-01
2620000.0 1.912092000e+00 6.660200000e-01
2710000.0 1.878322000e+00 5.980100000e-01
2800000.0 1.837244000e+00 5.759210000e-01
2890000.0 1.805169000e+00 4.903840000e-01
2980000.0 1.765100000e+00 4.485760000e-01
3070000.0 1.728020000e+00 4.101610000e-01
3160000.0 1.689060000e+00 3.753400000e-01
3250000.0 1.655008000e+00 3.433210000e-01
3340000.0 1.620043000e+00 3.187980000e-01
3430000.0 1.587700000e+00 2.946500000e-01
3520000.0 1.556757000e+00 2.724690000e-01
3610000.0 1.528366000e+00 2.513400000e-01
3700000.0 1.502547000e+00 2.311890000e-01
3790000.0 1.477368000e+00 2.152410000e-01
3880000.0 1.455639000e+00 1.982300000e-01
3970000.0 1.434392000e+00 1.813070000e-01
4060000.0 1.415066000e+00 1.652750000e-01
4150000.0 1.396415000e+00 1.512720000e-01
4240000.0 1.379761000e+00 1.372340000e-01
4330000.0 1.364398000e+00 1.217570000e-01
4420000.0 1.349921000e+00 1.079350000e-01
4510000.0 1.337118000e+00 9.434400000e-02
4600000.0 1.326688000e+00 8.086700000e-02
4690000.0 1.317779000e+00 6.835900000e-02
4780000.0 1.307920000e+00 5.564600000e-02
4870000.0 1.299171000e+00 4.193100000e-02
4960000.0 1.292396000e+00 2.899600000e-02
5050000.0 1.277224000e+00 1.701700000e-02
5140000.0 1.271195000e+00 5.519000000e-03
5230000.0 1.266581000e+00 -6.906000000e-03
5320000.0 1.262867000e+00 -1.999400000e-02
5410000.0 1.258635000e+00 -3.162700000e-02
5500000.0 1.255333000e+00 -4.303300000e-02
5590000.0 1.251987000e+00 -5.435800000e-02
5680000.0 1.247881000e+00 -6.615700000e-02
5770000.0 1.246138000e+00 -7.686200000e-02
5860000.0 1.242665000e+00 -8.771800000e-02
5950000.0 1.239174000e+00 -9.777500000e-02
6040000.0 1.236303000e+00 -1.075400000e-01
6130000.0 1.234430000e+00 -1.173430000e-01
6220000.0 1.232071000e+00 -1.279660000e-01
6310000.0 1.230055000e+00 -1.351220000e-01
6400000.0 1.228524000e+00 -1.431040000e-01
6490000.0 1.227198000e+00 -1.521390000e-01
6580000.0 1.225082000e+00 -1.587680000e-01
6670000.0 1.224210000e+00 -1.649600000e-01
6760000.0 1.222916000e+00 -1.712930000e-01
6850000.0 1.222138000e+00 -1.770770000e-01
6940000.0 1.220618000e+00 -1.815230000e-01
7030000.0 1.220470000e+00 -1.868780000e-01
7120000.0 1.219436000e+00 -1.878060000e-01
7210000.0 1.220597000e+00 -1.909300000e-01
7300000.0 1.220544000e+00 -1.917520000e-01
7390000.0 1.219344000e+00 -1.931590000e-01
7480000.0 1.219625000e+00 -1.939140000e-01
7570000.0 -2.441450000e-01 -1.259269000e+00
7660000.0 -2.422450000e-01 -1.258958000e+00
7750000.0 -2.422220000e-01 -1.260142000e+00
7840000.0 -2.408080000e-01 -1.260172000e+00
7930000.0 -2.397160000e-01 -1.260571000e+00
8020000.0 -2.396680000e-01 -1.261227000e+00
8110000.0 -2.384630000e-01 -1.260738000e+00
8200000.0 -2.379230000e-01 -1.260847000e+00
8290000.0 -2.366770000e-01 -1.263257000e+00
8380000.0 -2.357270000e-01 -1.262676000e+00
8470000.0 -2.353220000e-01 -1.263283000e+00
8560000.0 -2.350020000e-01 -1.263893000e+00
8650000.0 -2.350280000e-01 -1.264666000e+00
8740000.0 -2.338670000e-01 -1.264610000e+00
8830000.0 -2.320400000e-01 -1.267868000e+00
8920000.0 -2.322260000e-01 -1.266058000e+00
9010000.0 -2.317220000e-01 -1.266781000e+00
9100000.0 -2.305930000e-01 -1.268277000e+00
9190000.0 -2.313780000e-01 -1.268863000e+00
9280000.0 -2.295880000e-01 -1.269181000e+00
9370000.0 -2.287080000e-01 -1.268926000e+00
9460000.0 -2.281220000e-01 -1.270749000e+00
9550000.0 -2.276890000e-01 -1.270894000e+00
9640000.0 -2.275590000e-01 -1.273026000e+00
9730000.0 -2.264470000e-01 -1.272867000e+00
9820000.0 -2.244560000e-01 -1.274209000e+00
9910000.0 -2.250640000e-01 -1.274864000e+00
10000000.0 -2.243060000e-01 -1.276591000e+00
10900000.0 -2.190760000e-01 -1.284280000e+00
11800000.0 -2.128860000e-01 -1.294888000e+00
12700000.0 -2.068570000e-01 -1.303993000e+00
13600000.0 -2.006510000e-01 -1.315369000e+00
14500000.0 -1.950790000e-01 -1.325012000e+00
15400000.0 -1.885220000e-01 -1.337418000e+00
16300000.0 -1.820750000e-01 -1.348886000e+00
17200000.0 -1.762920000e-01 -1.360747000e+00
18100000.0 -1.688760000e-01 -1.372437000e+00
19000000.0 -1.609520000e-01 -1.385362000e+00
19900000.0 -1.536040000e-01 -1.397427000e+00
20800000.0 -1.445730000e-01 -1.410603000e+00
21700000.0 -1.354320000e-01 -1.424656000e+00
22600000.0 -1.272810000e-01 -1.437720000e+00
23500000.0 -1.179750000e-01 -1.449130000e+00
24400000.0 -1.078870000e-01 -1.463462000e+00
25300000.0 -9.896500000e-02 -1.477474000e+00
26200000.0 -8.796000000e-02 -1.490811000e+00
27100000.0 -7.426600000e-02 -1.504429000e+00
28000000.0 -6.511500000e-02 -1.518907000e+00
28900000.0 -5.200400000e-02 -1.532538000e+00
29800000.0 -1.455870000e-01 -1.475077000e+00
30700000.0 -2.383100000e-02 -1.561889000e+00
31600000.0 -1.152500000e-02 -1.577247000e+00
32500000.0 3.306000000e-03 -1.591207000e+00
33400000.0 1.851200000e-02 -1.605375000e+00
34300000.0 3.384100000e-02 -1.622168000e+00
35200000.0 5.235900000e-02 -1.634351000e+00
36100000.0 6.997200000e-02 -1.651211000e+00
37000000.0 8.632900000e-02 -1.663767000e+00
37900000.0 1.051330000e-01 -1.678770000e+00
38800000.0 1.258140000e-01 -1.693302000e+00
39700000.0 1.458570000e-01 -1.708920000e+00
40600000.0 1.665830000e-01 -1.721022000e+00
41500000.0 1.896830000e-01 -1.737238000e+00
42400000.0 2.109160000e-01 -1.749135000e+00
43300000.0 2.357210000e-01 -1.762884000e+00
44200000.0 2.597760000e-01 -1.774364000e+00
45100000.0 2.848110000e-01 -1.787285000e+00
46000000.0 3.112780000e-01 -1.800382000e+00
46900000.0 3.386810000e-01 -1.811979000e+00
47800000.0 3.668150000e-01 -1.823645000e+00
48700000.0 3.957660000e-01 -1.833220000e+00
49600000.0 4.274860000e-01 -1.842251000e+00
50500000.0 4.572470000e-01 -1.852295000e+00
51400000.0 4.891550000e-01 -1.859719000e+00
52300000.0 5.218990000e-01 -1.866724000e+00
53200000.0 5.547600000e-01 -1.871938000e+00
54100000.0 5.892020000e-01 -1.878267000e+00
55000000.0 6.246140000e-01 -1.882406000e+00
55900000.0 6.615070000e-01 -1.884727000e+00
56800000.0 6.980150000e-01 -1.884759000e+00
57700000.0 7.349580000e-01 -1.888154000e+00
58600000.0 7.722520000e-01 -1.885262000e+00
59500000.0 8.105940000e-01 -1.881750000e+00
60400000.0 8.504990000e-01 -1.876469000e+00
61300000.0 8.887590000e-01 -1.868938000e+00
62200000.0 9.271010000e-01 -1.861576000e+00
63100000.0 9.653210000e-01 -1.853972000e+00
64000000.0 1.006148000e+00 -1.841016000e+00
64900000.0 1.044381000e+00 -1.827707000e+00
65800000.0 1.084010000e+00 -1.812575000e+00
66700000.0 1.121888000e+00 -1.797008000e+00
67600000.0 1.160613000e+00 -1.778119000e+00
68500000.0 1.196845000e+00 -1.754736000e+00
69400000.0 1.233431000e+00 -1.735545000e+00
70300000.0 1.268882000e+00 -1.710061000e+00
71200000.0 1.303633000e+00 -1.684903000e+00
72100000.0 1.337244000e+00 -1.657100000e+00
73000000.0 1.368151000e+00 -1.628766000e+00
73900000.0 1.398084000e+00 -1.598005000e+00
74800000.0 1.428902000e+00 -1.568038000e+00
75700000.0 1.455412000e+00 -1.535412000e+00
76600000.0 1.481552000e+00 -1.502503000e+00
77500000.0 1.504214000e+00 -1.466402000e+00
78400000.0 1.527420000e+00 -1.430715000e+00
79300000.0 1.550832000e+00 -1.395603000e+00
80200000.0 1.567346000e+00 -1.359459000e+00
81100000.0 1.584738000e+00 -1.321187000e+00
82000000.0 1.601396000e+00 -1.284976000e+00
82900000.0 1.611962000e+00 -1.248579000e+00
83800000.0 1.625325000e+00 -1.210643000e+00
84700000.0 1.636003000e+00 -1.174386000e+00
85600000.0 1.644789000e+00 -1.135267000e+00
86500000.0 1.649975000e+00 -1.098981000e+00
87400000.0 1.656887000e+00 -1.062357000e+00
88300000.0 1.661566000e+00 -1.027492000e+00
89200000.0 1.664007000e+00 -9.911670000e-01
90100000.0 1.663559000e+00 -9.546250000e-01
91000000.0 1.663744000e+00 -9.218930000e-01
91900000.0 1.664445000e+00 -8.880700000e-01
92800000.0 1.659338000e+00 -8.570180000e-01
93700000.0 1.659928000e+00 -8.236510000e-01
94600000.0 1.652290000e+00 -7.927660000e-01
95500000.0 1.646604000e+00 -7.607860000e-01
96400000.0 1.640853000e+00 -7.336660000e-01
97300000.0 1.635224000e+00 -7.023380000e-01
98200000.0 1.625963000e+00 -6.739770000e-01
99100000.0 1.618535000e+00 -6.473640000e-01
100000000.0 1.609223000e+00 -6.197730000e-01
109000000.0 1.501710000e+00 -3.991230000e-01
118000000.0 1.377535000e+00 -2.451340000e-01
127000000.0 1.257007000e+00 -1.380710000e-01
136000000.0 1.147814000e+00 -6.797800000e-02
145000000.0 1.049549000e+00 -2.001900000e-02
154000000.0 1.000390000e+00 6.270000000e-04
163000000.0 1.002561000e+00 3.800000000e-05
172000000.0 1.003435000e+00 8.900000000e-05
181000000.0 1.003762000e+00 -3.034000000e-03
190000000.0 1.005437000e+00 -2.805000000e-03
199000000.0 1.005077000e+00 -9.450000000e-04
208000000.0 1.005653000e+00 -1.235000000e-03
217000000.0 1.006073000e+00 -1.846000000e-03
226000000.0 1.005796000e+00 -2.627000000e-03
235000000.0 1.006465000e+00 -9.560000000e-04
244000000.0 1.005805000e+00 -1.257000000e-03
253000000.0 1.006062000e+00 -1.195000000e-03
262000000.0 1.005593000e+00 -1.020000000e-03
271000000.0 1.004202000e+00 6.480000000e-04
280000000.0 1.003184000e+00 -5.650000000e-04
289000000.0 1.002741000e+00 -1.236000000e-03
298000000.0 1.002428000e+00 -4.330000000e-04
307000000.0 1.002524000e+00 -8.610000000e-04
316000000.0 1.004635000e+00 0.000000000e+00
325000000.0 1.002840000e+00 -1.474000000e-03
334000000.0 1.004920000e+00 3.080000000e-04
343000000.0 1.005937000e+00 -5.500000000e-05
352000000.0 1.006125000e+00 1.114000000e-03
361000000.0 1.006784000e+00 7.230000000e-04
370000000.0 9.999550000e-01 -1.500400000e-02
379000000.0 9.899690000e-01 -3.149600000e-02
388000000.0 1.004431000e+00 -1.839500000e-02
397000000.0 1.005375000e+00 3.100000000e-04
406000000.0 9.881100000e-01 -7.040000000e-02
415000000.0 1.006030000e+00 2.076700000e-02
424000000.0 1.003135000e+00 4.780000000e-04
433000000.0 1.001960000e+00 9.950000000e-04
442000000.0 1.000809000e+00 3.460000000e-04
451000000.0 9.979840000e-01 -3.970000000e-04
460000000.0 1.002099000e+00 1.065000000e-03
469000000.0 1.003179000e+00 2.059000000e-03
478000000.0 1.004268000e+00 3.256000000e-03
487000000.0 1.005198000e+00 3.349000000e-03
496000000.0 1.006328000e+00 3.215000000e-03
505000000.0 1.006788000e+00 7.771000000e-03
514000000.0 1.008941000e+00 7.379000000e-03
523000000.0 1.008702000e+00 6.489000000e-03
532000000.0 1.010644000e+00 1.039700000e-02
541000000.0 1.009081000e+00 8.073000000e-03
550000000.0 1.008046000e+00 1.138100000e-02
559000000.0 1.008641000e+00 7.595000000e-03
568000000.0 1.009079000e+00 7.694000000e-03
577000000.0 1.008870000e+00 8.469000000e-03
586000000.0 1.005982000e+00 8.937000000e-03
595000000.0 1.005466000e+00 6.343000000e-03
604000000.0 1.003131000e+00 7.599000000e-03
613000000.0 1.007986000e+00 6.493000000e-03
622000000.0 1.009091000e+00 6.993000000e-03
631000000.0 1.014800000e+00 8.436000000e-03
640000000.0 1.015323000e+00 8.901000000e-03
649000000.0 1.013813000e+00 8.167000000e-03
658000000.0 1.015536000e+00 7.248000000e-03
667000000.0 1.014571000e+00 6.740000000e-03
676000000.0 1.017186000e+00 1.120000000e-02
685000000.0 1.013379000e+00 9.860000000e-03
694000000.0 1.017065000e+00 5.900000000e-03
703000000.0 1.018713000e+00 2.798000000e-02
712000000.0 1.013020000e+00 7.450000000e-03
721000000.0 1.012239000e+00 5.349000000e-03
730000000.0 1.007919000e+00 6.352000000e-03
739000000.0 1.005396000e+00 6.455000000e-03
748000000.0 1.000674000e+00 1.046000000e-03
757000000.0 1.004164000e+00 2.900000000e-03
766000000.0 1.006399000e+00 -3.416000000e-03
775000000.0 1.008989000e+00 -5.240000000e-03
784000000.0 1.010158000e+00 -1.101000000e-03
793000000.0 1.015492000e+00 -4.843000000e-03
802000000.0 1.013825000e+00 -5.205000000e-03
811000000.0 1.015851000e+00 -5.188000000e-03
820000000.0 1.020861000e+00 -5.263000000e-03
829000000.0 1.019975000e+00 -5.595000000e-03
838000000.0 1.017296000e+00 -3.369000000e-03
847000000.0 1.017151000e+00 -4.510000000e-03
856000000.0 1.016235000e+00 -4.680000000e-03
865000000.0 1.012700000e+00 -6.564000000e-03
874000000.0 1.011113000e+00 -2.786000000e-03
883000000.0 1.006683000e+00 -7.831000000e-03
892000000.0 1.004413000e+00 -3.742000000e-03
901000000.0 1.001913000e+00 1.170000000e-03
910000000.0 1.003551000e+00 -3.874000000e-03
919000000.0 1.002097000e+00 -3.965000000e-03
928000000.0 9.994090000e-01 -2.307200000e-02
937000000.0 1.002929000e+00 -1.036800000e-02
946000000.0 1.003594000e+00 1.146600000e-02
955000000.0 1.004112000e+00 -6.367000000e-03
964000000.0 1.003287000e+00 -2.687600000e-02
973000000.0 1.004881000e+00 -6.508000000e-03
982000000.0 1.004302000e+00 9.329000000e-03
991000000.0 1.005847000e+00 -7.528000000e-03
1000000000.0 1.004742000e+00 -6.301000000e-03
1004500000.0 1.003738000e+00 -8.021000000e-03
1009000000.0 1.004880000e+00 -5.140000000e-03
1013500000.0 1.004283000e+00 -5.120000000e-03
1018000000.0 1.004113000e+00 -7.164000000e-03
1022500000.0 1.005874000e+00 -5.367000000e-03
1027000000.0 1.000639000e+00 -9.207000000e-03
1031500000.0 1.003511000e+00 -6.234000000e-03
1036000000.0 9.996150000e-01 -4.796000000e-03
1040500000.0 1.001260000e+00 -3.581000000e-03
1045000000.0 9.996700000e-01 -2.305000000e-03
1049500000.0 9.999230000e-01 -4.600000000e-05
1054000000.0 1.002179000e+00 -3.445000000e-03
1058500000.0 9.976990000e-01 1.800000000e-05
1063000000.0 9.969490000e-01 -1.630000000e-03
1067500000.0 9.989320000e-01 1.402000000e-03
1072000000.0 1.004728000e+00 -3.524000000e-03
1076500000.0 1.000889000e+00 -4.672000000e-03
1081000000.0 1.003603000e+00 5.109000000e-03
1085500000.0 9.982330000e-01 -3.849000000e-03
1090000000.0 1.000509000e+00 1.028000000e-03
1094500000.0 1.002577000e+00 -8.950000000e-04
1099000000.0 1.001816000e+00 -2.465000000e-03
1103500000.0 9.991100000e-01 2.240000000e-03
1108000000.0 1.005485000e+00 -2.260000000e-03
1112500000.0 1.006101000e+00 -2.945000000e-03
1117000000.0 1.002952000e+00 -1.814000000e-03
1121500000.0 1.002159000e+00 -5.452000000e-03
1126000000.0 1.006649000e+00 -1.916000000e-03
1130500000.0 1.003157000e+00 -5.472000000e-03
1135000000.0 1.003411000e+00 -7.513000000e-03
1139500000.0 1.005541000e+00 -1.086000000e-03
1144000000.0 1.008121000e+00 -2.283100000e-02
1148500000.0 1.001706000e+00 -4.741000000e-03
1153000000.0 1.010244000e+00 2.252700000e-02
1157500000.0 1.008565000e+00 -4.037300000e-02
1162000000.0 1.003142000e+00 -1.847000000e-03
1166500000.0 1.007036000e+00 1.228000000e-03
1171000000.0 1.003892000e+00 -1.199600000e-02
1175500000.0 1.000216000e+00 -8.597000000e-03
1180000000.0 1.002409000e+00 -3.303000000e-03
1184500000.0 1.005422000e+00 -6.914000000e-03
1189000000.0 1.010670000e+00 -2.569000000e-03
1193500000.0 1.004893000e+00 1.018000000e-03
1198000000.0 1.003222000e+00 3.880000000e-03
1202500000.0 1.003249000e+00 -2.349000000e-03
1207000000.0 1.002804000e+00 -2.008000000e-03
1211500000.0 1.005207000e+00 -6.290000000e-04
1216000000.0 1.001994000e+00 -1.161300000e-02
1220500000.0 1.009345000e+00 -3.729000000e-03
1225000000.0 1.009924000e+00 -5.105000000e-03
1229500000.0 1.000850000e+00 -4.680000000e-04
1234000000.0 1.005103000e+00 4.460000000e-04
1238500000.0 1.003119000e+00 2.528000000e-03
1243000000.0 1.001935000e+00 -1.059400000e-02
1247500000.0 1.005869000e+00 -1.248000000e-03
1252000000.0 1.003394000e+00 -8.881000000e-03
1256500000.0 1.004491000e+00 5.920000000e-04
1261000000.0 9.977720000e-01 -6.051000000e-03
1265500000.0 1.004215000e+00 -3.560000000e-04
1270000000.0 1.003080000e+00 -4.982000000e-03
1274500000.0 1.006813000e+00 -1.461000000e-03
1279000000.0 1.004201000e+00 -2.977000000e-03
1283500000.0 1.002628000e+00 -6.571000000e-03
1288000000.0 9.998360000e-01 1.636000000e-03
1292500000.0 1.000087000e+00 -2.346000000e-03
1297000000.0 1.001299000e+00 -5.252000000e-03
1301500000.0 1.004444000e+00 2.578000000e-03
1306000000.0 1.009346000e+00 3.565700000e-02
1310500000.0 1.000980000e+00 -4.557000000e-03
1315000000.0 1.002480000e+00 3.518000000e-03
1319500000.0 1.003484000e+00 8.802000000e-03
1324000000.0 1.001412000e+00 7.822000000e-03
1328500000.0 1.004687000e+00 6.967000000e-03
1333000000.0 1.008034000e+00 1.043300000e-02
1337500000.0 1.001648000e+00 -5.800000000e-04
1342000000.0 1.004529000e+00 5.388000000e-03
1346500000.0 1.012842000e+00 -1.390000000e-03
1351000000.0 1.007757000e+00 3.867000000e-03
1355500000.0 9.981110000e-01 8.753000000e-03
1360000000.0 1.006326000e+00 6.822000000e-03
1364500000.0 1.002443000e+00 2.054000000e-03
1369000000.0 1.005059000e+00 1.978700000e-02
1373500000.0 1.002841000e+00 1.022600000e-02
1378000000.0 1.006210000e+00 8.823000000e-03
1382500000.0 1.005551000e+00 1.500600000e-02
1387000000.0 1.006291000e+00 1.196600000e-02
1391500000.0 1.001147000e+00 6.720000000e-03
1396000000.0 1.007001000e+00 1.411700000e-02
1400500000.0 1.001147000e+00 7.617000000e-03
1405000000.0 1.005371000e+00 1.164500000e-02
1409500000.0 1.009926000e+00 7.408000000e-03
1414000000.0 1.005780000e+00 1.238200000e-02
1418500000.0 1.008866000e+00 1.954200000e-02
1423000000.0 1.001251000e+00 1.476300000e-02
1427500000.0 1.002323000e+00 1.795300000e-02
1432000000.0 1.001805000e+00 1.419200000e-02
1436500000.0 1.000644000e+00 1.567600000e-02
1441000000.0 1.002321000e+00 1.557800000e-02
1445500000.0 1.000827000e+00 2.073600000e-02
1450000000.0 1.003047000e+00 1.790000000e-02
