! piloto_saltos / abierto_pausado / r08
# HZ S RI R 50
50000.0 1.006871000e+00 -6.925100000e-02
59500.0 1.003607000e+00 -5.577600000e-02
69000.0 1.004407000e+00 -4.288500000e-02
78500.0 1.003552000e+00 -2.958600000e-02
88000.0 1.001238000e+00 -1.758600000e-02
97500.0 1.001423000e+00 -5.149000000e-03
107000.0 9.995380000e-01 8.053000000e-03
116500.0 1.001272000e+00 1.984400000e-02
126000.0 1.002918000e+00 3.139400000e-02
135500.0 1.001426000e+00 4.450000000e-02
145000.0 1.000568000e+00 5.714600000e-02
154500.0 1.001372000e+00 6.969200000e-02
164000.0 1.002240000e+00 8.127700000e-02
173500.0 1.001968000e+00 9.272200000e-02
183000.0 1.003212000e+00 1.052150000e-01
192500.0 1.003590000e+00 1.166430000e-01
202000.0 1.003662000e+00 1.282140000e-01
211500.0 1.003963000e+00 1.398210000e-01
221000.0 1.004084000e+00 1.518180000e-01
230500.0 1.003934000e+00 1.633850000e-01
240000.0 1.004611000e+00 1.736430000e-01
249500.0 1.024875000e+00 2.163540000e-01
259000.0 1.005154000e+00 1.966600000e-01
268500.0 1.006526000e+00 2.077930000e-01
278000.0 1.004653000e+00 2.188650000e-01
287500.0 1.005844000e+00 2.307180000e-01
297000.0 1.005520000e+00 2.413920000e-01
306500.0 1.006347000e+00 2.520940000e-01
316000.0 1.005658000e+00 2.622300000e-01
325500.0 1.007161000e+00 2.739340000e-01
335000.0 1.007424000e+00 2.847530000e-01
344500.0 1.007808000e+00 2.945650000e-01
354000.0 1.007866000e+00 3.049090000e-01
363500.0 9.984180000e-01 3.003630000e-01
373000.0 1.007339000e+00 3.270510000e-01
382500.0 1.008206000e+00 3.370080000e-01
392000.0 1.008577000e+00 3.475130000e-01
401500.0 1.007897000e+00 3.580910000e-01
411000.0 1.008882000e+00 3.686920000e-01
420500.0 1.008519000e+00 3.787170000e-01
430000.0 1.009224000e+00 3.896550000e-01
439500.0 1.009938000e+00 3.992590000e-01
449000.0 1.014988000e+00 4.440240000e-01
458500.0 1.010193000e+00 4.211520000e-01
468000.0 1.010470000e+00 4.313910000e-01
477500.0 1.010118000e+00 4.400900000e-01
487000.0 1.011358000e+00 4.502110000e-01
496500.0 1.011631000e+00 4.597920000e-01
506000.0 1.011657000e+00 4.707740000e-01
515500.0 1.012458000e+00 4.813040000e-01
525000.0 1.013041000e+00 4.905040000e-01
534500.0 1.013244000e+00 5.004550000e-01
544000.0 1.013145000e+00 5.110490000e-01
553500.0 1.013688000e+00 5.205450000e-01
563000.0 1.015083000e+00 5.301410000e-01
572500.0 1.014993000e+00 5.394750000e-01
582000.0 1.014810000e+00 5.498830000e-01
591500.0 1.015837000e+00 5.597290000e-01
601000.0 1.015904000e+00 5.690130000e-01
610500.0 1.017004000e+00 5.783110000e-01
620000.0 1.017311000e+00 5.888430000e-01
629500.0 1.018746000e+00 5.985830000e-01
639000.0 1.019001000e+00 6.079820000e-01
648500.0 1.018665000e+00 6.172620000e-01
658000.0 1.020357000e+00 6.274690000e-01
667500.0 1.019933000e+00 6.362050000e-01
677000.0 1.021743000e+00 6.464440000e-01
686500.0 1.022415000e+00 6.561650000e-01
696000.0 1.023192000e+00 6.648520000e-01
705500.0 1.023854000e+00 6.734540000e-01
715000.0 1.024683000e+00 6.836940000e-01
724500.0 1.025201000e+00 6.927030000e-01
734000.0 1.027667000e+00 7.016080000e-01
743500.0 1.027281000e+00 7.119310000e-01
753000.0 1.029722000e+00 7.207760000e-01
762500.0 1.031178000e+00 7.303530000e-01
772000.0 1.032435000e+00 7.394510000e-01
781500.0 1.032288000e+00 7.483710000e-01
791000.0 1.034464000e+00 7.598960000e-01
800500.0 1.034814000e+00 7.676020000e-01
810000.0 1.036664000e+00 7.757940000e-01
819500.0 1.037364000e+00 7.846520000e-01
829000.0 1.039871000e+00 7.940100000e-01
838500.0 1.042416000e+00 8.042520000e-01
848000.0 1.043217000e+00 8.140970000e-01
857500.0 1.044177000e+00 8.228650000e-01
867000.0 1.046619000e+00 8.319750000e-01
876500.0 1.049384000e+00 8.407850000e-01
886000.0 1.051273000e+00 8.490870000e-01
895500.0 1.052571000e+00 8.594940000e-01
905000.0 1.054203000e+00 8.661330000e-01
914500.0 1.056220000e+00 8.751600000e-01
924000.0 1.056331000e+00 8.856730000e-01
933500.0 1.061550000e+00 8.940790000e-01
943000.0 1.062773000e+00 9.029240000e-01
952500.0 1.065040000e+00 9.126470000e-01
962000.0 1.068410000e+00 9.228240000e-01
971500.0 1.071320000e+00 9.288970000e-01
981000.0 1.072735000e+00 9.377120000e-01
990500.0 1.075680000e+00 9.472520000e-01
1000000.0 1.078801000e+00 9.557470000e-01
1090000.0 1.107572000e+00 1.036383000e+00
1180000.0 1.144397000e+00 1.111502000e+00
1270000.0 1.193205000e+00 1.181827000e+00
1360000.0 1.253536000e+00 1.243287000e+00
1450000.0 1.322259000e+00 1.295018000e+00
1540000.0 1.400886000e+00 1.331395000e+00
1630000.0 1.488862000e+00 1.352560000e+00
1720000.0 1.579862000e+00 1.354476000e+00
1810000.0 1.667890000e+00 1.339661000e+00
1900000.0 1.756875000e+00 1.297833000e+00
1990000.0 1.830131000e+00 1.239277000e+00
2080000.0 1.891168000e+00 1.165339000e+00
2170000.0 1.934218000e+00 1.079768000e+00
2260000.0 1.956001000e+00 9.916960000e-01
2350000.0 1.965655000e+00 9.015470000e-01
2440000.0 1.960979000e+00 8.180300000e-01
2530000.0 1.942522000e+00 7.348700000e-01
2620000.0 1.913433000e+00 6.625480000e-01
2710000.0 1.881877000e+00 5.982430000e-01
2800000.0 1.843993000e+00 5.425070000e-01
2890000.0 1.806153000e+00 4.921080000e-01
2980000.0 1.765432000e+00 4.489940000e-01
3070000.0 1.729069000e+00 4.082780000e-01
3160000.0 1.691601000e+00 3.763950000e-01
3250000.0 1.653505000e+00 3.458490000e-01
3340000.0 1.621070000e+00 3.187800000e-01
3430000.0 1.587029000e+00 2.938620000e-01
3520000.0 1.557682000e+00 2.716950000e-01
3610000.0 1.528984000e+00 2.516570000e-01
3700000.0 1.502349000e+00 2.312280000e-01
3790000.0 1.478676000e+00 2.142480000e-01
3880000.0 1.454285000e+00 1.972770000e-01
3970000.0 1.434591000e+00 1.806390000e-01
4060000.0 1.415899000e+00 1.659280000e-01
4150000.0 1.397195000e+00 1.503920000e-01
4240000.0 1.379074000e+00 1.373200000e-01
4330000.0 1.365067000e+00 1.221550000e-01
4420000.0 1.351030000e+00 1.086260000e-01
4510000.0 1.338858000e+00 9.653700000e-02
4600000.0 1.326007000e+00 8.165200000e-02
4690000.0 1.316040000e+00 6.907400000e-02
4780000.0 1.307146000e+00 5.525500000e-02
4870000.0 1.298413000e+00 4.221700000e-02
4960000.0 1.290758000e+00 2.999100000e-02
5050000.0 1.275581000e+00 1.802600000e-02
5140000.0 1.271903000e+00 4.759000000e-03
5230000.0 1.267662000e+00 -7.456000000e-03
5320000.0 1.262249000e+00 -1.899800000e-02
5410000.0 1.258743000e+00 -3.147800000e-02
5500000.0 1.254460000e+00 -4.307400000e-02
5590000.0 1.251401000e+00 -5.448800000e-02
5680000.0 1.248306000e+00 -6.586900000e-02
5770000.0 1.245307000e+00 -7.764600000e-02
5860000.0 1.242905000e+00 -8.714100000e-02
5950000.0 1.239427000e+00 -9.845900000e-02
6040000.0 1.237021000e+00 -1.077160000e-01
6130000.0 1.235201000e+00 -1.175340000e-01
6220000.0 1.232329000e+00 -1.271620000e-01
6310000.0 1.229705000e+00 -1.361160000e-01
6400000.0 1.227588000e+00 -1.446240000e-01
6490000.0 1.226143000e+00 -1.519910000e-01
6580000.0 1.225601000e+00 -1.587520000e-01
6670000.0 1.224203000e+00 -1.656590000e-01
6760000.0 1.223803000e+00 -1.724510000e-01
6850000.0 1.222208000e+00 -1.772340000e-01
6940000.0 1.220909000e+00 -1.821240000e-01
7030000.0 1.220120000e+00 -1.852620000e-01
7120000.0 1.220156000e+00 -1.889640000e-01
7210000.0 1.219573000e+00 -1.912560000e-01
7300000.0 1.219932000e+00 -1.932620000e-01
7390000.0 1.218906000e+00 -1.934190000e-01
7480000.0 1.218712000e+00 -1.944480000e-01
7570000.0 -2.427970000e-01 -1.259264000e+00
7660000.0 -2.414400000e-01 -1.259565000e+00
7750000.0 -2.416110000e-01 -1.259222000e+00
7840000.0 -2.406660000e-01 -1.259845000e+00
7930000.0 -2.385620000e-01 -1.260804000e+00
8020000.0 -2.389330000e-01 -1.261080000e+00
8110000.0 -2.375860000e-01 -1.262256000e+00
8200000.0 -2.379450000e-01 -1.261785000e+00
8290000.0 -2.371020000e-01 -1.261795000e+00
8380000.0 -2.363380000e-01 -1.262109000e+00
8470000.0 -2.371610000e-01 -1.263638000e+00
8560000.0 -2.360550000e-01 -1.263790000e+00
8650000.0 -2.347550000e-01 -1.265342000e+00
8740000.0 -2.340080000e-01 -1.266709000e+00
8830000.0 -2.321660000e-01 -1.265971000e+00
8920000.0 -2.324680000e-01 -1.266028000e+00
9010000.0 -2.311040000e-01 -1.268141000e+00
9100000.0 -2.304570000e-01 -1.268400000e+00
9190000.0 -2.300360000e-01 -1.268952000e+00
9280000.0 -2.301490000e-01 -1.269775000e+00
9370000.0 -2.293670000e-01 -1.269637000e+00
9460000.0 -2.285880000e-01 -1.271004000e+00
9550000.0 -2.270910000e-01 -1.272238000e+00
9640000.0 -2.272390000e-01 -1.272092000e+00
9730000.0 -2.276360000e-01 -1.273481000e+00
9820000.0 -2.259050000e-01 -1.274303000e+00
9910000.0 -2.261340000e-01 -1.274102000e+00
10000000.0 -2.240520000e-01 -1.276195000e+00
10900000.0 -2.182520000e-01 -1.284649000e+00
11800000.0 -2.124200000e-01 -1.294802000e+00
12700000.0 -2.073310000e-01 -1.304546000e+00
13600000.0 -2.015290000e-01 -1.315225000e+00
14500000.0 -1.943040000e-01 -1.326888000e+00
15400000.0 -1.885130000e-01 -1.336156000e+00
16300000.0 -1.821030000e-01 -1.349548000e+00
17200000.0 -1.757550000e-01 -1.360035000e+00
18100000.0 -1.677580000e-01 -1.373664000e+00
19000000.0 -1.612700000e-01 -1.383898000e+00
19900000.0 -1.539600000e-01 -1.397397000e+00
20800000.0 -1.450970000e-01 -1.409218000e+00
21700000.0 -1.366630000e-01 -1.423652000e+00
22600000.0 -1.266940000e-01 -1.435834000e+00
23500000.0 -1.188640000e-01 -1.449573000e+00
24400000.0 -1.083520000e-01 -1.463029000e+00
25300000.0 -9.748300000e-02 -1.476590000e+00
26200000.0 -8.752900000e-02 -1.489793000e+00
27100000.0 -7.614000000e-02 -1.504870000e+00
28000000.0 -6.393400000e-02 -1.518083000e+00
28900000.0 3.308000000e-03 -1.545595000e+00
29800000.0 -3.775800000e-02 -1.547972000e+00
30700000.0 -2.477200000e-02 -1.562009000e+00
31600000.0 -1.037100000e-02 -1.577171000e+00
32500000.0 2.486000000e-03 -1.592403000e+00
33400000.0 1.876500000e-02 -1.604822000e+00
34300000.0 3.379100000e-02 -1.620612000e+00
35200000.0 5.226900000e-02 -1.635621000e+00
36100000.0 6.774200000e-02 -1.650494000e+00
37000000.0 8.590500000e-02 -1.665001000e+00
37900000.0 1.060440000e-01 -1.679132000e+00
38800000.0 1.246790000e-01 -1.694568000e+00
39700000.0 1.457070000e-01 -1.708420000e+00
40600000.0 1.668540000e-01 -1.723138000e+00
41500000.0 1.886680000e-01 -1.734481000e+00
42400000.0 2.106070000e-01 -1.748819000e+00
43300000.0 2.354760000e-01 -1.763723000e+00
44200000.0 2.595840000e-01 -1.774498000e+00
45100000.0 2.859330000e-01 -1.788120000e+00
46000000.0 3.111470000e-01 -1.800381000e+00
46900000.0 3.383000000e-01 -1.811918000e+00
47800000.0 3.650050000e-01 -1.824571000e+00
48700000.0 3.951550000e-01 -1.834562000e+00
49600000.0 4.271670000e-01 -1.844731000e+00
50500000.0 4.585450000e-01 -1.852006000e+00
51400000.0 4.894940000e-01 -1.859163000e+00
52300000.0 5.225940000e-01 -1.867973000e+00
53200000.0 5.554580000e-01 -1.873987000e+00
54100000.0 5.919190000e-01 -1.877950000e+00
55000000.0 6.242560000e-01 -1.880561000e+00
55900000.0 6.598880000e-01 -1.883428000e+00
56800000.0 6.968590000e-01 -1.886202000e+00
57700000.0 7.346120000e-01 -1.885584000e+00
58600000.0 7.730080000e-01 -1.883766000e+00
59500000.0 8.118080000e-01 -1.881093000e+00
60400000.0 8.499550000e-01 -1.875817000e+00
61300000.0 8.891980000e-01 -1.870288000e+00
62200000.0 9.276680000e-01 -1.862598000e+00
63100000.0 9.664460000e-01 -1.853495000e+00
64000000.0 1.005987000e+00 -1.842407000e+00
64900000.0 1.045058000e+00 -1.827127000e+00
65800000.0 1.084642000e+00 -1.812314000e+00
66700000.0 1.121804000e+00 -1.795350000e+00
67600000.0 1.158570000e+00 -1.777542000e+00
68500000.0 1.196670000e+00 -1.757917000e+00
69400000.0 1.233268000e+00 -1.733294000e+00
70300000.0 1.267756000e+00 -1.710682000e+00
71200000.0 1.304769000e+00 -1.684704000e+00
72100000.0 1.336376000e+00 -1.656734000e+00
73000000.0 1.367441000e+00 -1.628086000e+00
73900000.0 1.397941000e+00 -1.598726000e+00
74800000.0 1.427763000e+00 -1.566702000e+00
75700000.0 1.454574000e+00 -1.533720000e+00
76600000.0 1.482266000e+00 -1.501070000e+00
77500000.0 1.504023000e+00 -1.466874000e+00
78400000.0 1.527306000e+00 -1.431667000e+00
79300000.0 1.549515000e+00 -1.394985000e+00
80200000.0 1.567222000e+00 -1.360171000e+00
81100000.0 1.583499000e+00 -1.322714000e+00
82000000.0 1.600871000e+00 -1.284736000e+00
82900000.0 1.614325000e+00 -1.248742000e+00
83800000.0 1.623729000e+00 -1.210660000e+00
84700000.0 1.634080000e+00 -1.174429000e+00
85600000.0 1.644769000e+00 -1.135960000e+00
86500000.0 1.649226000e+00 -1.096868000e+00
87400000.0 1.656265000e+00 -1.062536000e+00
88300000.0 1.660716000e+00 -1.026507000e+00
89200000.0 1.662627000e+00 -9.903160000e-01
90100000.0 1.663932000e+00 -9.545970000e-01
91000000.0 1.664404000e+00 -9.226660000e-01
91900000.0 1.662357000e+00 -8.889530000e-01
92800000.0 1.661121000e+00 -8.561830000e-01
93700000.0 1.656712000e+00 -8.232990000e-01
94600000.0 1.651322000e+00 -7.901290000e-01
95500000.0 1.648254000e+00 -7.608410000e-01
96400000.0 1.641043000e+00 -7.307770000e-01
97300000.0 1.634269000e+00 -7.031160000e-01
98200000.0 1.626549000e+00 -6.754940000e-01
99100000.0 1.618133000e+00 -6.451580000e-01
100000000.0 1.610165000e+00 -6.181730000e-01
109000000.0 1.501718000e+00 -3.993440000e-01
118000000.0 1.378508000e+00 -2.458760000e-01
127000000.0 1.255929000e+00 -1.366970000e-01
136000000.0 1.147684000e+00 -6.792000000e-02
145000000.0 1.049875000e+00 -1.945800000e-02
154000000.0 1.000575000e+00 2.740000000e-04
163000000.0 1.001771000e+00 -5.330000000e-04
172000000.0 1.002554000e+00 -3.680000000e-04
181000000.0 1.003750000e+00 -1.162000000e-03
190000000.0 1.005428000e+00 -6.310000000e-04
199000000.0 1.004956000e+00 -1.700000000e-03
208000000.0 1.006305000e+00 -2.100000000e-03
217000000.0 1.006366000e+00 -1.226000000e-03
226000000.0 1.006658000e+00 -7.470000000e-04
235000000.0 1.006755000e+00 -1.387000000e-03
244000000.0 1.005814000e+00 -5.920000000e-04
253000000.0 1.005642000e+00 -9.330000000e-04
262000000.0 1.005162000e+00 -1.420000000e-04
271000000.0 1.004224000e+00 -7.100000000e-04
280000000.0 1.003707000e+00 1.860000000e-04
289000000.0 1.003974000e+00 9.050000000e-04
298000000.0 1.001835000e+00 -9.570000000e-04
307000000.0 1.001054000e+00 9.110000000e-04
316000000.0 1.003545000e+00 -1.120000000e-04
325000000.0 1.003125000e+00 -9.990000000e-04
334000000.0 1.006223000e+00 1.099000000e-03
343000000.0 1.005697000e+00 1.805000000e-03
352000000.0 1.006816000e+00 5.850000000e-04
361000000.0 1.007334000e+00 1.763000000e-02
370000000.0 1.006626000e+00 1.651000000e-03
379000000.0 1.007909000e+00 1.981000000e-02
388000000.0 1.006803000e+00 1.360000000e-04
397000000.0 1.004828000e+00 1.034000000e-03
406000000.0 1.005356000e+00 1.660000000e-03
415000000.0 1.002965000e+00 2.062000000e-03
424000000.0 1.003305000e+00 1.740000000e-03
433000000.0 1.001480000e+00 3.950000000e-04
442000000.0 1.000380000e+00 7.940000000e-04
451000000.0 1.001738000e+00 -1.325000000e-03
460000000.0 1.001329000e+00 3.201000000e-03
469000000.0 1.002236000e+00 1.395000000e-03
478000000.0 1.004202000e+00 4.224000000e-03
487000000.0 1.004644000e+00 2.780000000e-03
496000000.0 1.007007000e+00 4.370000000e-03
505000000.0 1.006693000e+00 6.952000000e-03
514000000.0 1.009362000e+00 5.345000000e-03
523000000.0 1.008213000e+00 7.331000000e-03
532000000.0 1.008217000e+00 8.026000000e-03
541000000.0 1.010331000e+00 8.865000000e-03
550000000.0 1.008572000e+00 1.194800000e-02
559000000.0 1.007928000e+00 7.546000000e-03
568000000.0 1.007589000e+00 7.514000000e-03
577000000.0 1.006326000e+00 8.896000000e-03
586000000.0 1.003738000e+00 1.026200000e-02
595000000.0 1.002958000e+00 5.417000000e-03
604000000.0 1.004541000e+00 7.863000000e-03
613000000.0 1.006009000e+00 6.850000000e-03
622000000.0 1.008473000e+00 5.364000000e-03
631000000.0 1.010229000e+00 5.324000000e-03
640000000.0 1.016081000e+00 8.507000000e-03
649000000.0 1.015776000e+00 9.079000000e-03
658000000.0 1.013927000e+00 6.041000000e-03
667000000.0 1.015101000e+00 8.102000000e-03
676000000.0 1.015239000e+00 6.271000000e-03
685000000.0 1.013645000e+00 6.599000000e-03
694000000.0 1.018732000e+00 2.945000000e-03
703000000.0 1.009596000e+00 7.401000000e-03
712000000.0 1.005225000e+00 4.843000000e-03
721000000.0 1.010692000e+00 5.857000000e-03
730000000.0 1.008400000e+00 2.042000000e-03
739000000.0 1.004980000e+00 3.783000000e-03
748000000.0 1.000558000e+00 9.130000000e-04
757000000.0 1.003794000e+00 5.269000000e-03
766000000.0 1.007063000e+00 -1.014000000e-03
775000000.0 1.012680000e+00 -1.630000000e-03
784000000.0 1.011024000e+00 -4.999000000e-03
793000000.0 1.012480000e+00 -2.807000000e-03
802000000.0 1.017417000e+00 -6.687000000e-03
811000000.0 1.018225000e+00 -8.012000000e-03
820000000.0 1.016345000e+00 -6.144000000e-03
829000000.0 1.014315000e+00 -7.779000000e-03
838000000.0 1.016973000e+00 -7.904000000e-03
847000000.0 1.017820000e+00 -8.011000000e-03
856000000.0 1.011497000e+00 -4.109000000e-03
865000000.0 1.011504000e+00 -5.701000000e-03
874000000.0 1.012432000e+00 -2.931000000e-03
883000000.0 1.003694000e+00 -2.295000000e-03
892000000.0 1.002574000e+00 -6.770000000e-04
901000000.0 1.000140000e+00 9.170000000e-04
910000000.0 1.003471000e+00 -2.642000000e-03
919000000.0 1.000426000e+00 -1.527000000e-03
928000000.0 1.003508000e+00 -6.461000000e-03
937000000.0 1.006100000e+00 -6.430000000e-03
946000000.0 1.006436000e+00 -5.754000000e-03
955000000.0 1.004953000e+00 -7.091000000e-03
964000000.0 1.004710000e+00 -4.107000000e-03
973000000.0 1.005377000e+00 -9.026000000e-03
982000000.0 1.001964000e+00 -8.179000000e-03
991000000.0 1.005874000e+00 -8.392000000e-03
1000000000.0 1.002924000e+00 -4.764000000e-03
1004500000.0 1.004101000e+00 -9.166000000e-03
1009000000.0 1.003445000e+00 -6.462000000e-03
1013500000.0 1.005888000e+00 -4.728000000e-03
1018000000.0 1.003509000e+00 -5.988000000e-03
1022500000.0 1.002217000e+00 -2.926000000e-03
1027000000.0 1.000131000e+00 1.363000000e-03
1031500000.0 1.003103000e+00 -7.506000000e-03
1036000000.0 1.000107000e+00 -3.125000000e-03
1040500000.0 1.001660000e+00 -4.737000000e-03
1045000000.0 1.002589000e+00 -4.193000000e-03
1049500000.0 1.001490000e+00 -2.754000000e-03
1054000000.0 9.988880000e-01 -2.940000000e-04
1058500000.0 9.989260000e-01 1.380000000e-04
1063000000.0 9.978400000e-01 -5.190000000e-04
1067500000.0 1.003403000e+00 -5.554000000e-03
1072000000.0 1.000750000e+00 -2.659000000e-03
1076500000.0 1.004149000e+00 -1.066000000e-03
1081000000.0 9.999860000e-01 4.236000000e-03
1085500000.0 1.000254000e+00 -4.138000000e-03
1090000000.0 1.004056000e+00 -1.759000000e-03
1094500000.0 1.000845000e+00 9.861000000e-03
1099000000.0 1.005413000e+00 -1.726000000e-03
1103500000.0 1.001522000e+00 1.787000000e-03
1108000000.0 1.006137000e+00 -1.594000000e-03
1112500000.0 1.001518000e+00 -4.656000000e-03
1117000000.0 9.985950000e-01 2.255000000e-03
1121500000.0 1.007953000e+00 -4.102000000e-03
1126000000.0 1.004636000e+00 1.118000000e-02
1130500000.0 1.009932000e+00 1.075000000e-02
1135000000.0 1.007358000e+00 -4.707000000e-03
1139500000.0 1.003419000e+00 -9.067000000e-03
1144000000.0 1.012514000e+00 3.360300000e-02
1148500000.0 9.974280000e-01 -4.976500000e-02
1153000000.0 1.005531000e+00 -1.086600000e-02
1157500000.0 9.937610000e-01 -3.865900000e-02
1162000000.0 1.008755000e+00 1.760000000e-04
1166500000.0 1.007235000e+00 -5.958000000e-03
1171000000.0 1.006693000e+00 -7.407000000e-03
1175500000.0 1.005157000e+00 -9.212000000e-03
1180000000.0 1.003603000e+00 -4.950000000e-03
1184500000.0 1.006607000e+00 -6.634000000e-03
1189000000.0 1.000508000e+00 3.340000000e-03
1193500000.0 1.002208000e+00 -9.531000000e-03
1198000000.0 1.001622000e+00 3.166000000e-03
1202500000.0 1.001600000e+00 -6.588000000e-03
1207000000.0 1.006623000e+00 -7.675000000e-03
1211500000.0 1.002834000e+00 -8.767000000e-03
1216000000.0 9.971510000e-01 -4.643000000e-03
1220500000.0 1.004199000e+00 -1.785000000e-03
1225000000.0 1.006443000e+00 -2.904000000e-03
1229500000.0 1.006283000e+00 -4.540000000e-03
1234000000.0 1.007106000e+00 -3.305000000e-03
1238500000.0 1.004028000e+00 -8.694000000e-03
1243000000.0 1.003820000e+00 -1.914000000e-03
1247500000.0 1.007782000e+00 3.305000000e-03
1252000000.0 1.004546000e+00 -5.848000000e-03
1256500000.0 1.001874000e+00 -7.422000000e-03
1261000000.0 9.976570000e-01 -1.177000000e-03
1265500000.0 1.002816000e+00 -6.293000000e-03
1270000000.0 1.004457000e+00 -2.074000000e-03
1274500000.0 1.001797000e+00 2.545000000e-03
1279000000.0 1.006073000e+00 -2.197000000e-03
1283500000.0 1.004615000e+00 -4.260000000e-03
1288000000.0 1.005045000e+00 2.960000000e-03
1292500000.0 1.003205000e+00 -7.290000000e-04
1297000000.0 1.006049000e+00 -9.228000000e-03
1301500000.0 1.006406000e+00 1.760000000e-03
1306000000.0 1.006876000e+00 -6.500000000e-05
1310500000.0 9.950170000e-01 5.300000000e-04
1315000000.0 1.003522000e+00 -3.995000000e-03
1319500000.0 1.003660000e+00 1.140000000e-04
1324000000.0 1.002570000e+00 1.863000000e-03
1328500000.0 1.006854000e+00 2.088000000e-03
1333000000.0 9.983160000e-01 -1.374000000e-03
1337500000.0 1.008373000e+00 3.753000000e-03
1342000000.0 1.010560000e+00 6.972000000e-03
1346500000.0 1.002447000e+00 -2.380000000e-03
1351000000.0 1.004397000e+00 5.414000000e-03
1355500000.0 1.002147000e+00 9.360000000e-04
1360000000.0 1.003474000e+00 -7.671000000e-03
1364500000.0 1.007953000e+00 4.000000000e-03
1369000000.0 1.001024000e+00 1.187500000e-02
1373500000.0 1.003948000e+00 9.540000000e-03
1378000000.0 1.007147000e+00 5.614000000e-03
1382500000.0 1.003756000e+00 4.363000000e-03
1387000000.0 9.991340000e-01 8.299000000e-03
1391500000.0 1.004903000e+00 1.779900000e-02
1396000000.0 1.008135000e+00 1.250600000e-02
1400500000.0 1.005737000e+00 1.238000000e-02
1405000000.0 1.002562000e+00 1.239500000e-02
1409500000.0 1.006493000e+00 1.254000000e-02
1414000000.0 1.003397000e+00 1.955900000e-02
1418500000.0 9.985270000e-01 1.014300000e-02
1423000000.0 1.011616000e+00 1.249400000e-02
1427500000.0 1.001093000e+00 2.876000000e-03
1432000000.0 1.005396000e+00 1.895800000e-02
1436500000.0 1.004954000e+00 8.123000000e-03
1441000000.0 1.006127000e+00 8.936000000e-03
1445500000.0 1.002774000e+00 8.104000000e-03
1450000000.0 1.002320000e+00 8.432000000e-03
