! piloto_saltos / abierto_pausado / r11
# HZ S RI R 50
50000.0 1.006570000e+00 -6.991700000e-02
59500.0 1.003445000e+00 -5.657300000e-02
69000.0 1.004228000e+00 -4.337400000e-02
78500.0 1.002278000e+00 -2.974200000e-02
88000.0 1.000938000e+00 -1.717300000e-02
97500.0 1.000951000e+00 -4.128000000e-03
107000.0 1.000240000e+00 8.666000000e-03
116500.0 9.993370000e-01 2.060100000e-02
126000.0 9.992830000e-01 3.537200000e-02
135500.0 1.001358000e+00 4.536800000e-02
145000.0 1.001390000e+00 5.725100000e-02
154500.0 1.001220000e+00 6.912100000e-02
164000.0 1.002440000e+00 8.185500000e-02
173500.0 1.001914000e+00 9.342800000e-02
183000.0 1.002849000e+00 1.046430000e-01
192500.0 1.002425000e+00 1.168200000e-01
202000.0 1.003092000e+00 1.281210000e-01
211500.0 1.003367000e+00 1.406180000e-01
221000.0 1.004098000e+00 1.517000000e-01
230500.0 1.004940000e+00 1.633240000e-01
240000.0 1.004495000e+00 1.742300000e-01
249500.0 1.004662000e+00 1.858810000e-01
259000.0 1.005241000e+00 1.968730000e-01
268500.0 1.005081000e+00 2.083080000e-01
278000.0 1.005390000e+00 2.189400000e-01
287500.0 1.005827000e+00 2.305250000e-01
297000.0 1.005784000e+00 2.407500000e-01
306500.0 1.006884000e+00 2.522990000e-01
316000.0 1.006816000e+00 2.624760000e-01
325500.0 1.006762000e+00 2.738490000e-01
335000.0 1.007091000e+00 2.843390000e-01
344500.0 1.006880000e+00 2.954950000e-01
354000.0 1.006919000e+00 3.055150000e-01
363500.0 1.007033000e+00 3.166250000e-01
373000.0 1.007501000e+00 3.272690000e-01
382500.0 1.008737000e+00 3.381120000e-01
392000.0 1.008736000e+00 3.481790000e-01
401500.0 1.008438000e+00 3.575490000e-01
411000.0 1.009032000e+00 3.687470000e-01
420500.0 1.008266000e+00 3.792840000e-01
430000.0 1.009991000e+00 3.893320000e-01
439500.0 1.009976000e+00 3.996120000e-01
449000.0 1.009302000e+00 4.102400000e-01
458500.0 1.010351000e+00 4.202530000e-01
468000.0 1.009923000e+00 4.302390000e-01
477500.0 1.010577000e+00 4.405830000e-01
487000.0 1.010402000e+00 4.502810000e-01
496500.0 1.011594000e+00 4.607630000e-01
506000.0 1.011927000e+00 4.706320000e-01
515500.0 1.011769000e+00 4.803330000e-01
525000.0 1.013186000e+00 4.908290000e-01
534500.0 1.013109000e+00 5.008970000e-01
544000.0 1.013312000e+00 5.105000000e-01
553500.0 1.014483000e+00 5.202980000e-01
563000.0 1.014794000e+00 5.299200000e-01
572500.0 1.014934000e+00 5.397430000e-01
582000.0 1.015898000e+00 5.497920000e-01
591500.0 1.016630000e+00 5.602410000e-01
601000.0 1.016381000e+00 5.693440000e-01
610500.0 1.015727000e+00 5.793330000e-01
620000.0 1.017630000e+00 5.882960000e-01
629500.0 1.017873000e+00 5.973920000e-01
639000.0 1.018788000e+00 6.070110000e-01
648500.0 1.019183000e+00 6.175480000e-01
658000.0 1.020040000e+00 6.261860000e-01
667500.0 1.021288000e+00 6.362100000e-01
677000.0 1.021677000e+00 6.450740000e-01
686500.0 1.022229000e+00 6.560450000e-01
696000.0 1.022840000e+00 6.654620000e-01
705500.0 1.024096000e+00 6.747910000e-01
715000.0 1.024620000e+00 6.845520000e-01
724500.0 1.026693000e+00 6.936160000e-01
734000.0 1.027223000e+00 7.029070000e-01
743500.0 1.027642000e+00 7.114250000e-01
753000.0 1.029000000e+00 7.211990000e-01
762500.0 1.031391000e+00 7.314680000e-01
772000.0 1.031611000e+00 7.405590000e-01
781500.0 1.032437000e+00 7.502090000e-01
791000.0 1.033983000e+00 7.583300000e-01
800500.0 1.035185000e+00 7.676140000e-01
810000.0 1.037006000e+00 7.760790000e-01
819500.0 1.036738000e+00 7.860100000e-01
829000.0 1.039688000e+00 7.957490000e-01
838500.0 1.041804000e+00 8.045690000e-01
848000.0 1.043633000e+00 8.130190000e-01
857500.0 1.045037000e+00 8.234510000e-01
867000.0 1.046923000e+00 8.327950000e-01
876500.0 1.049389000e+00 8.409200000e-01
886000.0 1.050825000e+00 8.494440000e-01
895500.0 1.053234000e+00 8.585310000e-01
905000.0 1.055403000e+00 8.693180000e-01
914500.0 1.056644000e+00 8.771160000e-01
924000.0 1.059435000e+00 8.849820000e-01
933500.0 1.060574000e+00 8.940510000e-01
943000.0 1.061803000e+00 9.036650000e-01
952500.0 1.065351000e+00 9.117210000e-01
962000.0 1.068124000e+00 9.202490000e-01
971500.0 1.071028000e+00 9.294460000e-01
981000.0 1.073341000e+00 9.385360000e-01
990500.0 1.075829000e+00 9.467740000e-01
1000000.0 1.078590000e+00 9.549950000e-01
1090000.0 1.105798000e+00 1.036114000e+00
1180000.0 1.145304000e+00 1.112121000e+00
1270000.0 1.195736000e+00 1.181370000e+00
1360000.0 1.254694000e+00 1.243546000e+00
1450000.0 1.324877000e+00 1.295306000e+00
1540000.0 1.402128000e+00 1.330682000e+00
1630000.0 1.488049000e+00 1.352482000e+00
1720000.0 1.582574000e+00 1.355735000e+00
1810000.0 1.670357000e+00 1.338263000e+00
1900000.0 1.753809000e+00 1.299406000e+00
1990000.0 1.829556000e+00 1.240400000e+00
2080000.0 1.889908000e+00 1.166851000e+00
2170000.0 1.935906000e+00 1.084231000e+00
2260000.0 1.959347000e+00 9.925220000e-01
2350000.0 1.967181000e+00 9.034320000e-01
2440000.0 1.959418000e+00 8.172960000e-01
2530000.0 1.942476000e+00 7.350060000e-01
2620000.0 1.915396000e+00 6.627590000e-01
2710000.0 1.879821000e+00 5.985810000e-01
2800000.0 1.843577000e+00 5.414790000e-01
2890000.0 1.804265000e+00 4.915540000e-01
2980000.0 1.765301000e+00 4.462620000e-01
3070000.0 1.727813000e+00 4.093630000e-01
3160000.0 1.687824000e+00 3.754660000e-01
3250000.0 1.654338000e+00 3.479540000e-01
3340000.0 1.619142000e+00 3.174540000e-01
3430000.0 1.589061000e+00 2.944770000e-01
3520000.0 1.557664000e+00 2.722540000e-01
3610000.0 1.528229000e+00 2.501530000e-01
3700000.0 1.500791000e+00 2.319690000e-01
3790000.0 1.478380000e+00 2.145970000e-01
3880000.0 1.455184000e+00 1.970160000e-01
3970000.0 1.434191000e+00 1.816240000e-01
4060000.0 1.414414000e+00 1.658000000e-01
4150000.0 1.395206000e+00 1.537460000e-01
4240000.0 1.380239000e+00 1.356010000e-01
4330000.0 1.364329000e+00 1.232620000e-01
4420000.0 1.350945000e+00 1.084250000e-01
4510000.0 1.338540000e+00 9.451100000e-02
4600000.0 1.327035000e+00 8.104100000e-02
4690000.0 1.316535000e+00 6.865500000e-02
4780000.0 1.307913000e+00 5.662300000e-02
4870000.0 1.298383000e+00 4.284900000e-02
4960000.0 1.292798000e+00 2.880900000e-02
5050000.0 1.276511000e+00 1.819400000e-02
5140000.0 1.271523000e+00 5.256000000e-03
5230000.0 1.267823000e+00 -8.502000000e-03
5320000.0 1.262679000e+00 -1.942300000e-02
5410000.0 1.259700000e+00 -3.102600000e-02
5500000.0 1.255688000e+00 -4.287500000e-02
5590000.0 1.251572000e+00 -5.461000000e-02
5680000.0 1.247550000e+00 -6.508800000e-02
5770000.0 1.245139000e+00 -7.732100000e-02
5860000.0 1.242867000e+00 -8.713900000e-02
5950000.0 1.239216000e+00 -9.794700000e-02
6040000.0 1.237574000e+00 -1.077140000e-01
6130000.0 1.234547000e+00 -1.168210000e-01
6220000.0 1.232721000e+00 -1.264010000e-01
6310000.0 1.230193000e+00 -1.352230000e-01
6400000.0 1.227848000e+00 -1.437170000e-01
6490000.0 1.226782000e+00 -1.510500000e-01
6580000.0 1.224712000e+00 -1.587940000e-01
6670000.0 1.224627000e+00 -1.653410000e-01
6760000.0 1.223837000e+00 -1.717120000e-01
6850000.0 1.222492000e+00 -1.764910000e-01
6940000.0 1.222094000e+00 -1.819650000e-01
7030000.0 1.220470000e+00 -1.861490000e-01
7120000.0 1.220236000e+00 -1.894820000e-01
7210000.0 1.218877000e+00 -1.917130000e-01
7300000.0 1.220042000e+00 -1.926750000e-01
7390000.0 1.218723000e+00 -1.931430000e-01
7480000.0 1.218151000e+00 -1.930940000e-01
7570000.0 -2.423250000e-01 -1.258173000e+00
7660000.0 -2.420960000e-01 -1.259067000e+00
7750000.0 -2.414190000e-01 -1.258943000e+00
7840000.0 -2.398200000e-01 -1.259960000e+00
7930000.0 -2.402400000e-01 -1.261463000e+00
8020000.0 -2.391750000e-01 -1.259781000e+00
8110000.0 -2.388650000e-01 -1.260733000e+00
8200000.0 -2.379300000e-01 -1.261588000e+00
8290000.0 -2.364020000e-01 -1.262438000e+00
8380000.0 -2.357830000e-01 -1.262741000e+00
8470000.0 -2.345360000e-01 -1.262126000e+00
8560000.0 -2.351670000e-01 -1.264274000e+00
8650000.0 -2.350340000e-01 -1.264938000e+00
8740000.0 -2.335090000e-01 -1.264872000e+00
8830000.0 -2.325680000e-01 -1.265619000e+00
8920000.0 -2.317500000e-01 -1.266718000e+00
9010000.0 -2.319290000e-01 -1.267442000e+00
9100000.0 -2.303740000e-01 -1.267143000e+00
9190000.0 -2.290740000e-01 -1.269068000e+00
9280000.0 -2.295540000e-01 -1.268724000e+00
9370000.0 -2.289550000e-01 -1.270797000e+00
9460000.0 -2.283200000e-01 -1.269796000e+00
9550000.0 -2.273930000e-01 -1.271364000e+00
9640000.0 -2.260950000e-01 -1.271396000e+00
9730000.0 -2.266730000e-01 -1.272633000e+00
9820000.0 -2.254890000e-01 -1.273786000e+00
9910000.0 -2.257350000e-01 -1.274714000e+00
10000000.0 -2.243760000e-01 -1.275354000e+00
10900000.0 -2.174370000e-01 -1.285211000e+00
11800000.0 -2.113170000e-01 -1.294330000e+00
12700000.0 -2.068670000e-01 -1.304528000e+00
13600000.0 -2.008380000e-01 -1.314137000e+00
14500000.0 -1.942310000e-01 -1.326455000e+00
15400000.0 -1.895460000e-01 -1.337612000e+00
16300000.0 -1.818860000e-01 -1.348507000e+00
17200000.0 -1.752110000e-01 -1.360905000e+00
18100000.0 -1.689750000e-01 -1.374415000e+00
19000000.0 -1.600170000e-01 -1.385217000e+00
19900000.0 -1.536040000e-01 -1.398072000e+00
20800000.0 -1.456080000e-01 -1.410579000e+00
21700000.0 -1.366000000e-01 -1.422414000e+00
22600000.0 -1.275250000e-01 -1.436342000e+00
23500000.0 -1.186590000e-01 -1.450337000e+00
24400000.0 -1.082750000e-01 -1.463081000e+00
25300000.0 -9.890200000e-02 -1.477162000e+00
26200000.0 -8.756000000e-02 -1.491814000e+00
27100000.0 -7.540800000e-02 -1.504251000e+00
28000000.0 -6.447800000e-02 -1.519277000e+00
28900000.0 6.088300000e-02 -1.555746000e+00
29800000.0 -3.996600000e-02 -1.547394000e+00
30700000.0 -2.595900000e-02 -1.561758000e+00
31600000.0 -1.130000000e-02 -1.577480000e+00
32500000.0 3.215000000e-03 -1.591901000e+00
33400000.0 1.891900000e-02 -1.606535000e+00
34300000.0 3.429100000e-02 -1.620662000e+00
35200000.0 5.110400000e-02 -1.635567000e+00
36100000.0 6.985500000e-02 -1.651574000e+00
37000000.0 8.609600000e-02 -1.664932000e+00
37900000.0 1.058090000e-01 -1.678611000e+00
38800000.0 1.246890000e-01 -1.694753000e+00
39700000.0 1.453390000e-01 -1.707177000e+00
40600000.0 1.670190000e-01 -1.722897000e+00
41500000.0 1.887440000e-01 -1.735419000e+00
42400000.0 2.115170000e-01 -1.748984000e+00
43300000.0 2.346960000e-01 -1.763020000e+00
44200000.0 2.615490000e-01 -1.777139000e+00
45100000.0 2.856260000e-01 -1.789526000e+00
46000000.0 3.126850000e-01 -1.801545000e+00
46900000.0 3.386530000e-01 -1.812805000e+00
47800000.0 3.670720000e-01 -1.824641000e+00
48700000.0 3.961520000e-01 -1.834011000e+00
49600000.0 4.259330000e-01 -1.843062000e+00
50500000.0 4.566910000e-01 -1.852505000e+00
51400000.0 4.884810000e-01 -1.859214000e+00
52300000.0 5.225340000e-01 -1.865780000e+00
53200000.0 5.560700000e-01 -1.874501000e+00
54100000.0 5.921000000e-01 -1.878687000e+00
55000000.0 6.251380000e-01 -1.881464000e+00
55900000.0 6.617420000e-01 -1.884094000e+00
56800000.0 6.977760000e-01 -1.886897000e+00
57700000.0 7.361200000e-01 -1.885420000e+00
58600000.0 7.727380000e-01 -1.881885000e+00
59500000.0 8.106180000e-01 -1.880761000e+00
60400000.0 8.510240000e-01 -1.876546000e+00
61300000.0 8.871150000e-01 -1.871391000e+00
62200000.0 9.286370000e-01 -1.863562000e+00
63100000.0 9.652090000e-01 -1.852075000e+00
64000000.0 1.002764000e+00 -1.839501000e+00
64900000.0 1.045686000e+00 -1.827564000e+00
65800000.0 1.084205000e+00 -1.814029000e+00
66700000.0 1.120577000e+00 -1.794724000e+00
67600000.0 1.159953000e+00 -1.777272000e+00
68500000.0 1.197912000e+00 -1.754902000e+00
69400000.0 1.233443000e+00 -1.733729000e+00
70300000.0 1.268157000e+00 -1.709961000e+00
71200000.0 1.301721000e+00 -1.685359000e+00
72100000.0 1.333989000e+00 -1.658132000e+00
73000000.0 1.369151000e+00 -1.628635000e+00
73900000.0 1.399132000e+00 -1.598475000e+00
74800000.0 1.427454000e+00 -1.566944000e+00
75700000.0 1.455596000e+00 -1.534555000e+00
76600000.0 1.482002000e+00 -1.501608000e+00
77500000.0 1.504533000e+00 -1.465767000e+00
78400000.0 1.528298000e+00 -1.431651000e+00
79300000.0 1.546931000e+00 -1.396462000e+00
80200000.0 1.568982000e+00 -1.358072000e+00
81100000.0 1.584170000e+00 -1.323532000e+00
82000000.0 1.598970000e+00 -1.286305000e+00
82900000.0 1.613639000e+00 -1.247796000e+00
83800000.0 1.625761000e+00 -1.212477000e+00
84700000.0 1.635446000e+00 -1.174129000e+00
85600000.0 1.643474000e+00 -1.135340000e+00
86500000.0 1.650874000e+00 -1.098875000e+00
87400000.0 1.656414000e+00 -1.061363000e+00
88300000.0 1.660226000e+00 -1.026955000e+00
89200000.0 1.662795000e+00 -9.917060000e-01
90100000.0 1.663872000e+00 -9.572220000e-01
91000000.0 1.663685000e+00 -9.207860000e-01
91900000.0 1.662255000e+00 -8.887920000e-01
92800000.0 1.661324000e+00 -8.552330000e-01
93700000.0 1.658070000e+00 -8.233720000e-01
94600000.0 1.652719000e+00 -7.922210000e-01
95500000.0 1.646616000e+00 -7.604020000e-01
96400000.0 1.640368000e+00 -7.310240000e-01
97300000.0 1.634503000e+00 -7.019970000e-01
98200000.0 1.627167000e+00 -6.725510000e-01
99100000.0 1.618363000e+00 -6.467210000e-01
100000000.0 1.610577000e+00 -6.216500000e-01
109000000.0 1.501671000e+00 -3.999950000e-01
118000000.0 1.376748000e+00 -2.428900000e-01
127000000.0 1.257541000e+00 -1.386050000e-01
136000000.0 1.147140000e+00 -6.930200000e-02
145000000.0 1.050399000e+00 -1.964300000e-02
154000000.0 1.000815000e+00 5.730000000e-04
163000000.0 1.001369000e+00 -3.630000000e-04
172000000.0 1.002593000e+00 -6.640000000e-04
181000000.0 1.003878000e+00 -1.600000000e-03
190000000.0 1.004365000e+00 -1.333000000e-03
199000000.0 1.005679000e+00 -1.263000000e-03
208000000.0 1.005557000e+00 -1.553000000e-03
217000000.0 1.005127000e+00 -1.670000000e-03
226000000.0 1.006597000e+00 -1.731000000e-03
235000000.0 1.006519000e+00 -1.109000000e-03
244000000.0 1.005597000e+00 -7.850000000e-04
253000000.0 1.006053000e+00 -1.251000000e-03
262000000.0 1.005994000e+00 -1.033000000e-03
271000000.0 1.004511000e+00 -8.520000000e-04
280000000.0 1.003431000e+00 -8.270000000e-04
289000000.0 1.003255000e+00 -1.211000000e-03
298000000.0 1.001825000e+00 -7.840000000e-04
307000000.0 1.003413000e+00 3.260000000e-04
316000000.0 1.004874000e+00 8.430000000e-04
325000000.0 1.005868000e+00 -4.130000000e-04
334000000.0 1.005064000e+00 -1.254000000e-03
343000000.0 1.006790000e+00 -1.346000000e-03
352000000.0 1.004382000e+00 -2.080000000e-04
361000000.0 9.982860000e-01 -3.531500000e-02
370000000.0 1.005576000e+00 1.374000000e-03
379000000.0 1.013044000e+00 3.738900000e-02
388000000.0 9.976910000e-01 -3.370000000e-02
397000000.0 1.006164000e+00 -5.950000000e-04
406000000.0 1.012195000e+00 3.564800000e-02
415000000.0 1.005003000e+00 1.996000000e-03
424000000.0 1.003045000e+00 -1.539000000e-03
433000000.0 1.002133000e+00 2.337000000e-03
442000000.0 9.987350000e-01 4.290000000e-04
451000000.0 9.998420000e-01 7.140000000e-04
460000000.0 1.002139000e+00 2.553000000e-03
469000000.0 1.001544000e+00 3.243000000e-03
478000000.0 1.002874000e+00 2.949000000e-03
487000000.0 1.005645000e+00 3.688000000e-03
496000000.0 1.006028000e+00 6.708000000e-03
505000000.0 1.008097000e+00 5.369000000e-03
514000000.0 1.005682000e+00 7.279000000e-03
523000000.0 1.009147000e+00 9.875000000e-03
532000000.0 1.008523000e+00 6.466000000e-03
541000000.0 1.008915000e+00 6.959000000e-03
550000000.0 1.007176000e+00 7.448000000e-03
559000000.0 1.007830000e+00 7.789000000e-03
568000000.0 1.006698000e+00 7.298000000e-03
577000000.0 1.007180000e+00 4.736000000e-03
586000000.0 1.005057000e+00 6.672000000e-03
595000000.0 1.002922000e+00 7.794000000e-03
604000000.0 1.004881000e+00 4.167000000e-03
613000000.0 1.010418000e+00 7.219000000e-03
622000000.0 1.008574000e+00 8.049000000e-03
631000000.0 1.009899000e+00 5.921000000e-03
640000000.0 1.012885000e+00 7.953000000e-03
649000000.0 1.018482000e+00 5.698000000e-03
658000000.0 1.014520000e+00 6.915000000e-03
667000000.0 1.014391000e+00 5.746000000e-03
676000000.0 1.013139000e+00 6.563000000e-03
685000000.0 1.015592000e+00 5.701000000e-03
694000000.0 1.017950000e+00 9.963000000e-03
703000000.0 1.016235000e+00 6.571000000e-03
712000000.0 1.008731000e+00 9.645000000e-03
721000000.0 1.011764000e+00 2.238000000e-03
730000000.0 1.007042000e+00 3.872000000e-03
739000000.0 1.005232000e+00 2.457000000e-03
748000000.0 1.000618000e+00 1.050000000e-03
757000000.0 1.006345000e+00 8.210000000e-04
766000000.0 1.008065000e+00 -4.441000000e-03
775000000.0 1.008377000e+00 -1.817000000e-03
784000000.0 1.011333000e+00 -6.310000000e-04
793000000.0 1.015487000e+00 -6.003000000e-03
802000000.0 1.016960000e+00 -6.265000000e-03
811000000.0 1.018227000e+00 -2.559000000e-03
820000000.0 1.017540000e+00 -5.983000000e-03
829000000.0 1.016490000e+00 -1.120600000e-02
838000000.0 1.015619000e+00 -2.008000000e-03
847000000.0 1.017284000e+00 -9.752000000e-03
856000000.0 1.013144000e+00 -4.451000000e-03
865000000.0 1.011937000e+00 1.238000000e-03
874000000.0 1.011972000e+00 -4.147000000e-03
883000000.0 1.002919000e+00 -2.749000000e-03
892000000.0 1.004064000e+00 -1.282000000e-03
901000000.0 1.004243000e+00 -2.861000000e-03
910000000.0 1.002997000e+00 -2.342000000e-03
919000000.0 1.003000000e+00 -5.177000000e-03
928000000.0 1.003874000e+00 -6.457000000e-03
937000000.0 1.006784000e+00 -8.957000000e-03
946000000.0 1.005111000e+00 -1.157600000e-02
955000000.0 1.005260000e+00 -1.144500000e-02
964000000.0 1.005869000e+00 -1.112500000e-02
973000000.0 1.003513000e+00 -7.960000000e-03
982000000.0 1.004555000e+00 -8.065000000e-03
991000000.0 1.004372000e+00 -7.596000000e-03
1000000000.0 1.005840000e+00 -5.339000000e-03
1004500000.0 1.004988000e+00 -8.110000000e-03
1009000000.0 1.002849000e+00 -9.561000000e-03
1013500000.0 1.003558000e+00 -7.459000000e-03
1018000000.0 1.003347000e+00 -8.312000000e-03
1022500000.0 1.002730000e+00 -4.237000000e-03
1027000000.0 9.994140000e-01 -3.195000000e-03
1031500000.0 1.002310000e+00 -3.655000000e-03
1036000000.0 1.002818000e+00 2.593000000e-03
1040500000.0 9.990710000e-01 -5.312000000e-03
1045000000.0 9.977790000e-01 1.330000000e-04
1049500000.0 9.982590000e-01 -2.480000000e-04
1054000000.0 1.000783000e+00 -2.098000000e-03
1058500000.0 1.001060000e+00 -2.060000000e-04
1063000000.0 1.000004000e+00 -1.100000000e-05
1067500000.0 1.000659000e+00 6.531000000e-03
1072000000.0 9.978380000e-01 -6.460000000e-04
1076500000.0 1.002958000e+00 -2.253000000e-03
1081000000.0 1.000407000e+00 -3.006000000e-03
1085500000.0 1.000759000e+00 1.034000000e-03
1090000000.0 1.001302000e+00 -3.990000000e-03
1094500000.0 1.004194000e+00 -2.367000000e-03
1099000000.0 1.007920000e+00 -4.965000000e-03
1103500000.0 1.003359000e+00 -1.135000000e-03
1108000000.0 1.005364000e+00 -3.390000000e-04
1112500000.0 1.007101000e+00 2.670000000e-04
1117000000.0 9.988370000e-01 -3.261000000e-03
1121500000.0 1.007104000e+00 -2.437000000e-03
1126000000.0 1.004492000e+00 -1.168000000e-03
1130500000.0 1.002059000e+00 7.060000000e-04
1135000000.0 1.005829000e+00 -6.223000000e-03
1139500000.0 1.004148000e+00 -6.738000000e-03
1144000000.0 1.006573000e+00 -4.520000000e-03
1148500000.0 1.003342000e+00 -6.031000000e-03
1153000000.0 1.002292000e+00 -1.164300000e-02
1157500000.0 1.004795000e+00 1.825100000e-02
1162000000.0 1.008574000e+00 -6.255000000e-03
1166500000.0 1.007625000e+00 -2.826000000e-03
1171000000.0 1.006938000e+00 -1.259600000e-02
1175500000.0 1.003670000e+00 -4.506000000e-03
1180000000.0 1.006152000e+00 -6.308000000e-03
1184500000.0 1.005880000e+00 -7.177000000e-03
1189000000.0 1.003835000e+00 4.201000000e-03
1193500000.0 1.007215000e+00 6.654000000e-03
1198000000.0 1.003468000e+00 -1.797200000e-02
1202500000.0 1.001373000e+00 7.470000000e-04
1207000000.0 1.006266000e+00 1.291600000e-02
1211500000.0 1.002257000e+00 -4.431000000e-03
1216000000.0 9.995290000e-01 -2.608900000e-02
1220500000.0 1.002748000e+00 2.740000000e-04
1225000000.0 1.006622000e+00 1.002300000e-02
1229500000.0 1.000506000e+00 -6.722000000e-03
1234000000.0 1.002370000e+00 -2.405000000e-02
1238500000.0 1.000820000e+00 -2.970000000e-04
1243000000.0 1.004079000e+00 1.539300000e-02
1247500000.0 1.004345000e+00 8.600000000e-04
1252000000.0 1.003231000e+00 -2.465000000e-03
1256500000.0 1.002545000e+00 -5.302000000e-03
1261000000.0 1.006783000e+00 1.238500000e-02
1265500000.0 1.009203000e+00 -4.015000000e-03
1270000000.0 1.004951000e+00 -1.415000000e-03
1274500000.0 1.009521000e+00 2.281000000e-03
1279000000.0 1.002975000e+00 3.251000000e-03
1283500000.0 1.005385000e+00 1.342000000e-03
1288000000.0 1.004013000e+00 2.884000000e-03
1292500000.0 1.006773000e+00 -2.445000000e-03
1297000000.0 1.001990000e+00 -6.898000000e-03
1301500000.0 1.003150000e+00 2.950000000e-04
1306000000.0 9.619340000e-01 -1.253050000e-01
1310500000.0 9.998920000e-01 2.499000000e-03
1315000000.0 9.995250000e-01 6.561000000e-03
1319500000.0 1.002028000e+00 2.451000000e-03
1324000000.0 1.002152000e+00 9.901000000e-03
1328500000.0 1.009705000e+00 7.661000000e-03
1333000000.0 1.005400000e+00 7.685000000e-03
1337500000.0 1.001790000e+00 1.002000000e-03
1342000000.0 1.007479000e+00 2.721000000e-03
1346500000.0 1.004563000e+00 -3.519000000e-03
1351000000.0 1.001886000e+00 1.696000000e-03
1355500000.0 1.000909000e+00 8.472000000e-03
1360000000.0 9.989600000e-01 -6.886000000e-03
1364500000.0 1.005040000e+00 6.707000000e-03
1369000000.0 1.007625000e+00 9.102000000e-03
1373500000.0 1.004687000e+00 9.169000000e-03
1378000000.0 1.000888000e+00 5.914000000e-03
1382500000.0 1.003575000e+00 -8.170000000e-04
1387000000.0 1.005289000e+00 1.180300000e-02
1391500000.0 1.000736000e+00 9.539000000e-03
1396000000.0 9.988070000e-01 9.285000000e-03
1400500000.0 1.005131000e+00 1.498400000e-02
1405000000.0 1.005856000e+00 1.379800000e-02
1409500000.0 1.004476000e+00 8.837000000e-03
1414000000.0 1.000878000e+00 6.426000000e-03
1418500000.0 1.001484000e+00 1.773300000e-02
1423000000.0 9.984400000e-01 1.699500000e-02
1427500000.0 1.011449000e+00 9.865000000e-03
1432000000.0 1.001864000e+00 1.344100000e-02
1436500000.0 1.003784000e+00 9.849000000e-03
1441000000.0 9.989610000e-01 9.792000000e-03
1445500000.0 1.005048000e+00 1.603000000e-02
1450000000.0 1.003556000e+00 1.483300000e-02
