! piloto_saltos / abierto_tramosB / r12
# HZ S RI R 50
50000.0 1.006019000e+00 -6.899000000e-02
52500.0 1.006445000e+00 -6.549100000e-02
55000.0 1.006604000e+00 -6.197000000e-02
57500.0 1.006595000e+00 -5.927000000e-02
60000.0 1.000741000e+00 -5.401900000e-02
62500.0 1.005439000e+00 -5.130800000e-02
65000.0 1.005097000e+00 -4.796100000e-02
67500.0 1.005223000e+00 -4.410100000e-02
70000.0 1.004859000e+00 -4.016100000e-02
72500.0 1.003370000e+00 -3.710200000e-02
75000.0 1.002619000e+00 -3.303300000e-02
77500.0 1.002826000e+00 -2.916100000e-02
80000.0 1.002489000e+00 -2.656800000e-02
82500.0 1.001779000e+00 -2.282500000e-02
85000.0 1.003002000e+00 -2.016500000e-02
87500.0 1.002380000e+00 -1.585000000e-02
90000.0 1.002147000e+00 -1.311400000e-02
92500.0 1.001415000e+00 -1.051300000e-02
95000.0 1.000841000e+00 -6.840000000e-03
97500.0 1.000309000e+00 -3.622000000e-03
100000.0 1.000939000e+00 -1.380000000e-04
102500.0 1.000707000e+00 2.975000000e-03
105000.0 9.999310000e-01 6.821000000e-03
107500.0 1.001884000e+00 9.774000000e-03
110000.0 9.999560000e-01 1.263500000e-02
112500.0 1.001067000e+00 1.634800000e-02
115000.0 1.000334000e+00 2.013800000e-02
117500.0 1.001226000e+00 2.256800000e-02
120000.0 1.000938000e+00 2.625200000e-02
122500.0 9.999360000e-01 2.908900000e-02
125000.0 1.000246000e+00 3.290800000e-02
127500.0 1.000817000e+00 3.465700000e-02
130000.0 1.001230000e+00 3.937900000e-02
132500.0 1.001621000e+00 4.211800000e-02
135000.0 1.001131000e+00 4.533300000e-02
137500.0 1.004829000e+00 4.836700000e-02
140000.0 1.001229000e+00 5.250800000e-02
142500.0 1.002531000e+00 5.495700000e-02
145000.0 1.001425000e+00 5.886500000e-02
147500.0 1.001662000e+00 6.182400000e-02
150000.0 1.002761000e+00 6.506400000e-02
152500.0 1.001675000e+00 6.737600000e-02
155000.0 1.002578000e+00 7.167000000e-02
157500.0 1.001743000e+00 7.406900000e-02
160000.0 1.000886000e+00 7.772400000e-02
162500.0 1.001519000e+00 8.048600000e-02
165000.0 1.001777000e+00 8.464300000e-02
167500.0 1.002486000e+00 8.633300000e-02
170000.0 1.002675000e+00 8.910400000e-02
172500.0 1.002198000e+00 9.309800000e-02
175000.0 1.003076000e+00 9.584600000e-02
177500.0 1.003222000e+00 1.000950000e-01
180000.0 1.002793000e+00 1.022610000e-01
182500.0 1.003179000e+00 1.058180000e-01
185000.0 1.003537000e+00 1.083520000e-01
187500.0 1.003970000e+00 1.117760000e-01
190000.0 1.003926000e+00 1.156840000e-01
192500.0 1.005054000e+00 1.178240000e-01
195000.0 1.004021000e+00 1.208270000e-01
197500.0 1.003394000e+00 1.244870000e-01
200000.0 1.003922000e+00 1.274320000e-01
202500.0 1.003984000e+00 1.300520000e-01
205000.0 1.004453000e+00 1.343900000e-01
207500.0 1.004151000e+00 1.361180000e-01
210000.0 1.003852000e+00 1.393930000e-01
212500.0 1.004430000e+00 1.428000000e-01
215000.0 1.005170000e+00 1.452910000e-01
217500.0 1.004317000e+00 1.490510000e-01
220000.0 1.004876000e+00 1.521380000e-01
222500.0 1.004337000e+00 1.550700000e-01
225000.0 1.005055000e+00 1.569830000e-01
227500.0 1.004204000e+00 1.607470000e-01
230000.0 1.004401000e+00 1.638710000e-01
232500.0 1.004583000e+00 1.674900000e-01
235000.0 1.005587000e+00 1.697200000e-01
237500.0 1.005187000e+00 1.728420000e-01
240000.0 1.004954000e+00 1.756090000e-01
242500.0 1.004829000e+00 1.790530000e-01
245000.0 1.004888000e+00 1.811960000e-01
247500.0 1.005308000e+00 1.844640000e-01
250000.0 1.005799000e+00 1.877270000e-01
252500.0 1.005635000e+00 1.906200000e-01
255000.0 1.005663000e+00 1.931990000e-01
257500.0 1.005201000e+00 1.968140000e-01
260000.0 1.006012000e+00 1.999920000e-01
262500.0 1.006056000e+00 2.022610000e-01
265000.0 1.006293000e+00 2.061220000e-01
267500.0 1.006002000e+00 2.078890000e-01
270000.0 1.005763000e+00 2.110610000e-01
272500.0 1.006155000e+00 2.139010000e-01
275000.0 1.005416000e+00 2.167250000e-01
277500.0 1.006155000e+00 2.199080000e-01
280000.0 1.006336000e+00 2.226740000e-01
282500.0 1.005889000e+00 2.253850000e-01
285000.0 1.006331000e+00 2.287740000e-01
287500.0 1.006195000e+00 2.317630000e-01
290000.0 1.006608000e+00 2.341730000e-01
292500.0 1.005908000e+00 2.373820000e-01
295000.0 1.011445000e+00 2.753900000e-01
297500.0 1.005696000e+00 2.425740000e-01
300000.0 1.006665000e+00 2.457300000e-01
327000.0 1.005421000e+00 2.755710000e-01
354000.0 1.006704000e+00 3.065600000e-01
381000.0 1.007590000e+00 3.365170000e-01
408000.0 1.008021000e+00 3.673090000e-01
435000.0 1.009556000e+00 3.967570000e-01
462000.0 1.010619000e+00 4.258890000e-01
489000.0 1.011428000e+00 4.553970000e-01
516000.0 1.012485000e+00 4.833720000e-01
543000.0 1.013852000e+00 5.122380000e-01
570000.0 1.015490000e+00 5.403330000e-01
597000.0 1.016726000e+00 5.681640000e-01
624000.0 1.018109000e+00 5.965550000e-01
651000.0 1.021130000e+00 6.225940000e-01
678000.0 1.023724000e+00 6.497100000e-01
705000.0 1.024740000e+00 6.769350000e-01
732000.0 1.028333000e+00 7.048220000e-01
759000.0 1.032262000e+00 7.302020000e-01
786000.0 1.036088000e+00 7.576530000e-01
813000.0 1.038690000e+00 7.852660000e-01
840000.0 1.044425000e+00 8.095280000e-01
867000.0 1.047688000e+00 8.369250000e-01
894000.0 1.054680000e+00 8.608850000e-01
921000.0 1.060757000e+00 8.876680000e-01
948000.0 1.067231000e+00 9.120190000e-01
975000.0 1.075443000e+00 9.382530000e-01
1002000.0 1.083006000e+00 9.633800000e-01
1029000.0 1.091833000e+00 9.867090000e-01
1056000.0 1.100540000e+00 1.011406000e+00
1083000.0 1.111933000e+00 1.035730000e+00
1110000.0 1.121291000e+00 1.057932000e+00
1137000.0 1.134698000e+00 1.081184000e+00
1164000.0 1.146370000e+00 1.104692000e+00
1191000.0 1.160884000e+00 1.127555000e+00
1218000.0 1.174097000e+00 1.147657000e+00
1245000.0 1.189465000e+00 1.167725000e+00
1272000.0 1.204148000e+00 1.188718000e+00
1299000.0 1.223789000e+00 1.207201000e+00
1326000.0 1.241812000e+00 1.228101000e+00
1353000.0 1.260750000e+00 1.244147000e+00
1380000.0 1.279595000e+00 1.262985000e+00
1407000.0 1.300500000e+00 1.277703000e+00
1434000.0 1.322200000e+00 1.289922000e+00
1461000.0 1.347275000e+00 1.303222000e+00
1488000.0 1.369378000e+00 1.315308000e+00
1515000.0 1.392384000e+00 1.326102000e+00
1542000.0 1.416690000e+00 1.334717000e+00
1569000.0 1.442372000e+00 1.342130000e+00
1596000.0 1.467643000e+00 1.348445000e+00
1623000.0 1.497282000e+00 1.352893000e+00
1650000.0 1.525655000e+00 1.354461000e+00
1677000.0 1.551636000e+00 1.356096000e+00
1704000.0 1.577214000e+00 1.354792000e+00
1731000.0 1.606585000e+00 1.351622000e+00
1758000.0 1.633976000e+00 1.347314000e+00
1785000.0 1.660187000e+00 1.338050000e+00
1812000.0 1.685589000e+00 1.333965000e+00
1839000.0 1.712391000e+00 1.321693000e+00
1866000.0 1.738995000e+00 1.307567000e+00
1893000.0 1.759777000e+00 1.291622000e+00
1920000.0 1.786394000e+00 1.276575000e+00
1947000.0 1.807794000e+00 1.259416000e+00
1974000.0 1.831475000e+00 1.242650000e+00
2001000.0 1.847331000e+00 1.216245000e+00
2028000.0 1.869076000e+00 1.196997000e+00
2055000.0 1.883575000e+00 1.176480000e+00
2082000.0 1.901152000e+00 1.150842000e+00
2109000.0 1.914109000e+00 1.125364000e+00
2136000.0 1.928507000e+00 1.101498000e+00
2163000.0 1.938154000e+00 1.071412000e+00
2190000.0 1.945952000e+00 1.047057000e+00
2217000.0 1.953458000e+00 1.021348000e+00
2244000.0 1.959910000e+00 9.939600000e-01
2271000.0 1.960093000e+00 9.687500000e-01
2298000.0 1.964590000e+00 9.402710000e-01
2325000.0 1.965401000e+00 9.115250000e-01
2352000.0 1.966590000e+00 8.860630000e-01
2379000.0 1.967635000e+00 8.608230000e-01
2406000.0 1.965840000e+00 8.342810000e-01
2433000.0 1.958941000e+00 8.094270000e-01
2460000.0 1.955356000e+00 7.859770000e-01
2487000.0 1.949552000e+00 7.609160000e-01
2514000.0 1.943335000e+00 7.360620000e-01
2541000.0 1.934266000e+00 7.137160000e-01
2568000.0 1.926951000e+00 6.934500000e-01
2595000.0 1.919949000e+00 6.721350000e-01
2622000.0 1.909601000e+00 6.504340000e-01
2649000.0 1.898374000e+00 6.321580000e-01
2676000.0 1.889335000e+00 6.147650000e-01
2703000.0 1.877266000e+00 5.961880000e-01
2730000.0 1.866458000e+00 5.768300000e-01
2757000.0 1.856760000e+00 5.613390000e-01
2784000.0 1.843971000e+00 5.411150000e-01
2811000.0 1.833765000e+00 5.263750000e-01
2838000.0 1.822946000e+00 5.128690000e-01
2865000.0 1.809925000e+00 4.988110000e-01
2892000.0 1.797639000e+00 4.856430000e-01
2919000.0 1.785215000e+00 4.725320000e-01
2946000.0 1.775714000e+00 4.593830000e-01
2973000.0 1.762878000e+00 4.463000000e-01
3000000.0 1.749058000e+00 4.352530000e-01
3270000.0 1.638411000e+00 3.359920000e-01
3540000.0 1.546337000e+00 2.656610000e-01
3810000.0 1.468320000e+00 2.083210000e-01
4080000.0 1.407414000e+00 1.624580000e-01
4350000.0 1.358839000e+00 1.178020000e-01
4620000.0 1.321577000e+00 8.036200000e-02
4890000.0 1.295052000e+00 4.006800000e-02
5160000.0 1.268803000e+00 2.505000000e-03
5430000.0 1.257659000e+00 -3.325800000e-02
5700000.0 1.245547000e+00 -6.704600000e-02
5970000.0 1.238738000e+00 -9.838600000e-02
6240000.0 1.232113000e+00 -1.280200000e-01
6510000.0 1.225862000e+00 -1.531310000e-01
6780000.0 1.221852000e+00 -1.716810000e-01
7050000.0 1.219486000e+00 -1.863420000e-01
7320000.0 1.218862000e+00 -1.925520000e-01
7590000.0 -2.426810000e-01 -1.259162000e+00
7860000.0 -2.400840000e-01 -1.259464000e+00
8130000.0 -2.372030000e-01 -1.259714000e+00
8400000.0 -2.354880000e-01 -1.263362000e+00
8670000.0 -2.335450000e-01 -1.263990000e+00
8940000.0 -2.340630000e-01 -1.263592000e+00
9210000.0 -2.301140000e-01 -1.267905000e+00
9480000.0 -2.279220000e-01 -1.270824000e+00
9750000.0 -2.265770000e-01 -1.273590000e+00
10020000.0 -2.237700000e-01 -1.275198000e+00
10290000.0 -2.226540000e-01 -1.277492000e+00
10560000.0 -2.208520000e-01 -1.280843000e+00
10830000.0 -2.193790000e-01 -1.283187000e+00
11100000.0 -2.166270000e-01 -1.287253000e+00
11370000.0 -2.142410000e-01 -1.289262000e+00
11640000.0 -2.128550000e-01 -1.292637000e+00
11910000.0 -2.116220000e-01 -1.294381000e+00
12180000.0 -2.112780000e-01 -1.298096000e+00
12450000.0 -2.078400000e-01 -1.301293000e+00
12720000.0 -2.068030000e-01 -1.304589000e+00
12990000.0 -2.044850000e-01 -1.307812000e+00
13260000.0 -2.032950000e-01 -1.310634000e+00
13530000.0 -2.026540000e-01 -1.313830000e+00
13800000.0 -1.984710000e-01 -1.316547000e+00
14070000.0 -1.980060000e-01 -1.321530000e+00
14340000.0 -1.967950000e-01 -1.323423000e+00
14610000.0 -1.939910000e-01 -1.326826000e+00
14880000.0 -1.920490000e-01 -1.330104000e+00
15150000.0 -1.903620000e-01 -1.334052000e+00
15420000.0 -1.889650000e-01 -1.337864000e+00
15690000.0 -1.856450000e-01 -1.342002000e+00
15960000.0 -1.847250000e-01 -1.344878000e+00
16230000.0 -1.830760000e-01 -1.346752000e+00
16500000.0 -1.801750000e-01 -1.350769000e+00
16770000.0 -1.786170000e-01 -1.355487000e+00
17040000.0 -1.758850000e-01 -1.357938000e+00
17310000.0 -1.753850000e-01 -1.361841000e+00
17580000.0 -1.717300000e-01 -1.365793000e+00
17850000.0 -1.697950000e-01 -1.368552000e+00
18120000.0 -1.684130000e-01 -1.373832000e+00
18390000.0 -1.664180000e-01 -1.375971000e+00
18660000.0 -1.636050000e-01 -1.379252000e+00
18930000.0 -1.612110000e-01 -1.383901000e+00
19200000.0 -1.586060000e-01 -1.387254000e+00
19470000.0 -1.570400000e-01 -1.393140000e+00
19740000.0 -1.531840000e-01 -1.394615000e+00
20010000.0 -1.515530000e-01 -1.398425000e+00
20280000.0 -1.500580000e-01 -1.402366000e+00
20550000.0 -1.465630000e-01 -1.406737000e+00
20820000.0 -1.438420000e-01 -1.410537000e+00
21090000.0 -1.412420000e-01 -1.414078000e+00
21360000.0 -1.391500000e-01 -1.417943000e+00
21630000.0 -1.364410000e-01 -1.421802000e+00
21900000.0 -1.346880000e-01 -1.424498000e+00
22170000.0 -1.322170000e-01 -1.430455000e+00
22440000.0 -1.291740000e-01 -1.434393000e+00
22710000.0 -1.262340000e-01 -1.438518000e+00
22980000.0 -1.234970000e-01 -1.441738000e+00
23250000.0 -1.216130000e-01 -1.445994000e+00
23520000.0 -1.185090000e-01 -1.450421000e+00
23790000.0 -1.147630000e-01 -1.454101000e+00
24060000.0 -1.120780000e-01 -1.457396000e+00
24330000.0 -1.089680000e-01 -1.461573000e+00
24600000.0 -1.053740000e-01 -1.466660000e+00
24870000.0 -1.042020000e-01 -1.468825000e+00
25140000.0 -9.908600000e-02 -1.473918000e+00
25410000.0 -9.534600000e-02 -1.479307000e+00
25680000.0 -9.357200000e-02 -1.481647000e+00
25950000.0 -9.096400000e-02 -1.487740000e+00
26220000.0 -8.715800000e-02 -1.491006000e+00
26490000.0 -8.152000000e-02 -1.494069000e+00
26760000.0 -8.045600000e-02 -1.500333000e+00
27030000.0 -7.642600000e-02 -1.502934000e+00
27300000.0 -7.311500000e-02 -1.508043000e+00
27570000.0 -6.955900000e-02 -1.511533000e+00
27840000.0 -6.549500000e-02 -1.515756000e+00
28110000.0 -6.306600000e-02 -1.520229000e+00
28380000.0 -5.957500000e-02 -1.524696000e+00
28650000.0 -5.607600000e-02 -1.527433000e+00
28920000.0 -5.115000000e-02 -1.532425000e+00
29190000.0 -4.693600000e-02 -1.537476000e+00
29460000.0 -4.445600000e-02 -1.541749000e+00
29730000.0 -3.855300000e-02 -1.545983000e+00
30000000.0 -3.587500000e-02 -1.549668000e+00
32700000.0 6.963000000e-03 -1.594889000e+00
35400000.0 5.510200000e-02 -1.637625000e+00
38100000.0 1.104820000e-01 -1.683662000e+00
40800000.0 1.710430000e-01 -1.725779000e+00
43500000.0 2.401590000e-01 -1.764582000e+00
46200000.0 3.179440000e-01 -1.802713000e+00
48900000.0 4.032380000e-01 -1.836685000e+00
51600000.0 4.965500000e-01 -1.861364000e+00
54300000.0 5.987250000e-01 -1.880459000e+00
57000000.0 7.054100000e-01 -1.886143000e+00
59700000.0 8.212180000e-01 -1.881132000e+00
62400000.0 9.352370000e-01 -1.859499000e+00
65100000.0 1.053578000e+00 -1.822632000e+00
67800000.0 1.168061000e+00 -1.772596000e+00
70500000.0 1.278060000e+00 -1.702993000e+00
73200000.0 1.374602000e+00 -1.621612000e+00
75900000.0 1.461481000e+00 -1.525027000e+00
78600000.0 1.533259000e+00 -1.421640000e+00
81300000.0 1.588182000e+00 -1.314153000e+00
84000000.0 1.627331000e+00 -1.201207000e+00
86700000.0 1.651391000e+00 -1.089985000e+00
89400000.0 1.663119000e+00 -9.828720000e-01
92100000.0 1.662603000e+00 -8.792950000e-01
94800000.0 1.650663000e+00 -7.841570000e-01
97500000.0 1.633047000e+00 -6.949250000e-01
100200000.0 1.609345000e+00 -6.155720000e-01
102900000.0 1.578028000e+00 -5.413590000e-01
105600000.0 1.545040000e+00 -4.741950000e-01
108300000.0 1.509910000e+00 -4.112010000e-01
111000000.0 1.474495000e+00 -3.577750000e-01
113700000.0 1.435979000e+00 -3.115180000e-01
116400000.0 1.399904000e+00 -2.680510000e-01
119100000.0 1.362201000e+00 -2.290120000e-01
121800000.0 1.325805000e+00 -1.940640000e-01
124500000.0 1.289618000e+00 -1.620560000e-01
127200000.0 1.255056000e+00 -1.357730000e-01
129900000.0 1.219052000e+00 -1.122190000e-01
132600000.0 1.187039000e+00 -8.945400000e-02
135300000.0 1.155556000e+00 -7.288800000e-02
138000000.0 1.125445000e+00 -5.582800000e-02
140700000.0 1.095485000e+00 -4.067700000e-02
143400000.0 1.067070000e+00 -2.645200000e-02
146100000.0 1.038866000e+00 -1.451200000e-02
148800000.0 1.010876000e+00 -5.015000000e-03
151500000.0 9.997850000e-01 9.500000000e-04
154200000.0 1.002194000e+00 1.216000000e-03
156900000.0 1.000251000e+00 1.000000000e-03
159600000.0 1.001479000e+00 8.860000000e-04
162300000.0 1.002825000e+00 -1.036000000e-03
165000000.0 1.002077000e+00 -4.810000000e-04
167700000.0 1.003219000e+00 -5.500000000e-04
170400000.0 1.001617000e+00 -6.500000000e-05
173100000.0 1.002742000e+00 -3.410000000e-04
175800000.0 1.002282000e+00 -4.630000000e-04
178500000.0 1.003290000e+00 -7.650000000e-04
181200000.0 1.003660000e+00 -1.693000000e-03
183900000.0 1.003948000e+00 -1.524000000e-03
186600000.0 1.003724000e+00 -1.780000000e-03
189300000.0 1.005425000e+00 -1.050000000e-04
192000000.0 1.004830000e+00 -2.184000000e-03
194700000.0 1.006195000e+00 -8.150000000e-04
197400000.0 1.005530000e+00 -1.337000000e-03
200100000.0 1.005494000e+00 -6.570000000e-04
202800000.0 1.003771000e+00 -1.961000000e-03
205500000.0 1.005375000e+00 -1.110000000e-03
208200000.0 1.006895000e+00 -9.710000000e-04
210900000.0 1.006369000e+00 -1.168000000e-03
213600000.0 1.005880000e+00 -2.336000000e-03
216300000.0 1.008242000e+00 -6.570000000e-04
219000000.0 1.006211000e+00 -2.564000000e-03
221700000.0 1.004943000e+00 -1.318000000e-03
224400000.0 1.005822000e+00 -5.300000000e-05
227100000.0 1.007285000e+00 -2.228000000e-03
229800000.0 1.007189000e+00 -9.440000000e-04
232500000.0 1.005537000e+00 -2.281000000e-03
235200000.0 1.006906000e+00 -8.620000000e-04
237900000.0 1.005700000e+00 -1.662000000e-03
240600000.0 1.006240000e+00 -2.353000000e-03
243300000.0 1.006788000e+00 -2.018000000e-03
246000000.0 1.006091000e+00 -1.673000000e-03
248700000.0 1.004749000e+00 -1.641000000e-03
251400000.0 1.005689000e+00 -1.925000000e-03
254100000.0 1.005337000e+00 -1.677000000e-03
256800000.0 1.006580000e+00 -1.260000000e-03
259500000.0 1.005986000e+00 -1.093000000e-03
262200000.0 1.004630000e+00 2.900000000e-04
264900000.0 1.004940000e+00 -9.320000000e-04
267600000.0 1.004581000e+00 -5.460000000e-04
270300000.0 1.003816000e+00 -1.065000000e-03
273000000.0 1.004953000e+00 -8.360000000e-04
275700000.0 1.003854000e+00 -3.790000000e-04
278400000.0 1.001162000e+00 -1.039000000e-03
281100000.0 1.003490000e+00 -3.060000000e-04
283800000.0 1.003995000e+00 -6.550000000e-04
286500000.0 1.003690000e+00 5.900000000e-05
289200000.0 1.004580000e+00 1.701000000e-03
291900000.0 1.002449000e+00 -1.032000000e-03
294600000.0 9.997970000e-01 -3.720000000e-04
297300000.0 1.002118000e+00 -9.930000000e-04
300000000.0 1.001395000e+00 -8.380000000e-04
311500000.0 1.002552000e+00 6.200000000e-04
323000000.0 1.003939000e+00 -1.482000000e-03
334500000.0 1.005563000e+00 -4.500000000e-05
346000000.0 1.004817000e+00 -6.970000000e-04
357500000.0 1.007098000e+00 6.930000000e-04
369000000.0 1.006520000e+00 1.100000000e-05
380500000.0 1.006127000e+00 2.083000000e-03
392000000.0 1.006458000e+00 5.100000000e-05
403500000.0 1.003931000e+00 2.254000000e-03
415000000.0 1.005683000e+00 1.026000000e-03
426500000.0 1.001223000e+00 8.280000000e-04
438000000.0 1.002023000e+00 1.416000000e-03
449500000.0 9.993340000e-01 3.748000000e-03
461000000.0 9.994530000e-01 1.622000000e-03
472500000.0 1.003217000e+00 4.481000000e-03
484000000.0 1.005052000e+00 2.717000000e-03
495500000.0 1.007063000e+00 5.225000000e-03
507000000.0 1.007483000e+00 6.616000000e-03
518500000.0 1.008120000e+00 8.091000000e-03
530000000.0 1.006735000e+00 6.366000000e-03
541500000.0 1.008207000e+00 1.044700000e-02
553000000.0 1.008880000e+00 8.810000000e-03
564500000.0 1.006828000e+00 6.314000000e-03
576000000.0 1.004264000e+00 7.815000000e-03
587500000.0 1.005504000e+00 5.525000000e-03
599000000.0 1.003788000e+00 7.646000000e-03
610500000.0 1.006134000e+00 7.044000000e-03
622000000.0 9.685040000e-01 -9.143300000e-02
633500000.0 1.011787000e+00 1.059200000e-02
645000000.0 1.014706000e+00 7.211000000e-03
656500000.0 1.015763000e+00 9.205000000e-03
668000000.0 1.018070000e+00 8.405000000e-03
679500000.0 1.015003000e+00 9.130000000e-03
691000000.0 1.013935000e+00 9.919000000e-03
702500000.0 1.012752000e+00 5.081000000e-03
714000000.0 1.007713000e+00 9.458000000e-03
725500000.0 1.011243000e+00 5.867000000e-03
737000000.0 1.006066000e+00 6.708000000e-03
748500000.0 1.001231000e+00 5.122000000e-03
760000000.0 1.006151000e+00 1.275000000e-03
771500000.0 1.009997000e+00 -7.000000000e-05
783000000.0 1.012809000e+00 -4.843000000e-03
794500000.0 1.013758000e+00 -8.069000000e-03
806000000.0 1.016615000e+00 -6.129000000e-03
817500000.0 1.017261000e+00 -6.847000000e-03
829000000.0 1.017162000e+00 -6.069000000e-03
840500000.0 1.016637000e+00 -8.862000000e-03
852000000.0 1.015649000e+00 -2.830000000e-03
863500000.0 1.010539000e+00 -1.569000000e-03
875000000.0 1.011837000e+00 -3.662000000e-03
886500000.0 1.007408000e+00 -6.811000000e-03
898000000.0 1.001169000e+00 -9.250000000e-04
909500000.0 1.004192000e+00 -4.295000000e-03
921000000.0 1.003769000e+00 -1.221000000e-03
932500000.0 1.004240000e+00 -6.183000000e-03
944000000.0 1.006429000e+00 -4.794000000e-03
955500000.0 1.008064000e+00 -7.656000000e-03
967000000.0 1.007741000e+00 -8.410000000e-03
978500000.0 1.004270000e+00 -4.073000000e-03
990000000.0 1.004440000e+00 -4.521000000e-03
1001500000.0 1.005344000e+00 -1.016600000e-02
1013000000.0 1.004350000e+00 -2.080000000e-03
1024500000.0 1.006713000e+00 -3.143000000e-03
1036000000.0 1.000888000e+00 -2.787000000e-03
1047500000.0 1.002893000e+00 3.723000000e-03
1059000000.0 1.000029000e+00 -3.490000000e-03
1070500000.0 1.002800000e+00 -2.070000000e-03
1082000000.0 1.000906000e+00 -2.174000000e-03
1093500000.0 1.000947000e+00 -1.491000000e-03
1105000000.0 1.008282000e+00 -1.390000000e-03
1116500000.0 1.002598000e+00 3.493000000e-03
1128000000.0 1.012696000e+00 -3.334100000e-02
1139500000.0 1.007036000e+00 -2.334000000e-03
1151000000.0 1.002642000e+00 -5.017000000e-03
1162500000.0 1.001253000e+00 -5.629000000e-03
1174000000.0 1.004395000e+00 -7.008000000e-03
1185500000.0 1.003312000e+00 -6.313000000e-03
1197000000.0 1.002037000e+00 -1.773000000e-03
1208500000.0 1.006183000e+00 -6.381000000e-03
1220000000.0 1.005310000e+00 -2.954000000e-03
1231500000.0 1.007399000e+00 3.897000000e-03
1243000000.0 1.005831000e+00 -2.363000000e-03
1254500000.0 1.006233000e+00 -6.516000000e-03
1266000000.0 9.984370000e-01 -2.520000000e-04
1277500000.0 1.002910000e+00 1.780000000e-04
1289000000.0 1.003577000e+00 7.981000000e-03
1300500000.0 1.006357000e+00 -3.933000000e-03
1312000000.0 1.006022000e+00 4.431000000e-03
1323500000.0 1.001160000e+00 -8.370000000e-04
1335000000.0 1.004269000e+00 3.839000000e-03
1346500000.0 1.008610000e+00 -1.303000000e-03
1358000000.0 1.003061000e+00 6.280000000e-03
1369500000.0 1.005344000e+00 8.595000000e-03
1381000000.0 1.012320000e+00 1.554400000e-02
1392500000.0 1.005035000e+00 1.513100000e-02
1404000000.0 1.004828000e+00 3.237800000e-02
1415500000.0 1.005957000e+00 6.677000000e-03
1427000000.0 1.007718000e+00 1.621000000e-02
1438500000.0 1.004727000e+00 1.931400000e-02
1450000000.0 1.002813000e+00 1.668400000e-02
