! piloto_saltos / abierto_101puntos / r05
# HZ S RI R 50
50000.0 1.005809000e+00 -6.970800000e-02
59500.0 1.008035000e+00 -5.501100000e-02
69000.0 1.005572000e+00 -4.429200000e-02
78500.0 1.002659000e+00 -2.909800000e-02
88000.0 1.001058000e+00 -1.600600000e-02
97500.0 9.993440000e-01 -4.146000000e-03
107000.0 1.000571000e+00 9.836000000e-03
116500.0 1.000681000e+00 2.117500000e-02
126000.0 1.001773000e+00 3.441300000e-02
135500.0 1.000127000e+00 4.546800000e-02
145000.0 1.001704000e+00 5.806600000e-02
154500.0 1.001113000e+00 6.953200000e-02
164000.0 1.001193000e+00 8.237400000e-02
173500.0 1.003039000e+00 9.407600000e-02
183000.0 1.002393000e+00 1.067780000e-01
192500.0 1.003062000e+00 1.176470000e-01
202000.0 1.003610000e+00 1.303820000e-01
211500.0 1.003905000e+00 1.408280000e-01
221000.0 1.004324000e+00 1.525290000e-01
230500.0 1.004194000e+00 1.639310000e-01
240000.0 1.004160000e+00 1.752200000e-01
249500.0 1.005792000e+00 1.866400000e-01
259000.0 1.004926000e+00 1.984370000e-01
268500.0 1.005931000e+00 2.094370000e-01
278000.0 1.006226000e+00 2.193590000e-01
287500.0 1.005943000e+00 2.320960000e-01
297000.0 1.006460000e+00 2.432910000e-01
306500.0 1.006908000e+00 2.532680000e-01
316000.0 1.006590000e+00 2.637860000e-01
325500.0 1.006758000e+00 2.753500000e-01
335000.0 1.007881000e+00 2.861240000e-01
344500.0 1.008068000e+00 2.962310000e-01
354000.0 1.008464000e+00 3.076150000e-01
363500.0 1.008670000e+00 3.186810000e-01
373000.0 1.008680000e+00 3.286520000e-01
382500.0 1.008908000e+00 3.389380000e-01
392000.0 1.009992000e+00 3.500100000e-01
401500.0 1.008778000e+00 3.605710000e-01
411000.0 1.009124000e+00 3.712430000e-01
420500.0 1.010022000e+00 3.815260000e-01
430000.0 1.010333000e+00 3.915370000e-01
439500.0 1.010545000e+00 4.018590000e-01
449000.0 1.010826000e+00 4.123330000e-01
458500.0 1.010671000e+00 4.224700000e-01
468000.0 1.010303000e+00 4.333020000e-01
477500.0 1.011154000e+00 4.417050000e-01
487000.0 1.011774000e+00 4.527830000e-01
496500.0 1.012145000e+00 4.628600000e-01
506000.0 1.012357000e+00 4.736870000e-01
515500.0 1.013024000e+00 4.833670000e-01
525000.0 1.014354000e+00 4.932460000e-01
534500.0 1.013373000e+00 5.018500000e-01
544000.0 1.013752000e+00 5.132380000e-01
553500.0 1.014942000e+00 5.228130000e-01
563000.0 1.015438000e+00 5.333370000e-01
572500.0 1.016021000e+00 5.429460000e-01
582000.0 1.016081000e+00 5.530880000e-01
591500.0 1.016469000e+00 5.615820000e-01
601000.0 1.018077000e+00 5.720120000e-01
610500.0 1.018285000e+00 5.814680000e-01
620000.0 1.019279000e+00 5.907140000e-01
629500.0 1.019923000e+00 6.027410000e-01
639000.0 1.019432000e+00 6.117840000e-01
648500.0 1.021016000e+00 6.215210000e-01
658000.0 1.021325000e+00 6.301430000e-01
667500.0 1.021981000e+00 6.388820000e-01
677000.0 1.023347000e+00 6.487290000e-01
686500.0 1.023324000e+00 6.595380000e-01
696000.0 1.024173000e+00 6.687990000e-01
705500.0 1.026021000e+00 6.774910000e-01
715000.0 1.027012000e+00 6.867150000e-01
724500.0 1.026424000e+00 6.963630000e-01
734000.0 1.028265000e+00 7.053910000e-01
743500.0 1.029783000e+00 7.149330000e-01
753000.0 1.030650000e+00 7.241690000e-01
762500.0 1.031195000e+00 7.337700000e-01
772000.0 1.033945000e+00 7.436380000e-01
781500.0 1.033942000e+00 7.527890000e-01
791000.0 1.035299000e+00 7.625340000e-01
800500.0 1.037215000e+00 7.713130000e-01
810000.0 1.038530000e+00 7.809010000e-01
819500.0 1.038636000e+00 7.887210000e-01
829000.0 1.041290000e+00 7.991670000e-01
838500.0 1.043716000e+00 8.072770000e-01
848000.0 1.045022000e+00 8.171050000e-01
857500.0 1.048167000e+00 8.261010000e-01
867000.0 1.049115000e+00 8.365560000e-01
876500.0 1.050302000e+00 8.441670000e-01
886000.0 1.053884000e+00 8.523310000e-01
895500.0 1.053304000e+00 8.303780000e-01
905000.0 1.057219000e+00 8.695450000e-01
914500.0 1.058419000e+00 8.807330000e-01
924000.0 1.059090000e+00 8.881230000e-01
933500.0 1.063766000e+00 8.994390000e-01
943000.0 1.066989000e+00 9.065820000e-01
952500.0 1.068681000e+00 9.173690000e-01
962000.0 1.071253000e+00 9.250350000e-01
971500.0 1.073079000e+00 9.346230000e-01
981000.0 1.075006000e+00 9.435270000e-01
990500.0 1.078987000e+00 9.515470000e-01
1000000.0 1.081732000e+00 9.597420000e-01
1090000.0 1.109600000e+00 1.038106000e+00
1180000.0 1.149301000e+00 1.115291000e+00
1270000.0 1.202118000e+00 1.187141000e+00
1360000.0 1.260613000e+00 1.248372000e+00
1450000.0 1.331772000e+00 1.297649000e+00
1540000.0 1.412349000e+00 1.334862000e+00
1630000.0 1.498353000e+00 1.355224000e+00
1720000.0 1.590765000e+00 1.354203000e+00
1810000.0 1.681141000e+00 1.331121000e+00
1900000.0 1.764526000e+00 1.292001000e+00
1990000.0 1.840774000e+00 1.232307000e+00
2080000.0 1.899303000e+00 1.154069000e+00
2170000.0 1.942457000e+00 1.072116000e+00
2260000.0 1.961101000e+00 9.808590000e-01
2350000.0 1.968821000e+00 8.925880000e-01
2440000.0 1.961283000e+00 8.039680000e-01
2530000.0 1.940943000e+00 7.259690000e-01
2620000.0 1.912560000e+00 6.520520000e-01
2710000.0 1.878117000e+00 5.898650000e-01
2800000.0 1.841148000e+00 5.346400000e-01
2890000.0 1.799945000e+00 4.867530000e-01
2980000.0 1.760686000e+00 4.437240000e-01
3070000.0 1.724034000e+00 4.067560000e-01
3160000.0 1.685623000e+00 3.722870000e-01
3250000.0 1.650032000e+00 3.418300000e-01
3340000.0 1.614810000e+00 3.158860000e-01
3430000.0 1.584526000e+00 2.938410000e-01
3520000.0 1.555313000e+00 2.705370000e-01
3610000.0 1.525654000e+00 2.506710000e-01
3700000.0 1.498928000e+00 2.315240000e-01
3790000.0 1.475832000e+00 2.148260000e-01
3880000.0 1.453757000e+00 1.970920000e-01
3970000.0 1.432685000e+00 1.802680000e-01
4060000.0 1.413716000e+00 1.671050000e-01
4150000.0 1.394879000e+00 1.503610000e-01
4240000.0 1.379118000e+00 1.361640000e-01
4330000.0 1.362325000e+00 1.211930000e-01
4420000.0 1.348858000e+00 1.084150000e-01
4510000.0 1.336840000e+00 9.497300000e-02
4600000.0 1.324111000e+00 8.228700000e-02
4690000.0 1.314477000e+00 6.989800000e-02
4780000.0 1.305048000e+00 5.609400000e-02
4870000.0 1.298127000e+00 4.382700000e-02
4960000.0 1.290988000e+00 3.084500000e-02
5050000.0 1.275869000e+00 1.634500000e-02
5140000.0 1.271169000e+00 4.703000000e-03
5230000.0 1.265331000e+00 -5.324000000e-03
5320000.0 1.262302000e+00 -1.799400000e-02
5410000.0 1.258727000e+00 -3.091000000e-02
5500000.0 1.255360000e+00 -4.335800000e-02
5590000.0 1.250878000e+00 -5.366500000e-02
5680000.0 1.247947000e+00 -6.552400000e-02
5770000.0 1.244431000e+00 -7.727400000e-02
5860000.0 1.242791000e+00 -8.722900000e-02
5950000.0 1.237766000e+00 -9.567700000e-02
6040000.0 1.235739000e+00 -1.074020000e-01
6130000.0 1.233524000e+00 -1.177220000e-01
6220000.0 1.230230000e+00 -1.268330000e-01
6310000.0 1.229024000e+00 -1.346080000e-01
6400000.0 1.228224000e+00 -1.424920000e-01
6490000.0 1.226652000e+00 -1.508050000e-01
6580000.0 1.225178000e+00 -1.591280000e-01
6670000.0 1.222851000e+00 -1.655800000e-01
6760000.0 1.223423000e+00 -1.702760000e-01
6850000.0 1.221307000e+00 -1.778700000e-01
6940000.0 1.219924000e+00 -1.822270000e-01
7030000.0 1.219315000e+00 -1.859980000e-01
7120000.0 1.220874000e+00 -1.891600000e-01
7210000.0 1.218672000e+00 -1.914190000e-01
7300000.0 1.219459000e+00 -1.927370000e-01
7390000.0 1.219439000e+00 -1.940850000e-01
7480000.0 1.219561000e+00 -1.931160000e-01
7570000.0 -2.414870000e-01 -1.257823000e+00
7660000.0 -2.423430000e-01 -1.259316000e+00
7750000.0 -2.406590000e-01 -1.258520000e+00
7840000.0 -2.404210000e-01 -1.259395000e+00
7930000.0 -2.392460000e-01 -1.259950000e+00
8020000.0 -2.392720000e-01 -1.260787000e+00
8110000.0 -2.383780000e-01 -1.262331000e+00
8200000.0 -2.379030000e-01 -1.262073000e+00
8290000.0 -2.359830000e-01 -1.262137000e+00
8380000.0 -2.362090000e-01 -1.262992000e+00
8470000.0 -2.358040000e-01 -1.262697000e+00
8560000.0 -2.353690000e-01 -1.263036000e+00
8650000.0 -2.330630000e-01 -1.263439000e+00
8740000.0 -2.333580000e-01 -1.264884000e+00
8830000.0 -2.320060000e-01 -1.266942000e+00
8920000.0 -2.319110000e-01 -1.266563000e+00
9010000.0 -2.312390000e-01 -1.267839000e+00
9100000.0 -2.304750000e-01 -1.268141000e+00
9190000.0 -2.303890000e-01 -1.269135000e+00
9280000.0 -2.299980000e-01 -1.269290000e+00
9370000.0 -2.282810000e-01 -1.269576000e+00
9460000.0 -2.263380000e-01 -1.271129000e+00
9550000.0 -2.271840000e-01 -1.272745000e+00
9640000.0 -2.267900000e-01 -1.272992000e+00
9730000.0 -2.249880000e-01 -1.274154000e+00
9820000.0 -2.257050000e-01 -1.275187000e+00
9910000.0 -2.247000000e-01 -1.274119000e+00
10000000.0 -2.245530000e-01 -1.275079000e+00
10900000.0 -2.188600000e-01 -1.284939000e+00
11800000.0 -2.130660000e-01 -1.293977000e+00
12700000.0 -2.076750000e-01 -1.303102000e+00
13600000.0 -2.014040000e-01 -1.315206000e+00
14500000.0 -1.948650000e-01 -1.325626000e+00
15400000.0 -1.891450000e-01 -1.337999000e+00
16300000.0 -1.822200000e-01 -1.347912000e+00
17200000.0 -1.757850000e-01 -1.359637000e+00
18100000.0 -1.693290000e-01 -1.371648000e+00
19000000.0 -1.589340000e-01 -1.384869000e+00
19900000.0 -1.530430000e-01 -1.397858000e+00
20800000.0 -1.453190000e-01 -1.409726000e+00
21700000.0 -1.359490000e-01 -1.423207000e+00
22600000.0 -1.278080000e-01 -1.435182000e+00
23500000.0 -1.181860000e-01 -1.448490000e+00
24400000.0 -1.088290000e-01 -1.463539000e+00
25300000.0 -9.754800000e-02 -1.475215000e+00
26200000.0 -8.770200000e-02 -1.490916000e+00
27100000.0 -7.642500000e-02 -1.505299000e+00
28000000.0 -6.339700000e-02 -1.518979000e+00
28900000.0 -5.118200000e-02 -1.534769000e+00
29800000.0 -3.832200000e-02 -1.547291000e+00
30700000.0 -2.551100000e-02 -1.562803000e+00
31600000.0 -1.148000000e-02 -1.576330000e+00
32500000.0 3.476000000e-03 -1.590842000e+00
33400000.0 1.920100000e-02 -1.606318000e+00
34300000.0 3.524200000e-02 -1.620263000e+00
35200000.0 5.106100000e-02 -1.635854000e+00
36100000.0 6.920500000e-02 -1.649515000e+00
37000000.0 8.706800000e-02 -1.664803000e+00
37900000.0 1.049780000e-01 -1.679774000e+00
38800000.0 1.259830000e-01 -1.694272000e+00
39700000.0 1.454480000e-01 -1.706908000e+00
40600000.0 1.670200000e-01 -1.721095000e+00
41500000.0 1.890420000e-01 -1.736031000e+00
42400000.0 2.093950000e-01 -1.750564000e+00
43300000.0 2.337680000e-01 -1.761531000e+00
44200000.0 2.617250000e-01 -1.776349000e+00
45100000.0 2.866830000e-01 -1.788718000e+00
46000000.0 3.121690000e-01 -1.800253000e+00
46900000.0 3.399460000e-01 -1.812248000e+00
47800000.0 3.667970000e-01 -1.824007000e+00
48700000.0 3.963520000e-01 -1.834465000e+00
49600000.0 4.263540000e-01 -1.843236000e+00
50500000.0 4.568970000e-01 -1.851775000e+00
51400000.0 4.884440000e-01 -1.858224000e+00
52300000.0 5.216250000e-01 -1.865326000e+00
53200000.0 5.553450000e-01 -1.872072000e+00
54100000.0 5.903130000e-01 -1.878677000e+00
55000000.0 6.254800000e-01 -1.882506000e+00
55900000.0 6.615320000e-01 -1.882458000e+00
56800000.0 6.977880000e-01 -1.887036000e+00
57700000.0 7.356570000e-01 -1.884615000e+00
58600000.0 7.733750000e-01 -1.883918000e+00
59500000.0 8.101950000e-01 -1.879909000e+00
60400000.0 8.487670000e-01 -1.876977000e+00
61300000.0 8.874680000e-01 -1.869738000e+00
62200000.0 9.275880000e-01 -1.862554000e+00
63100000.0 9.667710000e-01 -1.853044000e+00
64000000.0 1.005949000e+00 -1.840654000e+00
64900000.0 1.044562000e+00 -1.828761000e+00
65800000.0 1.083409000e+00 -1.811774000e+00
66700000.0 1.122307000e+00 -1.797413000e+00
67600000.0 1.161621000e+00 -1.774946000e+00
68500000.0 1.195234000e+00 -1.756139000e+00
69400000.0 1.232147000e+00 -1.733061000e+00
70300000.0 1.270459000e+00 -1.710002000e+00
71200000.0 1.302500000e+00 -1.682997000e+00
72100000.0 1.334586000e+00 -1.657562000e+00
73000000.0 1.367098000e+00 -1.630300000e+00
73900000.0 1.399981000e+00 -1.599523000e+00
74800000.0 1.427241000e+00 -1.566798000e+00
75700000.0 1.454900000e+00 -1.533753000e+00
76600000.0 1.481561000e+00 -1.499895000e+00
77500000.0 1.503829000e+00 -1.463428000e+00
78400000.0 1.525778000e+00 -1.430801000e+00
79300000.0 1.548589000e+00 -1.395601000e+00
80200000.0 1.568014000e+00 -1.358034000e+00
81100000.0 1.584092000e+00 -1.321424000e+00
82000000.0 1.598962000e+00 -1.284949000e+00
82900000.0 1.612591000e+00 -1.247793000e+00
83800000.0 1.625476000e+00 -1.210332000e+00
84700000.0 1.635354000e+00 -1.170799000e+00
85600000.0 1.643444000e+00 -1.135836000e+00
86500000.0 1.651025000e+00 -1.097751000e+00
87400000.0 1.655890000e+00 -1.063929000e+00
88300000.0 1.661229000e+00 -1.025743000e+00
89200000.0 1.663223000e+00 -9.892170000e-01
90100000.0 1.663473000e+00 -9.581280000e-01
91000000.0 1.662777000e+00 -9.227570000e-01
91900000.0 1.662966000e+00 -8.886900000e-01
92800000.0 1.661190000e+00 -8.525970000e-01
93700000.0 1.656587000e+00 -8.231410000e-01
94600000.0 1.653000000e+00 -7.922080000e-01
95500000.0 1.646854000e+00 -7.599870000e-01
96400000.0 1.642818000e+00 -7.312630000e-01
97300000.0 1.633937000e+00 -6.999280000e-01
98200000.0 1.625524000e+00 -6.736390000e-01
99100000.0 1.618005000e+00 -6.462360000e-01
100000000.0 1.610932000e+00 -6.193900000e-01
109000000.0 1.502546000e+00 -3.993480000e-01
118000000.0 1.377020000e+00 -2.437480000e-01
127000000.0 1.257227000e+00 -1.372010000e-01
136000000.0 1.147960000e+00 -6.874600000e-02
145000000.0 1.049249000e+00 -1.935200000e-02
154000000.0 1.000165000e+00 2.360000000e-04
163000000.0 1.001785000e+00 -2.180000000e-04
172000000.0 1.003088000e+00 -5.350000000e-04
181000000.0 1.003547000e+00 -8.770000000e-04
190000000.0 1.004788000e+00 -2.347000000e-03
199000000.0 1.005194000e+00 -1.654000000e-03
208000000.0 1.006067000e+00 -3.230000000e-04
217000000.0 1.006189000e+00 -2.136000000e-03
226000000.0 1.007038000e+00 -7.210000000e-04
235000000.0 1.006535000e+00 -2.080000000e-03
244000000.0 1.006594000e+00 -1.513000000e-03
253000000.0 1.005703000e+00 -8.920000000e-04
262000000.0 1.005344000e+00 -1.085000000e-03
271000000.0 1.004577000e+00 -1.148000000e-03
280000000.0 1.003565000e+00 1.102000000e-03
289000000.0 1.003497000e+00 -3.170000000e-04
298000000.0 1.000993000e+00 -1.640000000e-03
307000000.0 1.004302000e+00 1.230000000e-04
316000000.0 1.003810000e+00 -5.350000000e-04
325000000.0 1.003660000e+00 4.900000000e-04
334000000.0 1.004099000e+00 -2.940000000e-04
343000000.0 1.004818000e+00 -4.700000000e-04
352000000.0 1.007158000e+00 3.400000000e-05
361000000.0 1.008983000e+00 1.814700000e-02
370000000.0 1.008769000e+00 1.910400000e-02
379000000.0 1.006991000e+00 1.976100000e-02
388000000.0 1.006413000e+00 2.010000000e-04
397000000.0 1.005985000e+00 1.909000000e-03
406000000.0 1.004460000e+00 2.882000000e-03
415000000.0 1.004745000e+00 -2.138000000e-03
424000000.0 1.000677000e+00 -1.671800000e-02
433000000.0 1.001295000e+00 6.250000000e-04
442000000.0 1.000375000e+00 2.102000000e-03
451000000.0 1.000521000e+00 3.364000000e-03
460000000.0 1.000729000e+00 1.516000000e-03
469000000.0 1.003177000e+00 4.267000000e-03
478000000.0 1.004658000e+00 4.566000000e-03
487000000.0 1.005258000e+00 3.709000000e-03
496000000.0 1.006575000e+00 5.407000000e-03
505000000.0 1.007162000e+00 4.542000000e-03
514000000.0 1.008815000e+00 5.908000000e-03
523000000.0 1.008466000e+00 7.375000000e-03
532000000.0 1.008770000e+00 8.268000000e-03
541000000.0 1.008592000e+00 6.616000000e-03
550000000.0 1.008903000e+00 7.043000000e-03
559000000.0 1.005786000e+00 7.658000000e-03
568000000.0 1.007410000e+00 7.788000000e-03
577000000.0 1.006219000e+00 4.061000000e-03
586000000.0 1.004464000e+00 6.134000000e-03
595000000.0 1.002912000e+00 9.752000000e-03
604000000.0 1.002977000e+00 5.974000000e-03
613000000.0 1.005255000e+00 6.417000000e-03
622000000.0 1.011327000e+00 7.371000000e-03
631000000.0 1.013817000e+00 7.176000000e-03
640000000.0 1.012405000e+00 7.854000000e-03
649000000.0 1.013044000e+00 7.515000000e-03
658000000.0 1.017770000e+00 6.506000000e-03
667000000.0 1.018228000e+00 9.554000000e-03
676000000.0 1.017222000e+00 6.830000000e-03
685000000.0 1.016727000e+00 1.059900000e-02
694000000.0 1.014156000e+00 7.582000000e-03
703000000.0 1.015879000e+00 8.331000000e-03
712000000.0 1.015627000e+00 6.068000000e-03
721000000.0 1.013183000e+00 7.609000000e-03
730000000.0 1.008462000e+00 7.256000000e-03
739000000.0 1.002845000e+00 4.179000000e-03
748000000.0 1.001403000e+00 -4.300000000e-05
757000000.0 1.002798000e+00 -1.923000000e-03
766000000.0 1.007681000e+00 -1.068000000e-03
775000000.0 1.010880000e+00 -1.491000000e-03
784000000.0 1.012432000e+00 -2.499000000e-03
793000000.0 1.015693000e+00 -5.784000000e-03
802000000.0 1.017419000e+00 -8.724000000e-03
811000000.0 1.019058000e+00 -7.511000000e-03
820000000.0 1.016339000e+00 -6.357000000e-03
829000000.0 1.016939000e+00 -2.648000000e-03
838000000.0 1.017330000e+00 3.880000000e-04
847000000.0 1.012243000e+00 -9.592000000e-03
856000000.0 1.013674000e+00 -5.166000000e-03
865000000.0 1.009610000e+00 2.231000000e-03
874000000.0 1.011640000e+00 -5.621000000e-03
883000000.0 1.008437000e+00 1.006000000e-03
892000000.0 1.004828000e+00 8.830000000e-04
901000000.0 1.001996000e+00 -1.750000000e-04
910000000.0 1.003711000e+00 -3.881000000e-03
919000000.0 1.002825000e+00 -7.573000000e-03
928000000.0 1.005120000e+00 -3.259000000e-03
937000000.0 1.003804000e+00 -5.083000000e-03
946000000.0 1.006278000e+00 1.190100000e-02
955000000.0 1.005993000e+00 -6.869000000e-03
964000000.0 1.003881000e+00 -1.060800000e-02
973000000.0 1.006185000e+00 -1.186200000e-02
982000000.0 1.008291000e+00 1.512400000e-02
991000000.0 1.004380000e+00 -1.021500000e-02
1000000000.0 1.003410000e+00 -2.876200000e-02
1004500000.0 1.003484000e+00 -3.286000000e-03
1009000000.0 1.002073000e+00 -5.836000000e-03
1013500000.0 1.002876000e+00 -4.633000000e-03
1018000000.0 1.003811000e+00 -2.864000000e-03
1022500000.0 1.004401000e+00 -6.575000000e-03
1027000000.0 1.000956000e+00 -3.438000000e-03
1031500000.0 1.000951000e+00 -3.285000000e-03
1036000000.0 9.990890000e-01 -2.297000000e-03
1040500000.0 1.002735000e+00 -3.582000000e-03
1045000000.0 1.000321000e+00 -5.568000000e-03
1049500000.0 9.987470000e-01 1.505000000e-03
1054000000.0 1.000239000e+00 -1.486000000e-03
1058500000.0 1.004611000e+00 -2.050000000e-03
1063000000.0 1.003221000e+00 -1.473000000e-03
1067500000.0 1.003021000e+00 6.130000000e-04
1072000000.0 1.002731000e+00 2.040000000e-04
1076500000.0 1.002891000e+00 1.743000000e-03
1081000000.0 1.004489000e+00 -3.594000000e-03
1085500000.0 1.004241000e+00 -3.901000000e-03
1090000000.0 1.000228000e+00 1.357000000e-03
1094500000.0 1.002218000e+00 2.432000000e-03
1099000000.0 1.001263000e+00 -2.174000000e-03
1103500000.0 1.004439000e+00 -1.710000000e-03
1108000000.0 1.000723000e+00 -6.860000000e-04
1112500000.0 1.005519000e+00 -7.996000000e-03
1117000000.0 1.002127000e+00 -4.700000000e-05
1121500000.0 1.005226000e+00 3.143000000e-03
1126000000.0 1.004670000e+00 -4.510000000e-03
1130500000.0 1.004299000e+00 -5.892000000e-03
1135000000.0 1.006255000e+00 1.601600000e-02
1139500000.0 1.003564000e+00 -2.737000000e-03
1144000000.0 1.003092000e+00 -7.590000000e-03
1148500000.0 1.005989000e+00 -1.338600000e-02
1153000000.0 9.938070000e-01 -5.041800000e-02
1157500000.0 9.966110000e-01 -2.535000000e-03
1162000000.0 1.004936000e+00 -3.924000000e-03
1166500000.0 1.006709000e+00 1.374000000e-03
1171000000.0 1.008119000e+00 -1.010300000e-02
1175500000.0 1.003565000e+00 -3.915000000e-03
1180000000.0 1.004056000e+00 1.272300000e-02
1184500000.0 1.004340000e+00 -9.222000000e-03
1189000000.0 1.001413000e+00 -2.142000000e-02
1193500000.0 1.000409000e+00 -9.512000000e-03
1198000000.0 1.003699000e+00 1.785600000e-02
1202500000.0 1.004816000e+00 -8.006000000e-03
1207000000.0 1.003393000e+00 -2.234100000e-02
1211500000.0 1.004240000e+00 -2.350000000e-03
1216000000.0 1.000557000e+00 1.125000000e-02
1220500000.0 1.008960000e+00 -7.023000000e-03
1225000000.0 9.986490000e-01 -1.156500000e-02
1229500000.0 1.007114000e+00 -1.807000000e-03
1234000000.0 1.002821000e+00 -1.888000000e-03
1238500000.0 1.001385000e+00 9.020000000e-04
1243000000.0 1.001481000e+00 7.100000000e-05
1247500000.0 1.003754000e+00 -1.646000000e-03
1252000000.0 1.002569000e+00 -7.181000000e-03
1256500000.0 1.006909000e+00 -4.615000000e-03
1261000000.0 1.003111000e+00 -8.992000000e-03
1265500000.0 1.007357000e+00 -3.740000000e-03
1270000000.0 1.005898000e+00 -3.630000000e-04
1274500000.0 1.005077000e+00 1.701000000e-03
1279000000.0 1.007810000e+00 1.606000000e-03
1283500000.0 1.001596000e+00 2.406000000e-03
1288000000.0 1.000348000e+00 -4.044000000e-03
1292500000.0 1.004197000e+00 9.150000000e-04
1297000000.0 1.004249000e+00 7.111000000e-03
1301500000.0 1.002056000e+00 1.266000000e-03
1306000000.0 1.004274000e+00 2.468000000e-03
1310500000.0 1.004236000e+00 -1.227000000e-03
1315000000.0 1.004247000e+00 -3.648000000e-03
1319500000.0 1.005507000e+00 1.356000000e-03
1324000000.0 1.002409000e+00 7.150000000e-04
1328500000.0 1.005206000e+00 -3.877000000e-03
1333000000.0 1.004287000e+00 6.389000000e-03
1337500000.0 1.007550000e+00 -3.868000000e-03
1342000000.0 1.000338000e+00 1.737000000e-03
1346500000.0 1.006147000e+00 -2.646000000e-03
1351000000.0 1.003618000e+00 7.242000000e-03
1355500000.0 1.001594000e+00 5.682000000e-03
1360000000.0 1.004690000e+00 1.141500000e-02
1364500000.0 1.006422000e+00 1.483900000e-02
1369000000.0 1.003091000e+00 1.120000000e-02
1373500000.0 9.990480000e-01 1.530300000e-02
1378000000.0 1.005883000e+00 7.609000000e-03
1382500000.0 1.007290000e+00 6.765000000e-03
1387000000.0 1.000661000e+00 1.252500000e-02
1391500000.0 1.000090000e+00 3.330000000e-03
1396000000.0 1.001303000e+00 1.045000000e-02
1400500000.0 1.008310000e+00 6.494000000e-03
1405000000.0 9.993640000e-01 1.927700000e-02
1409500000.0 1.000453000e+00 9.755000000e-03
1414000000.0 1.008383000e+00 1.593500000e-02
1418500000.0 1.006291000e+00 2.066000000e-02
1423000000.0 1.009575000e+00 -3.170000000e-04
1427500000.0 9.979070000e-01 2.213000000e-02
1432000000.0 1.003881000e+00 1.140400000e-02
1436500000.0 1.000322000e+00 1.407700000e-02
1441000000.0 1.001900000e+00 9.535000000e-03
1445500000.0 1.006195000e+00 8.572000000e-03
1450000000.0 1.003002000e+00 1.734900000e-02
