! piloto_saltos / abierto_51puntos / r12
# HZ S RI R 50
50000.0 1.005302000e+00 -6.951600000e-02
69000.0 1.003360000e+00 -4.020800000e-02
88000.0 1.000274000e+00 -1.680500000e-02
107000.0 1.000589000e+00 8.081000000e-03
126000.0 9.974020000e-01 3.442100000e-02
145000.0 1.000854000e+00 5.780300000e-02
164000.0 1.001430000e+00 8.190900000e-02
183000.0 1.002640000e+00 1.056850000e-01
202000.0 1.004131000e+00 1.286380000e-01
221000.0 1.004215000e+00 1.519560000e-01
240000.0 1.004746000e+00 1.756660000e-01
259000.0 1.005496000e+00 1.981170000e-01
278000.0 1.006031000e+00 2.197910000e-01
297000.0 1.006896000e+00 2.417520000e-01
316000.0 1.006490000e+00 2.642040000e-01
335000.0 1.007216000e+00 2.857810000e-01
354000.0 1.007280000e+00 3.066580000e-01
373000.0 1.008125000e+00 3.284260000e-01
392000.0 1.009022000e+00 3.498150000e-01
411000.0 1.009021000e+00 3.709320000e-01
430000.0 1.009625000e+00 3.918710000e-01
449000.0 1.010220000e+00 4.123290000e-01
468000.0 1.010713000e+00 4.326000000e-01
487000.0 1.022585000e+00 4.680780000e-01
506000.0 1.012665000e+00 4.731000000e-01
525000.0 1.013316000e+00 4.932620000e-01
544000.0 1.013880000e+00 5.124950000e-01
563000.0 1.015422000e+00 5.329650000e-01
582000.0 1.016969000e+00 5.517900000e-01
601000.0 1.017572000e+00 5.727200000e-01
620000.0 1.018042000e+00 5.912660000e-01
639000.0 1.019885000e+00 6.108880000e-01
658000.0 1.021419000e+00 6.302460000e-01
677000.0 1.022065000e+00 6.486060000e-01
696000.0 1.024196000e+00 6.683360000e-01
715000.0 1.027304000e+00 6.859640000e-01
734000.0 1.028119000e+00 7.058640000e-01
753000.0 1.029141000e+00 7.240580000e-01
772000.0 1.033393000e+00 7.434490000e-01
791000.0 1.036432000e+00 7.618250000e-01
810000.0 1.039094000e+00 7.807190000e-01
829000.0 1.042180000e+00 7.991180000e-01
848000.0 1.045657000e+00 8.166300000e-01
867000.0 1.050370000e+00 8.353590000e-01
886000.0 1.052887000e+00 8.553670000e-01
905000.0 1.057401000e+00 8.720270000e-01
924000.0 1.062038000e+00 8.887030000e-01
943000.0 1.066704000e+00 9.063320000e-01
962000.0 1.071749000e+00 9.243170000e-01
981000.0 1.076219000e+00 9.422490000e-01
1000000.0 1.081806000e+00 9.584610000e-01
1180000.0 1.149655000e+00 1.117105000e+00
1360000.0 1.260017000e+00 1.248402000e+00
1540000.0 1.410811000e+00 1.334816000e+00
1720000.0 1.592499000e+00 1.355595000e+00
1900000.0 1.767868000e+00 1.292598000e+00
2080000.0 1.897649000e+00 1.157846000e+00
2260000.0 1.961290000e+00 9.805440000e-01
2440000.0 1.960026000e+00 8.041320000e-01
2620000.0 1.911891000e+00 6.556250000e-01
2800000.0 1.839133000e+00 5.337550000e-01
2980000.0 1.760967000e+00 4.443240000e-01
3160000.0 1.688209000e+00 3.026040000e-01
3340000.0 1.616773000e+00 3.152090000e-01
3520000.0 1.558004000e+00 3.041530000e-01
3700000.0 1.498133000e+00 2.312800000e-01
3880000.0 1.452951000e+00 1.995120000e-01
4060000.0 1.412022000e+00 1.647220000e-01
4240000.0 1.379563000e+00 1.359660000e-01
4420000.0 1.350106000e+00 1.085530000e-01
4600000.0 1.325255000e+00 8.284500000e-02
4780000.0 1.306255000e+00 5.610900000e-02
4960000.0 1.290479000e+00 3.027400000e-02
5140000.0 1.271322000e+00 4.045000000e-03
5320000.0 1.261226000e+00 -1.933900000e-02
5500000.0 1.254672000e+00 -4.274600000e-02
5680000.0 1.247808000e+00 -6.314000000e-02
5860000.0 1.242049000e+00 -8.714600000e-02
6040000.0 1.235871000e+00 -1.069060000e-01
6220000.0 1.231567000e+00 -1.260250000e-01
6400000.0 1.227387000e+00 -1.434400000e-01
6580000.0 1.224591000e+00 -1.596230000e-01
6760000.0 1.221396000e+00 -1.708090000e-01
6940000.0 1.221041000e+00 -1.795960000e-01
7120000.0 1.219003000e+00 -1.893740000e-01
7300000.0 1.217372000e+00 -1.928870000e-01
7480000.0 1.219718000e+00 -1.929650000e-01
7660000.0 -2.419990000e-01 -1.259484000e+00
7840000.0 -2.397070000e-01 -1.259971000e+00
8020000.0 -2.384500000e-01 -1.260106000e+00
8200000.0 -2.368140000e-01 -1.261929000e+00
8380000.0 -2.350380000e-01 -1.263304000e+00
8560000.0 -2.330470000e-01 -1.263150000e+00
8740000.0 -2.347570000e-01 -1.264328000e+00
8920000.0 -2.310400000e-01 -1.266891000e+00
9100000.0 -2.301430000e-01 -1.267703000e+00
9280000.0 -2.301340000e-01 -1.270475000e+00
9460000.0 -2.278060000e-01 -1.270977000e+00
9640000.0 -2.267770000e-01 -1.272613000e+00
9820000.0 -2.253320000e-01 -1.273859000e+00
10000000.0 -2.246340000e-01 -1.276092000e+00
11800000.0 -2.130840000e-01 -1.293144000e+00
13600000.0 -2.002190000e-01 -1.315416000e+00
15400000.0 -1.885770000e-01 -1.336635000e+00
17200000.0 -1.752570000e-01 -1.359864000e+00
19000000.0 -1.599640000e-01 -1.384684000e+00
20800000.0 -1.449190000e-01 -1.410239000e+00
22600000.0 -1.277750000e-01 -1.436580000e+00
24400000.0 -1.082750000e-01 -1.462913000e+00
26200000.0 -8.653400000e-02 -1.490258000e+00
28000000.0 -6.170200000e-02 -1.519695000e+00
29800000.0 -3.890000000e-02 -1.547519000e+00
31600000.0 -1.192500000e-02 -1.575233000e+00
33400000.0 5.022600000e-02 -1.608431000e+00
35200000.0 2.159500000e-02 -1.631795000e+00
37000000.0 1.209030000e-01 -1.666393000e+00
38800000.0 1.261430000e-01 -1.693859000e+00
40600000.0 1.665940000e-01 -1.721829000e+00
42400000.0 2.112700000e-01 -1.750403000e+00
44200000.0 2.600320000e-01 -1.775837000e+00
46000000.0 3.127160000e-01 -1.800625000e+00
47800000.0 3.673440000e-01 -1.824126000e+00
49600000.0 4.277390000e-01 -1.842987000e+00
51400000.0 4.887300000e-01 -1.860591000e+00
53200000.0 5.551900000e-01 -1.872263000e+00
55000000.0 6.255970000e-01 -1.882211000e+00
56800000.0 6.990390000e-01 -1.884375000e+00
58600000.0 7.723130000e-01 -1.884279000e+00
60400000.0 8.505420000e-01 -1.876951000e+00
62200000.0 9.290990000e-01 -1.862742000e+00
64000000.0 1.004902000e+00 -1.840864000e+00
65800000.0 1.084544000e+00 -1.814155000e+00
67600000.0 1.161247000e+00 -1.777098000e+00
69400000.0 1.236179000e+00 -1.733131000e+00
71200000.0 1.304657000e+00 -1.684184000e+00
73000000.0 1.369383000e+00 -1.627981000e+00
74800000.0 1.428314000e+00 -1.566661000e+00
76600000.0 1.480477000e+00 -1.500759000e+00
78400000.0 1.527173000e+00 -1.430022000e+00
80200000.0 1.568382000e+00 -1.357856000e+00
82000000.0 1.600049000e+00 -1.286556000e+00
83800000.0 1.625608000e+00 -1.209892000e+00
85600000.0 1.643288000e+00 -1.135286000e+00
87400000.0 1.655407000e+00 -1.062431000e+00
89200000.0 1.663312000e+00 -9.903180000e-01
91000000.0 1.664641000e+00 -9.201990000e-01
92800000.0 1.660045000e+00 -8.538000000e-01
94600000.0 1.652728000e+00 -7.918630000e-01
96400000.0 1.641520000e+00 -7.306270000e-01
98200000.0 1.627788000e+00 -6.737710000e-01
100000000.0 1.610963000e+00 -6.210070000e-01
118000000.0 1.377179000e+00 -2.446010000e-01
136000000.0 1.147549000e+00 -6.942300000e-02
154000000.0 1.000524000e+00 8.570000000e-04
172000000.0 1.002960000e+00 -7.820000000e-04
190000000.0 1.004890000e+00 -1.337000000e-03
208000000.0 1.005918000e+00 -2.315000000e-03
226000000.0 1.006373000e+00 -5.370000000e-04
244000000.0 1.005702000e+00 9.190000000e-04
262000000.0 9.941280000e-01 -7.209900000e-02
280000000.0 1.003919000e+00 -1.927000000e-03
298000000.0 1.001995000e+00 -4.380000000e-04
316000000.0 1.001974000e+00 1.322000000e-03
334000000.0 1.006618000e+00 3.350000000e-04
352000000.0 1.006576000e+00 -2.160000000e-04
370000000.0 1.006256000e+00 9.000000000e-05
388000000.0 1.006208000e+00 -5.980000000e-04
406000000.0 1.003502000e+00 1.875000000e-03
424000000.0 1.003843000e+00 9.300000000e-04
442000000.0 1.000259000e+00 -6.570000000e-04
460000000.0 1.002005000e+00 2.429000000e-03
478000000.0 1.005356000e+00 4.098000000e-03
496000000.0 1.006306000e+00 5.186000000e-03
514000000.0 1.009617000e+00 8.185000000e-03
532000000.0 1.010792000e+00 6.995000000e-03
550000000.0 1.008844000e+00 7.045000000e-03
568000000.0 1.007331000e+00 4.756000000e-03
586000000.0 1.004829000e+00 6.701000000e-03
604000000.0 1.004045000e+00 6.138000000e-03
622000000.0 1.010766000e+00 6.450000000e-03
640000000.0 1.011924000e+00 8.819000000e-03
658000000.0 1.015135000e+00 9.819000000e-03
676000000.0 1.015788000e+00 9.065000000e-03
694000000.0 1.015166000e+00 6.869000000e-03
712000000.0 1.009194000e+00 3.438000000e-03
730000000.0 1.007646000e+00 8.075000000e-03
748000000.0 1.002514000e+00 1.871000000e-03
766000000.0 1.005566000e+00 1.417000000e-03
784000000.0 1.011400000e+00 -3.207000000e-03
802000000.0 1.015172000e+00 -4.351000000e-03
820000000.0 1.016773000e+00 -3.388000000e-03
838000000.0 1.015339000e+00 -5.564000000e-03
856000000.0 1.011703000e+00 -6.845000000e-03
874000000.0 1.010175000e+00 -5.442000000e-03
892000000.0 1.004193000e+00 -1.475000000e-03
910000000.0 9.997330000e-01 -3.770000000e-04
928000000.0 1.002696000e+00 -8.857000000e-03
946000000.0 1.002720000e+00 -8.717000000e-03
964000000.0 1.003944000e+00 -1.026300000e-02
982000000.0 1.003065000e+00 -1.134900000e-02
1000000000.0 1.003809000e+00 -8.191000000e-03
1009000000.0 1.004259000e+00 -2.730000000e-04
1018000000.0 1.001215000e+00 -5.613000000e-03
1027000000.0 1.001088000e+00 -5.507000000e-03
1036000000.0 1.000201000e+00 1.320000000e-04
1045000000.0 9.989660000e-01 -1.661000000e-03
1054000000.0 1.002591000e+00 -2.119000000e-03
1063000000.0 1.000689000e+00 -8.310000000e-04
1072000000.0 1.003534000e+00 -1.677000000e-03
1081000000.0 1.003656000e+00 -5.400000000e-05
1090000000.0 1.001222000e+00 -5.506000000e-03
1099000000.0 1.003802000e+00 -4.153000000e-03
1108000000.0 1.006442000e+00 -2.376000000e-03
1117000000.0 1.013516000e+00 5.113600000e-02
1126000000.0 1.001949000e+00 -7.635000000e-03
1135000000.0 1.003793000e+00 2.505000000e-03
1144000000.0 1.005861000e+00 -5.713000000e-03
1153000000.0 1.000612000e+00 -8.428000000e-03
1162000000.0 1.003448000e+00 1.286000000e-03
1171000000.0 1.006055000e+00 -9.249000000e-03
1180000000.0 1.004289000e+00 1.081000000e-03
1189000000.0 1.000559000e+00 1.096000000e-03
1198000000.0 1.001701000e+00 2.333000000e-03
1207000000.0 1.001639000e+00 -5.456000000e-03
1216000000.0 1.004075000e+00 -4.203000000e-03
1225000000.0 1.007788000e+00 -1.886000000e-03
1234000000.0 1.002433000e+00 -6.278000000e-03
1243000000.0 1.007713000e+00 -5.453000000e-03
1252000000.0 1.003663000e+00 -2.875000000e-03
1261000000.0 9.981860000e-01 -5.475000000e-03
1270000000.0 1.000942000e+00 7.610000000e-04
1279000000.0 1.006635000e+00 -1.480000000e-03
1288000000.0 1.003260000e+00 2.179000000e-03
1297000000.0 1.011118000e+00 7.077000000e-03
1306000000.0 1.006527000e+00 6.870000000e-04
1315000000.0 1.002041000e+00 6.998000000e-03
1324000000.0 1.000986000e+00 -4.838000000e-03
1333000000.0 1.003879000e+00 -2.197000000e-03
1342000000.0 1.006060000e+00 2.013000000e-03
1351000000.0 1.004626000e+00 4.812000000e-03
1360000000.0 1.002886000e+00 5.346000000e-03
1369000000.0 9.971410000e-01 1.091600000e-02
1378000000.0 1.000913000e+00 2.641000000e-03
1387000000.0 9.995780000e-01 1.088600000e-02
1396000000.0 1.000590000e+00 1.496600000e-02
1405000000.0 9.998250000e-01 1.932100000e-02
1414000000.0 9.978630000e-01 1.513800000e-02
1423000000.0 1.011368000e+00 1.900700000e-02
1432000000.0 1.004531000e+00 9.857000000e-03
1441000000.0 1.003756000e+00 1.454600000e-02
1450000000.0 1.002561000e+00 1.581600000e-02
