! piloto_saltos / abierto_101puntos / r12
# HZ S RI R 50
50000.0 1.006607000e+00 -6.969800000e-02
59500.0 1.003705000e+00 -5.611000000e-02
69000.0 1.003792000e+00 -4.165800000e-02
78500.0 1.001995000e+00 -2.909200000e-02
88000.0 1.001383000e+00 -1.528800000e-02
97500.0 1.000968000e+00 -3.604000000e-03
107000.0 9.994050000e-01 8.600000000e-03
116500.0 9.998540000e-01 2.106000000e-02
126000.0 9.995190000e-01 3.291000000e-02
135500.0 1.001045000e+00 4.575300000e-02
145000.0 1.001194000e+00 5.773000000e-02
154500.0 1.001758000e+00 7.035300000e-02
164000.0 1.003267000e+00 8.167700000e-02
173500.0 1.002784000e+00 9.427400000e-02
183000.0 1.002393000e+00 1.060570000e-01
192500.0 1.004063000e+00 1.175390000e-01
202000.0 1.003488000e+00 1.291420000e-01
211500.0 1.003827000e+00 1.408220000e-01
221000.0 1.003860000e+00 1.527970000e-01
230500.0 1.005003000e+00 1.638130000e-01
240000.0 1.012059000e+00 1.923820000e-01
249500.0 1.005445000e+00 1.869380000e-01
259000.0 1.005163000e+00 1.977560000e-01
268500.0 1.006154000e+00 2.093690000e-01
278000.0 1.006493000e+00 2.205970000e-01
287500.0 1.005484000e+00 2.311090000e-01
297000.0 1.006882000e+00 2.429060000e-01
306500.0 1.006718000e+00 2.535350000e-01
316000.0 1.007424000e+00 2.646460000e-01
325500.0 1.007847000e+00 2.758180000e-01
335000.0 1.007072000e+00 2.858300000e-01
344500.0 1.007805000e+00 2.964320000e-01
354000.0 1.008552000e+00 3.078710000e-01
363500.0 1.008256000e+00 3.180110000e-01
373000.0 1.007807000e+00 3.287330000e-01
382500.0 1.008444000e+00 3.390790000e-01
392000.0 1.009156000e+00 3.501570000e-01
401500.0 1.009572000e+00 3.603650000e-01
411000.0 1.008564000e+00 3.703830000e-01
420500.0 1.009840000e+00 3.812790000e-01
430000.0 1.009697000e+00 3.912650000e-01
439500.0 1.010529000e+00 4.021000000e-01
449000.0 1.010783000e+00 4.120740000e-01
458500.0 1.011140000e+00 4.221300000e-01
468000.0 1.011803000e+00 4.325470000e-01
477500.0 1.012011000e+00 4.429360000e-01
487000.0 1.011770000e+00 4.532550000e-01
496500.0 1.011939000e+00 4.624950000e-01
506000.0 1.012770000e+00 4.728020000e-01
515500.0 1.012269000e+00 4.829470000e-01
525000.0 1.013046000e+00 4.928440000e-01
534500.0 1.013322000e+00 5.027570000e-01
544000.0 1.014441000e+00 5.121800000e-01
553500.0 1.014606000e+00 5.230390000e-01
563000.0 1.015482000e+00 5.318420000e-01
572500.0 1.014941000e+00 5.425450000e-01
582000.0 1.015882000e+00 5.516440000e-01
591500.0 1.016404000e+00 5.621540000e-01
601000.0 1.017041000e+00 5.710700000e-01
610500.0 1.017076000e+00 5.813410000e-01
620000.0 1.017850000e+00 5.916490000e-01
629500.0 1.018978000e+00 6.011340000e-01
639000.0 1.020191000e+00 6.109500000e-01
648500.0 1.020082000e+00 6.201980000e-01
658000.0 1.021209000e+00 6.300710000e-01
667500.0 1.021013000e+00 6.392520000e-01
677000.0 1.023322000e+00 6.492790000e-01
686500.0 1.023239000e+00 6.592000000e-01
696000.0 1.024431000e+00 6.678400000e-01
705500.0 1.024937000e+00 6.769540000e-01
715000.0 1.026020000e+00 6.872000000e-01
724500.0 1.027224000e+00 6.971030000e-01
734000.0 1.028432000e+00 7.060970000e-01
743500.0 1.029734000e+00 7.153080000e-01
753000.0 1.030765000e+00 7.249260000e-01
762500.0 1.031760000e+00 7.335000000e-01
772000.0 1.033316000e+00 7.428720000e-01
781500.0 1.035258000e+00 7.522430000e-01
791000.0 1.034602000e+00 7.621960000e-01
800500.0 1.037147000e+00 7.708470000e-01
810000.0 1.038780000e+00 7.801190000e-01
819500.0 1.040848000e+00 7.885030000e-01
829000.0 1.041518000e+00 7.990170000e-01
838500.0 1.044058000e+00 8.074600000e-01
848000.0 1.043950000e+00 8.171880000e-01
857500.0 1.047430000e+00 8.259880000e-01
867000.0 1.050074000e+00 8.350570000e-01
876500.0 1.051153000e+00 8.444550000e-01
886000.0 1.053734000e+00 8.535540000e-01
895500.0 1.054524000e+00 8.619080000e-01
905000.0 1.056862000e+00 8.713790000e-01
914500.0 1.059421000e+00 8.804530000e-01
924000.0 1.060287000e+00 8.901860000e-01
933500.0 1.063978000e+00 8.982430000e-01
943000.0 1.066460000e+00 9.069870000e-01
952500.0 1.068522000e+00 9.151890000e-01
962000.0 1.071045000e+00 9.236990000e-01
971500.0 1.073241000e+00 9.332330000e-01
981000.0 1.075981000e+00 9.428800000e-01
990500.0 1.078178000e+00 9.505330000e-01
1000000.0 1.081021000e+00 9.599720000e-01
1090000.0 1.108705000e+00 1.039666000e+00
1180000.0 1.148690000e+00 1.117907000e+00
1270000.0 1.201049000e+00 1.186057000e+00
1360000.0 1.260569000e+00 1.248863000e+00
1450000.0 1.331401000e+00 1.294323000e+00
1540000.0 1.412668000e+00 1.334155000e+00
1630000.0 1.496471000e+00 1.355620000e+00
1720000.0 1.589593000e+00 1.354694000e+00
1810000.0 1.679860000e+00 1.333500000e+00
1900000.0 1.765070000e+00 1.295588000e+00
1990000.0 1.839519000e+00 1.231719000e+00
2080000.0 1.898876000e+00 1.155502000e+00
2170000.0 1.936530000e+00 1.071144000e+00
2260000.0 1.961803000e+00 9.829140000e-01
2350000.0 1.966534000e+00 8.922150000e-01
2440000.0 1.959497000e+00 8.063280000e-01
2530000.0 1.941688000e+00 7.253730000e-01
2620000.0 1.911072000e+00 6.556290000e-01
2710000.0 1.879408000e+00 5.912550000e-01
2800000.0 1.838364000e+00 5.370280000e-01
2890000.0 1.801542000e+00 4.876290000e-01
2980000.0 1.762414000e+00 4.417050000e-01
3070000.0 1.722399000e+00 4.045170000e-01
3160000.0 1.685723000e+00 3.732270000e-01
3250000.0 1.649794000e+00 3.417980000e-01
3340000.0 1.616858000e+00 3.161620000e-01
3430000.0 1.585108000e+00 2.909700000e-01
3520000.0 1.553128000e+00 2.700840000e-01
3610000.0 1.525348000e+00 2.513100000e-01
3700000.0 1.499878000e+00 2.317020000e-01
3790000.0 1.476455000e+00 2.134780000e-01
3880000.0 1.453632000e+00 1.974320000e-01
3970000.0 1.431892000e+00 1.810700000e-01
4060000.0 1.411461000e+00 1.669340000e-01
4150000.0 1.394675000e+00 1.517780000e-01
4240000.0 1.379589000e+00 1.375830000e-01
4330000.0 1.362541000e+00 1.234180000e-01
4420000.0 1.349081000e+00 1.081820000e-01
4510000.0 1.336063000e+00 9.541700000e-02
4600000.0 1.324489000e+00 8.230500000e-02
4690000.0 1.314945000e+00 6.875500000e-02
4780000.0 1.304948000e+00 5.601300000e-02
4870000.0 1.297565000e+00 4.285300000e-02
4960000.0 1.291238000e+00 3.116900000e-02
5050000.0 1.275383000e+00 1.705800000e-02
5140000.0 1.270890000e+00 5.341000000e-03
5230000.0 1.267377000e+00 -6.774000000e-03
5320000.0 1.262530000e+00 -1.920600000e-02
5410000.0 1.258394000e+00 -3.069800000e-02
5500000.0 1.255628000e+00 -4.316400000e-02
5590000.0 1.251121000e+00 -5.345500000e-02
5680000.0 1.246687000e+00 -6.482500000e-02
5770000.0 1.244163000e+00 -7.572900000e-02
5860000.0 1.241609000e+00 -8.756100000e-02
5950000.0 1.238599000e+00 -9.698300000e-02
6040000.0 1.236907000e+00 -1.071710000e-01
6130000.0 1.233567000e+00 -1.168070000e-01
6220000.0 1.231673000e+00 -1.264810000e-01
6310000.0 1.230423000e+00 -1.347140000e-01
6400000.0 1.227700000e+00 -1.435170000e-01
6490000.0 1.225737000e+00 -1.509770000e-01
6580000.0 1.225016000e+00 -1.582890000e-01
6670000.0 1.224498000e+00 -1.645820000e-01
6760000.0 1.221881000e+00 -1.726670000e-01
6850000.0 1.221956000e+00 -1.761790000e-01
6940000.0 1.219939000e+00 -1.819200000e-01
7030000.0 1.220239000e+00 -1.851690000e-01
7120000.0 1.218414000e+00 -1.901370000e-01
7210000.0 1.218744000e+00 -1.916070000e-01
7300000.0 1.219419000e+00 -1.918940000e-01
7390000.0 1.219911000e+00 -1.934130000e-01
7480000.0 1.220572000e+00 -1.931590000e-01
7570000.0 -2.424190000e-01 -1.258862000e+00
7660000.0 -2.413860000e-01 -1.257963000e+00
7750000.0 -2.412950000e-01 -1.259439000e+00
7840000.0 -2.389650000e-01 -1.260080000e+00
7930000.0 -2.405280000e-01 -1.260176000e+00
8020000.0 -2.388050000e-01 -1.260228000e+00
8110000.0 -2.385850000e-01 -1.259990000e+00
8200000.0 -2.376780000e-01 -1.261052000e+00
8290000.0 -2.368660000e-01 -1.262457000e+00
8380000.0 -2.359810000e-01 -1.262247000e+00
8470000.0 -2.352440000e-01 -1.263601000e+00
8560000.0 -2.338110000e-01 -1.263309000e+00
8650000.0 -2.343180000e-01 -1.263857000e+00
8740000.0 -2.326130000e-01 -1.264474000e+00
8830000.0 -2.319280000e-01 -1.265808000e+00
8920000.0 -2.321210000e-01 -1.265744000e+00
9010000.0 -2.318600000e-01 -1.266820000e+00
9100000.0 -2.303520000e-01 -1.268223000e+00
9190000.0 -2.310840000e-01 -1.268293000e+00
9280000.0 -2.292930000e-01 -1.269346000e+00
9370000.0 -2.289910000e-01 -1.270299000e+00
9460000.0 -2.275470000e-01 -1.269903000e+00
9550000.0 -2.275590000e-01 -1.272156000e+00
9640000.0 -2.274680000e-01 -1.271968000e+00
9730000.0 -2.261940000e-01 -1.273321000e+00
9820000.0 -2.251900000e-01 -1.273810000e+00
9910000.0 -2.258760000e-01 -1.274894000e+00
10000000.0 -2.249350000e-01 -1.274824000e+00
10900000.0 -2.177420000e-01 -1.285037000e+00
11800000.0 -2.119720000e-01 -1.294544000e+00
12700000.0 -2.067070000e-01 -1.304137000e+00
13600000.0 -2.010150000e-01 -1.314976000e+00
14500000.0 -1.940710000e-01 -1.324797000e+00
15400000.0 -1.886360000e-01 -1.337042000e+00
16300000.0 -1.833290000e-01 -1.348614000e+00
17200000.0 -1.756950000e-01 -1.360480000e+00
18100000.0 -1.692550000e-01 -1.371467000e+00
19000000.0 -1.604580000e-01 -1.384315000e+00
19900000.0 -1.520700000e-01 -1.397679000e+00
20800000.0 -1.444060000e-01 -1.410557000e+00
21700000.0 -1.362640000e-01 -1.423326000e+00
22600000.0 -1.286650000e-01 -1.436483000e+00
23500000.0 -1.176290000e-01 -1.450217000e+00
24400000.0 -1.073970000e-01 -1.461260000e+00
25300000.0 -9.790000000e-02 -1.476644000e+00
26200000.0 -8.597200000e-02 -1.491256000e+00
27100000.0 -7.649500000e-02 -1.504359000e+00
28000000.0 -6.523100000e-02 -1.518064000e+00
28900000.0 -5.178800000e-02 -1.532665000e+00
29800000.0 1.885700000e-02 -1.558760000e+00
30700000.0 -2.529300000e-02 -1.560957000e+00
31600000.0 -1.216400000e-02 -1.576945000e+00
32500000.0 4.532000000e-03 -1.592283000e+00
33400000.0 1.886900000e-02 -1.605224000e+00
34300000.0 3.476900000e-02 -1.620664000e+00
35200000.0 5.191500000e-02 -1.635829000e+00
36100000.0 6.964900000e-02 -1.650576000e+00
37000000.0 8.871900000e-02 -1.665640000e+00
37900000.0 1.064920000e-01 -1.679789000e+00
38800000.0 1.247900000e-01 -1.693692000e+00
39700000.0 1.465570000e-01 -1.707455000e+00
40600000.0 1.683750000e-01 -1.723168000e+00
41500000.0 1.894430000e-01 -1.736885000e+00
42400000.0 2.116800000e-01 -1.748470000e+00
43300000.0 2.362120000e-01 -1.763394000e+00
44200000.0 2.605140000e-01 -1.775900000e+00
45100000.0 2.865750000e-01 -1.788160000e+00
46000000.0 3.118960000e-01 -1.800378000e+00
46900000.0 3.393770000e-01 -1.812518000e+00
47800000.0 3.656540000e-01 -1.823569000e+00
48700000.0 3.982330000e-01 -1.834353000e+00
49600000.0 4.261890000e-01 -1.841731000e+00
50500000.0 4.557690000e-01 -1.849916000e+00
51400000.0 4.896320000e-01 -1.859208000e+00
52300000.0 5.206490000e-01 -1.867353000e+00
53200000.0 5.557140000e-01 -1.871094000e+00
54100000.0 5.905520000e-01 -1.877222000e+00
55000000.0 6.249740000e-01 -1.883587000e+00
55900000.0 6.611980000e-01 -1.883219000e+00
56800000.0 6.985240000e-01 -1.886307000e+00
57700000.0 7.335530000e-01 -1.885647000e+00
58600000.0 7.718900000e-01 -1.883455000e+00
59500000.0 8.101200000e-01 -1.881211000e+00
60400000.0 8.500290000e-01 -1.875056000e+00
61300000.0 8.897380000e-01 -1.872281000e+00
62200000.0 9.276070000e-01 -1.862626000e+00
63100000.0 9.658750000e-01 -1.854061000e+00
64000000.0 1.004456000e+00 -1.841627000e+00
64900000.0 1.043432000e+00 -1.828208000e+00
65800000.0 1.083710000e+00 -1.812263000e+00
66700000.0 1.121515000e+00 -1.795921000e+00
67600000.0 1.159153000e+00 -1.775736000e+00
68500000.0 1.196316000e+00 -1.755706000e+00
69400000.0 1.233748000e+00 -1.731828000e+00
70300000.0 1.267548000e+00 -1.708978000e+00
71200000.0 1.301334000e+00 -1.685433000e+00
72100000.0 1.335875000e+00 -1.655701000e+00
73000000.0 1.367178000e+00 -1.628480000e+00
73900000.0 1.400028000e+00 -1.598499000e+00
74800000.0 1.427468000e+00 -1.566416000e+00
75700000.0 1.455426000e+00 -1.534249000e+00
76600000.0 1.479925000e+00 -1.500464000e+00
77500000.0 1.504394000e+00 -1.466210000e+00
78400000.0 1.526110000e+00 -1.429741000e+00
79300000.0 1.548308000e+00 -1.395358000e+00
80200000.0 1.567005000e+00 -1.360771000e+00
81100000.0 1.584024000e+00 -1.321222000e+00
82000000.0 1.599742000e+00 -1.284134000e+00
82900000.0 1.613830000e+00 -1.248754000e+00
83800000.0 1.626504000e+00 -1.208724000e+00
84700000.0 1.635936000e+00 -1.173465000e+00
85600000.0 1.642733000e+00 -1.136566000e+00
86500000.0 1.651631000e+00 -1.100820000e+00
87400000.0 1.655402000e+00 -1.061393000e+00
88300000.0 1.660305000e+00 -1.026328000e+00
89200000.0 1.661097000e+00 -9.915450000e-01
90100000.0 1.664233000e+00 -9.566390000e-01
91000000.0 1.663807000e+00 -9.206570000e-01
91900000.0 1.664432000e+00 -8.871120000e-01
92800000.0 1.660720000e+00 -8.555680000e-01
93700000.0 1.658353000e+00 -8.233960000e-01
94600000.0 1.652679000e+00 -7.920380000e-01
95500000.0 1.647011000e+00 -7.591960000e-01
96400000.0 1.641484000e+00 -7.312930000e-01
97300000.0 1.634282000e+00 -7.014960000e-01
98200000.0 1.626552000e+00 -6.744050000e-01
99100000.0 1.618624000e+00 -6.458550000e-01
100000000.0 1.609880000e+00 -6.198480000e-01
109000000.0 1.501547000e+00 -3.982780000e-01
118000000.0 1.376912000e+00 -2.431700000e-01
127000000.0 1.257188000e+00 -1.382080000e-01
136000000.0 1.147369000e+00 -6.821900000e-02
145000000.0 1.050103000e+00 -1.919600000e-02
154000000.0 1.000969000e+00 6.780000000e-04
163000000.0 1.001693000e+00 5.450000000e-04
172000000.0 1.002389000e+00 -9.910000000e-04
181000000.0 1.004031000e+00 -9.440000000e-04
190000000.0 1.004610000e+00 -4.830000000e-04
199000000.0 1.005278000e+00 -1.375000000e-03
208000000.0 1.005142000e+00 -1.978000000e-03
217000000.0 1.005773000e+00 -1.288000000e-03
226000000.0 1.006352000e+00 -6.320000000e-04
235000000.0 1.005907000e+00 -1.099000000e-03
244000000.0 1.005774000e+00 -1.305000000e-03
253000000.0 1.005622000e+00 -9.110000000e-04
262000000.0 1.005187000e+00 -6.040000000e-04
271000000.0 1.004462000e+00 -4.160000000e-04
280000000.0 1.003671000e+00 -6.810000000e-04
289000000.0 1.002764000e+00 -1.190000000e-03
298000000.0 1.002152000e+00 -7.830000000e-04
307000000.0 1.002364000e+00 4.250000000e-04
316000000.0 1.004330000e+00 5.160000000e-04
325000000.0 1.003569000e+00 -1.055000000e-03
334000000.0 1.003270000e+00 -4.090000000e-04
343000000.0 1.005515000e+00 1.100000000e-05
352000000.0 1.005528000e+00 1.062000000e-03
361000000.0 9.984110000e-01 -3.335700000e-02
370000000.0 1.006096000e+00 1.341000000e-03
379000000.0 1.006377000e+00 1.376000000e-03
388000000.0 9.967470000e-01 -3.399200000e-02
397000000.0 1.005018000e+00 7.100000000e-04
406000000.0 1.005382000e+00 1.102000000e-03
415000000.0 1.011584000e+00 3.829800000e-02
424000000.0 1.003699000e+00 1.730000000e-04
433000000.0 1.001243000e+00 1.521000000e-03
442000000.0 9.996830000e-01 2.285000000e-03
451000000.0 9.990570000e-01 7.540000000e-04
460000000.0 1.000895000e+00 3.108000000e-03
469000000.0 1.003158000e+00 3.533000000e-03
478000000.0 1.004507000e+00 4.061000000e-03
487000000.0 1.006599000e+00 4.068000000e-03
496000000.0 1.005800000e+00 2.939000000e-03
505000000.0 1.006772000e+00 7.589000000e-03
514000000.0 1.007716000e+00 7.768000000e-03
523000000.0 1.007778000e+00 6.644000000e-03
532000000.0 1.009432000e+00 9.173000000e-03
541000000.0 1.008523000e+00 6.387000000e-03
550000000.0 1.009075000e+00 9.140000000e-03
559000000.0 1.010355000e+00 8.386000000e-03
568000000.0 1.007446000e+00 9.988000000e-03
577000000.0 1.006755000e+00 5.489000000e-03
586000000.0 1.005412000e+00 7.730000000e-03
595000000.0 1.002954000e+00 8.281000000e-03
604000000.0 1.003324000e+00 5.921000000e-03
613000000.0 1.007815000e+00 9.507000000e-03
622000000.0 1.010270000e+00 3.994000000e-03
631000000.0 1.012224000e+00 8.535000000e-03
640000000.0 1.012579000e+00 7.587000000e-03
649000000.0 1.013146000e+00 5.510000000e-03
658000000.0 1.014843000e+00 9.351000000e-03
667000000.0 1.020025000e+00 9.400000000e-03
676000000.0 1.016360000e+00 7.554000000e-03
685000000.0 1.017488000e+00 7.271000000e-03
694000000.0 1.015530000e+00 6.068000000e-03
703000000.0 1.010404000e+00 8.747000000e-03
712000000.0 1.013205000e+00 -3.702000000e-03
721000000.0 1.009288000e+00 7.054000000e-03
730000000.0 1.008748000e+00 7.282000000e-03
739000000.0 1.006598000e+00 6.283000000e-03
748000000.0 1.001001000e+00 -1.351000000e-03
757000000.0 1.001336000e+00 -3.880000000e-03
766000000.0 1.007746000e+00 -4.110000000e-03
775000000.0 1.012195000e+00 -3.801000000e-03
784000000.0 1.011819000e+00 -4.125000000e-03
793000000.0 1.015988000e+00 -6.994000000e-03
802000000.0 1.015623000e+00 -8.367000000e-03
811000000.0 1.015564000e+00 -6.911000000e-03
820000000.0 1.018865000e+00 -8.134000000e-03
829000000.0 1.015518000e+00 -7.484000000e-03
838000000.0 1.018165000e+00 -8.425000000e-03
847000000.0 1.014724000e+00 -1.363000000e-03
856000000.0 1.014286000e+00 -5.413000000e-03
865000000.0 1.009913000e+00 -2.878000000e-03
874000000.0 1.009603000e+00 -5.024000000e-03
883000000.0 1.009022000e+00 5.600000000e-04
892000000.0 1.005896000e+00 8.340000000e-04
901000000.0 1.000728000e+00 7.484000000e-03
910000000.0 1.000602000e+00 -9.810000000e-04
919000000.0 1.003396000e+00 -6.934000000e-03
928000000.0 1.003137000e+00 -3.226000000e-03
937000000.0 1.006847000e+00 -7.599000000e-03
946000000.0 1.004332000e+00 -8.636000000e-03
955000000.0 1.004374000e+00 -1.016500000e-02
964000000.0 1.005774000e+00 -1.169300000e-02
973000000.0 1.006599000e+00 -4.267000000e-03
982000000.0 1.006139000e+00 -7.037000000e-03
991000000.0 1.003778000e+00 -9.880000000e-03
1000000000.0 1.002290000e+00 -7.807000000e-03
1004500000.0 1.005543000e+00 -9.405000000e-03
1009000000.0 1.005455000e+00 -1.138300000e-02
1013500000.0 1.005782000e+00 -1.113700000e-02
1018000000.0 1.002823000e+00 -4.884000000e-03
1022500000.0 1.003560000e+00 -6.602000000e-03
1027000000.0 1.002433000e+00 -3.205000000e-03
1031500000.0 1.003313000e+00 -6.451000000e-03
1036000000.0 1.002190000e+00 -1.617000000e-03
1040500000.0 1.000488000e+00 5.051000000e-03
1045000000.0 1.002916000e+00 -5.140000000e-03
1049500000.0 9.981210000e-01 3.854000000e-03
1054000000.0 9.988780000e-01 2.442000000e-03
1058500000.0 9.978150000e-01 -1.811000000e-03
1063000000.0 9.982640000e-01 -4.176000000e-03
1067500000.0 9.972440000e-01 -2.371000000e-03
1072000000.0 9.985290000e-01 -2.118000000e-03
1076500000.0 9.972630000e-01 -1.530000000e-03
1081000000.0 1.004631000e+00 3.160000000e-03
1085500000.0 1.004971000e+00 3.413000000e-03
1090000000.0 9.997940000e-01 -1.101000000e-03
1094500000.0 1.005647000e+00 -5.555000000e-03
1099000000.0 1.003265000e+00 -5.464000000e-03
1103500000.0 1.006353000e+00 -5.729000000e-03
1108000000.0 1.002851000e+00 -8.007000000e-03
1112500000.0 1.001896000e+00 -5.345000000e-03
1117000000.0 1.002395000e+00 -7.601000000e-03
1121500000.0 1.005618000e+00 4.480000000e-04
1126000000.0 1.005613000e+00 -5.760000000e-04
1130500000.0 1.006437000e+00 2.198800000e-02
1135000000.0 1.005593000e+00 1.844900000e-02
1139500000.0 1.003548000e+00 -2.635400000e-02
1144000000.0 1.003884000e+00 -2.298600000e-02
1148500000.0 1.010154000e+00 3.301800000e-02
1153000000.0 1.003363000e+00 -1.320600000e-02
1157500000.0 1.008207000e+00 1.837800000e-02
1162000000.0 1.006844000e+00 -1.345000000e-03
1166500000.0 1.007611000e+00 -1.216700000e-02
1171000000.0 1.004926000e+00 2.966000000e-03
1175500000.0 1.001560000e+00 -4.587000000e-03
1180000000.0 1.002426000e+00 -9.778000000e-03
1184500000.0 1.002018000e+00 -5.310000000e-04
1189000000.0 9.989270000e-01 -4.037000000e-03
1193500000.0 1.000718000e+00 -1.844000000e-03
1198000000.0 1.003670000e+00 -1.330000000e-03
1202500000.0 1.008577000e+00 2.430000000e-03
1207000000.0 1.001196000e+00 -2.995000000e-03
1211500000.0 1.002183000e+00 5.330000000e-04
1216000000.0 1.002762000e+00 -1.697000000e-03
1220500000.0 1.003323000e+00 -1.377600000e-02
1225000000.0 1.010611000e+00 -2.183000000e-03
1229500000.0 1.002345000e+00 -6.393000000e-03
1234000000.0 1.007099000e+00 1.420000000e-03
1238500000.0 1.003366000e+00 -2.419000000e-03
1243000000.0 1.005422000e+00 -1.260100000e-02
1247500000.0 1.006347000e+00 -3.574000000e-03
1252000000.0 1.001045000e+00 1.157000000e-03
1256500000.0 1.003359000e+00 3.414000000e-03
1261000000.0 1.006678000e+00 1.000000000e-02
1265500000.0 1.004726000e+00 -3.654000000e-03
1270000000.0 1.004165000e+00 -1.409000000e-03
1274500000.0 1.001241000e+00 6.342000000e-03
1279000000.0 1.001860000e+00 -4.081000000e-03
1283500000.0 1.001568000e+00 -5.049000000e-03
1288000000.0 1.007923000e+00 -5.371000000e-03
1292500000.0 9.995050000e-01 -9.203000000e-03
1297000000.0 9.980160000e-01 -9.354000000e-03
1301500000.0 1.007230000e+00 -2.380000000e-04
1306000000.0 1.004937000e+00 -1.891600000e-02
1310500000.0 9.976530000e-01 6.250000000e-04
1315000000.0 1.001463000e+00 2.016300000e-02
1319500000.0 1.010876000e+00 4.783000000e-03
1324000000.0 1.002352000e+00 -1.503300000e-02
1328500000.0 1.001209000e+00 -6.304000000e-03
1333000000.0 1.005340000e+00 2.654200000e-02
1337500000.0 9.981740000e-01 5.981000000e-03
1342000000.0 9.964300000e-01 -2.177900000e-02
1346500000.0 1.007023000e+00 2.067000000e-03
1351000000.0 1.002800000e+00 2.856500000e-02
1355500000.0 1.002371000e+00 1.259000000e-03
1360000000.0 9.994300000e-01 1.196700000e-02
1364500000.0 1.005170000e+00 4.547000000e-03
1369000000.0 9.964240000e-01 1.126000000e-02
1373500000.0 9.984310000e-01 1.361900000e-02
1378000000.0 1.005038000e+00 6.682000000e-03
1382500000.0 1.005058000e+00 7.776000000e-03
1387000000.0 1.004576000e+00 6.915000000e-03
1391500000.0 1.006778000e+00 1.522500000e-02
1396000000.0 1.003341000e+00 1.342300000e-02
1400500000.0 1.005683000e+00 1.575500000e-02
1405000000.0 1.002600000e+00 9.907000000e-03
1409500000.0 1.005648000e+00 1.161100000e-02
1414000000.0 1.002625000e+00 1.358900000e-02
1418500000.0 1.007741000e+00 1.003300000e-02
1423000000.0 9.989290000e-01 1.298700000e-02
1427500000.0 1.004663000e+00 1.665000000e-02
1432000000.0 1.003325000e+00 1.544300000e-02
1436500000.0 1.002990000e+00 1.041100000e-02
1441000000.0 1.000027000e+00 7.841000000e-03
1445500000.0 1.006811000e+00 1.170800000e-02
1450000000.0 1.004255000e+00 3.563000000e-03
