! piloto_saltos / abierto_tramosB / r09
# HZ S RI R 50
50000.0 1.006229000e+00 -6.986900000e-02
52500.0 1.006325000e+00 -6.574100000e-02
55000.0 1.006772000e+00 -6.194800000e-02
57500.0 1.004764000e+00 -5.907700000e-02
60000.0 1.008527000e+00 -5.341300000e-02
62500.0 1.004743000e+00 -5.108500000e-02
65000.0 1.005829000e+00 -4.768400000e-02
67500.0 1.004669000e+00 -4.406500000e-02
70000.0 1.003806000e+00 -4.043200000e-02
72500.0 1.002889000e+00 -3.753900000e-02
75000.0 1.002499000e+00 -3.326000000e-02
77500.0 1.003331000e+00 -2.974000000e-02
80000.0 1.002486000e+00 -2.649500000e-02
82500.0 1.002509000e+00 -2.250000000e-02
85000.0 1.002422000e+00 -1.981900000e-02
87500.0 1.001679000e+00 -1.608300000e-02
90000.0 1.001738000e+00 -1.341400000e-02
92500.0 1.001183000e+00 -9.481000000e-03
95000.0 1.000635000e+00 -7.011000000e-03
97500.0 1.001498000e+00 -3.949000000e-03
100000.0 1.000613000e+00 -1.830000000e-04
102500.0 1.000799000e+00 3.433000000e-03
105000.0 1.000659000e+00 6.849000000e-03
107500.0 1.001514000e+00 1.059700000e-02
110000.0 1.001215000e+00 1.294500000e-02
112500.0 1.000698000e+00 1.646200000e-02
115000.0 1.000216000e+00 1.989200000e-02
117500.0 1.001422000e+00 2.360900000e-02
120000.0 1.001296000e+00 2.609200000e-02
122500.0 1.000759000e+00 2.963400000e-02
125000.0 1.000858000e+00 3.241800000e-02
127500.0 1.001830000e+00 3.564400000e-02
130000.0 1.001193000e+00 3.833000000e-02
132500.0 1.001120000e+00 4.210700000e-02
135000.0 1.001323000e+00 4.584100000e-02
137500.0 9.984100000e-01 4.601200000e-02
140000.0 1.000388000e+00 5.192200000e-02
142500.0 1.001843000e+00 5.495800000e-02
145000.0 1.001503000e+00 5.865000000e-02
147500.0 1.002900000e+00 6.108400000e-02
150000.0 1.000897000e+00 6.617800000e-02
152500.0 1.001562000e+00 6.825700000e-02
155000.0 1.002107000e+00 7.095000000e-02
157500.0 1.002856000e+00 7.458700000e-02
160000.0 1.001661000e+00 7.658600000e-02
162500.0 1.001772000e+00 8.053600000e-02
165000.0 1.002342000e+00 8.303000000e-02
167500.0 1.002308000e+00 8.671100000e-02
170000.0 1.002396000e+00 9.018100000e-02
172500.0 1.002316000e+00 9.352300000e-02
175000.0 1.002980000e+00 9.702600000e-02
177500.0 1.003039000e+00 9.964400000e-02
180000.0 1.003700000e+00 1.027270000e-01
182500.0 1.003349000e+00 1.052810000e-01
185000.0 1.003942000e+00 1.092170000e-01
187500.0 1.002710000e+00 1.108050000e-01
190000.0 1.003263000e+00 1.143820000e-01
192500.0 1.003668000e+00 1.189050000e-01
195000.0 1.003781000e+00 1.205970000e-01
197500.0 1.003253000e+00 1.238020000e-01
200000.0 1.003931000e+00 1.265190000e-01
202500.0 1.003994000e+00 1.302560000e-01
205000.0 1.003901000e+00 1.331730000e-01
207500.0 1.004149000e+00 1.363890000e-01
210000.0 1.003591000e+00 1.393660000e-01
212500.0 1.004012000e+00 1.427660000e-01
215000.0 1.004115000e+00 1.458790000e-01
217500.0 1.004079000e+00 1.485620000e-01
220000.0 1.004711000e+00 1.515370000e-01
222500.0 1.004753000e+00 1.543090000e-01
225000.0 1.004488000e+00 1.581890000e-01
227500.0 1.004561000e+00 1.607560000e-01
230000.0 1.004552000e+00 1.638040000e-01
232500.0 1.005842000e+00 1.665560000e-01
235000.0 1.004964000e+00 1.701930000e-01
237500.0 1.004633000e+00 1.725690000e-01
240000.0 1.004488000e+00 1.763060000e-01
242500.0 1.004744000e+00 1.783830000e-01
245000.0 1.005215000e+00 1.819410000e-01
247500.0 1.005586000e+00 1.839910000e-01
250000.0 1.005451000e+00 1.878300000e-01
252500.0 1.004822000e+00 1.905910000e-01
255000.0 1.006271000e+00 1.954310000e-01
257500.0 1.004577000e+00 1.964300000e-01
260000.0 1.005499000e+00 1.998650000e-01
262500.0 1.006135000e+00 2.026640000e-01
265000.0 1.006670000e+00 2.053250000e-01
267500.0 1.005197000e+00 2.091100000e-01
270000.0 1.004895000e+00 2.111410000e-01
272500.0 1.005827000e+00 2.135410000e-01
275000.0 1.006263000e+00 2.171460000e-01
277500.0 1.005790000e+00 2.202310000e-01
280000.0 1.007299000e+00 2.228080000e-01
282500.0 1.006131000e+00 2.261840000e-01
285000.0 1.006486000e+00 2.287190000e-01
287500.0 1.005897000e+00 2.319170000e-01
290000.0 1.006926000e+00 2.347000000e-01
292500.0 1.005607000e+00 2.375710000e-01
295000.0 1.007110000e+00 2.403060000e-01
297500.0 1.007730000e+00 2.427970000e-01
300000.0 1.006785000e+00 2.458930000e-01
327000.0 1.001890000e+00 2.941650000e-01
354000.0 1.010137000e+00 2.885310000e-01
381000.0 1.002791000e+00 3.553130000e-01
408000.0 1.013971000e+00 3.481630000e-01
435000.0 1.009664000e+00 3.965060000e-01
462000.0 1.010652000e+00 4.261220000e-01
489000.0 1.012044000e+00 4.548010000e-01
516000.0 1.012721000e+00 4.831660000e-01
543000.0 1.013677000e+00 5.124150000e-01
570000.0 1.015230000e+00 5.403250000e-01
597000.0 1.016785000e+00 5.680630000e-01
624000.0 1.018423000e+00 5.948100000e-01
651000.0 1.019948000e+00 6.231790000e-01
678000.0 1.023958000e+00 6.508360000e-01
705000.0 1.025770000e+00 6.770580000e-01
732000.0 1.027386000e+00 7.035760000e-01
759000.0 1.031427000e+00 7.302950000e-01
786000.0 1.035394000e+00 7.572010000e-01
813000.0 1.038672000e+00 7.843870000e-01
840000.0 1.045670000e+00 8.103700000e-01
867000.0 1.049600000e+00 8.367520000e-01
894000.0 1.054449000e+00 8.623940000e-01
921000.0 1.060951000e+00 8.882940000e-01
948000.0 1.067665000e+00 9.117900000e-01
975000.0 1.075602000e+00 9.392550000e-01
1002000.0 1.082344000e+00 9.631530000e-01
1029000.0 1.092625000e+00 9.875660000e-01
1056000.0 1.101573000e+00 1.011099000e+00
1083000.0 1.111505000e+00 1.035571000e+00
1110000.0 1.122938000e+00 1.058907000e+00
1137000.0 1.132975000e+00 1.082796000e+00
1164000.0 1.145917000e+00 1.104573000e+00
1191000.0 1.159372000e+00 1.125763000e+00
1218000.0 1.173892000e+00 1.147502000e+00
1245000.0 1.190312000e+00 1.167326000e+00
1272000.0 1.207474000e+00 1.188040000e+00
1299000.0 1.222797000e+00 1.206585000e+00
1326000.0 1.240547000e+00 1.226934000e+00
1353000.0 1.260020000e+00 1.244563000e+00
1380000.0 1.280120000e+00 1.259583000e+00
1407000.0 1.301226000e+00 1.276624000e+00
1434000.0 1.321180000e+00 1.292122000e+00
1461000.0 1.343430000e+00 1.302944000e+00
1488000.0 1.367408000e+00 1.314461000e+00
1515000.0 1.396124000e+00 1.327420000e+00
1542000.0 1.418531000e+00 1.334603000e+00
1569000.0 1.444744000e+00 1.343998000e+00
1596000.0 1.470358000e+00 1.348491000e+00
1623000.0 1.497223000e+00 1.351936000e+00
1650000.0 1.521335000e+00 1.354794000e+00
1677000.0 1.552085000e+00 1.357056000e+00
1704000.0 1.581636000e+00 1.354364000e+00
1731000.0 1.603969000e+00 1.350623000e+00
1758000.0 1.633473000e+00 1.345990000e+00
1785000.0 1.661307000e+00 1.341415000e+00
1812000.0 1.689612000e+00 1.333537000e+00
1839000.0 1.713031000e+00 1.318902000e+00
1866000.0 1.737870000e+00 1.309534000e+00
1893000.0 1.761313000e+00 1.293883000e+00
1920000.0 1.788836000e+00 1.277090000e+00
1947000.0 1.810828000e+00 1.258678000e+00
1974000.0 1.829981000e+00 1.241648000e+00
2001000.0 1.848428000e+00 1.220528000e+00
2028000.0 1.866951000e+00 1.198610000e+00
2055000.0 1.888233000e+00 1.172771000e+00
2082000.0 1.900274000e+00 1.151500000e+00
2109000.0 1.916276000e+00 1.126942000e+00
2136000.0 1.927359000e+00 1.102883000e+00
2163000.0 1.934647000e+00 1.075392000e+00
2190000.0 1.947191000e+00 1.046817000e+00
2217000.0 1.955621000e+00 1.022458000e+00
2244000.0 1.960283000e+00 9.936350000e-01
2271000.0 1.960948000e+00 9.662800000e-01
2298000.0 1.964986000e+00 9.404170000e-01
2325000.0 1.966931000e+00 9.118250000e-01
2352000.0 1.966241000e+00 8.866580000e-01
2379000.0 1.967379000e+00 8.606970000e-01
2406000.0 1.962135000e+00 8.325550000e-01
2433000.0 1.958405000e+00 8.115970000e-01
2460000.0 1.953859000e+00 7.864090000e-01
2487000.0 1.947142000e+00 7.617840000e-01
2514000.0 1.942938000e+00 7.384270000e-01
2541000.0 1.936139000e+00 7.141050000e-01
2568000.0 1.926185000e+00 6.920530000e-01
2595000.0 1.915920000e+00 6.714220000e-01
2622000.0 1.907901000e+00 6.527520000e-01
2649000.0 1.898570000e+00 6.324110000e-01
2676000.0 1.888646000e+00 6.112900000e-01
2703000.0 1.876379000e+00 5.952800000e-01
2730000.0 1.867178000e+00 5.770120000e-01
2757000.0 1.856231000e+00 5.610200000e-01
2784000.0 1.845034000e+00 5.440910000e-01
2811000.0 1.832456000e+00 5.300690000e-01
2838000.0 1.821237000e+00 5.144940000e-01
2865000.0 1.809878000e+00 4.980060000e-01
2892000.0 1.798331000e+00 4.844760000e-01
2919000.0 1.786286000e+00 4.731740000e-01
2946000.0 1.776185000e+00 4.584180000e-01
2973000.0 1.765220000e+00 4.470080000e-01
3000000.0 1.752287000e+00 4.356660000e-01
3270000.0 1.641158000e+00 3.342520000e-01
3540000.0 1.545134000e+00 2.654690000e-01
3810000.0 1.467799000e+00 2.095520000e-01
4080000.0 1.408878000e+00 1.604930000e-01
4350000.0 1.359310000e+00 1.193540000e-01
4620000.0 1.323035000e+00 7.914700000e-02
4890000.0 1.294364000e+00 4.027400000e-02
5160000.0 1.270107000e+00 3.254000000e-03
5430000.0 1.257994000e+00 -3.404700000e-02
5700000.0 1.246121000e+00 -6.775200000e-02
5970000.0 1.238978000e+00 -9.871100000e-02
6240000.0 1.231153000e+00 -1.282560000e-01
6510000.0 1.224876000e+00 -1.524930000e-01
6780000.0 1.222834000e+00 -1.723560000e-01
7050000.0 1.219868000e+00 -1.855960000e-01
7320000.0 1.219000000e+00 -1.921990000e-01
7590000.0 -2.426520000e-01 -1.258482000e+00
7860000.0 -2.409400000e-01 -1.259533000e+00
8130000.0 -2.382630000e-01 -1.260376000e+00
8400000.0 -2.359400000e-01 -1.262792000e+00
8670000.0 -2.350210000e-01 -1.264560000e+00
8940000.0 -2.313430000e-01 -1.265700000e+00
9210000.0 -2.305110000e-01 -1.267992000e+00
9480000.0 -2.267780000e-01 -1.271066000e+00
9750000.0 -2.264100000e-01 -1.273397000e+00
10020000.0 -2.233770000e-01 -1.275806000e+00
10290000.0 -2.219320000e-01 -1.277402000e+00
10560000.0 -2.201980000e-01 -1.280706000e+00
10830000.0 -2.182920000e-01 -1.283904000e+00
11100000.0 -2.165930000e-01 -1.287057000e+00
11370000.0 -2.147060000e-01 -1.288604000e+00
11640000.0 -2.133850000e-01 -1.292546000e+00
11910000.0 -2.109060000e-01 -1.296179000e+00
12180000.0 -2.111120000e-01 -1.298113000e+00
12450000.0 -2.083330000e-01 -1.301299000e+00
12720000.0 -2.075120000e-01 -1.304556000e+00
12990000.0 -2.064320000e-01 -1.307468000e+00
13260000.0 -2.025770000e-01 -1.311814000e+00
13530000.0 -2.011790000e-01 -1.313712000e+00
13800000.0 -1.992760000e-01 -1.317600000e+00
14070000.0 -1.986350000e-01 -1.319810000e+00
14340000.0 -1.953480000e-01 -1.324710000e+00
14610000.0 -1.941410000e-01 -1.327738000e+00
14880000.0 -1.913080000e-01 -1.330612000e+00
15150000.0 -1.898830000e-01 -1.333361000e+00
15420000.0 -1.892050000e-01 -1.337704000e+00
15690000.0 -1.864990000e-01 -1.340418000e+00
15960000.0 -1.853830000e-01 -1.345014000e+00
16230000.0 -1.824200000e-01 -1.347667000e+00
16500000.0 -1.808160000e-01 -1.351537000e+00
16770000.0 -1.791530000e-01 -1.353914000e+00
17040000.0 -1.763160000e-01 -1.359146000e+00
17310000.0 -1.747520000e-01 -1.362237000e+00
17580000.0 -1.730030000e-01 -1.366002000e+00
17850000.0 -1.698150000e-01 -1.369413000e+00
18120000.0 -1.680170000e-01 -1.372140000e+00
18390000.0 -1.665010000e-01 -1.375818000e+00
18660000.0 -1.644740000e-01 -1.380429000e+00
18930000.0 -1.615030000e-01 -1.384467000e+00
19200000.0 -1.593680000e-01 -1.386759000e+00
19470000.0 -1.565720000e-01 -1.392031000e+00
19740000.0 -1.550840000e-01 -1.395866000e+00
20010000.0 -1.521060000e-01 -1.398887000e+00
20280000.0 -1.498060000e-01 -1.402678000e+00
20550000.0 -1.463600000e-01 -1.406606000e+00
20820000.0 -1.445920000e-01 -1.409290000e+00
21090000.0 -1.426980000e-01 -1.414016000e+00
21360000.0 -1.400710000e-01 -1.418371000e+00
21630000.0 -1.373580000e-01 -1.422359000e+00
21900000.0 -1.340980000e-01 -1.426501000e+00
22170000.0 -1.310570000e-01 -1.430121000e+00
22440000.0 -1.298140000e-01 -1.434328000e+00
22710000.0 -1.269620000e-01 -1.438135000e+00
22980000.0 -1.221850000e-01 -1.441062000e+00
23250000.0 -1.212920000e-01 -1.446314000e+00
23520000.0 -1.177120000e-01 -1.449872000e+00
23790000.0 -1.146270000e-01 -1.453154000e+00
24060000.0 -1.116140000e-01 -1.456127000e+00
24330000.0 -1.088160000e-01 -1.462309000e+00
24600000.0 -1.055900000e-01 -1.466766000e+00
24870000.0 -1.030590000e-01 -1.469890000e+00
25140000.0 -1.000650000e-01 -1.473096000e+00
25410000.0 -9.589600000e-02 -1.477790000e+00
25680000.0 -9.339800000e-02 -1.482432000e+00
25950000.0 -8.995800000e-02 -1.486702000e+00
26220000.0 -8.790500000e-02 -1.488747000e+00
26490000.0 -8.320300000e-02 -1.494717000e+00
26760000.0 -7.982700000e-02 -1.499001000e+00
27030000.0 -7.662700000e-02 -1.503191000e+00
27300000.0 -7.378700000e-02 -1.508081000e+00
27570000.0 -6.996100000e-02 -1.511577000e+00
27840000.0 -6.578900000e-02 -1.517132000e+00
28110000.0 -6.113000000e-02 -1.520358000e+00
28380000.0 -5.890500000e-02 -1.524764000e+00
28650000.0 -5.552200000e-02 -1.529148000e+00
28920000.0 -5.052100000e-02 -1.533603000e+00
29190000.0 -4.799000000e-02 -1.538929000e+00
29460000.0 -4.361700000e-02 -1.543461000e+00
29730000.0 -4.019800000e-02 -1.545350000e+00
30000000.0 -3.586300000e-02 -1.551120000e+00
32700000.0 7.092000000e-03 -1.594030000e+00
35400000.0 5.602900000e-02 -1.639048000e+00
38100000.0 1.102910000e-01 -1.682828000e+00
40800000.0 1.719320000e-01 -1.724256000e+00
43500000.0 2.417260000e-01 -1.765805000e+00
46200000.0 3.204100000e-01 -1.803590000e+00
48900000.0 4.017630000e-01 -1.835173000e+00
51600000.0 4.977360000e-01 -1.861657000e+00
54300000.0 5.973250000e-01 -1.879128000e+00
57000000.0 7.054050000e-01 -1.886605000e+00
59700000.0 8.206340000e-01 -1.879794000e+00
62400000.0 9.361300000e-01 -1.861749000e+00
65100000.0 1.054685000e+00 -1.824951000e+00
67800000.0 1.169295000e+00 -1.770875000e+00
70500000.0 1.279683000e+00 -1.705829000e+00
73200000.0 1.375636000e+00 -1.621573000e+00
75900000.0 1.459107000e+00 -1.526218000e+00
78600000.0 1.534056000e+00 -1.423038000e+00
81300000.0 1.588819000e+00 -1.314492000e+00
84000000.0 1.627953000e+00 -1.204060000e+00
86700000.0 1.651839000e+00 -1.089066000e+00
89400000.0 1.661597000e+00 -9.833710000e-01
92100000.0 1.662449000e+00 -8.805700000e-01
94800000.0 1.652660000e+00 -7.847710000e-01
97500000.0 1.633218000e+00 -6.958420000e-01
100200000.0 1.610278000e+00 -6.168240000e-01
102900000.0 1.578573000e+00 -5.403060000e-01
105600000.0 1.544593000e+00 -4.713690000e-01
108300000.0 1.509294000e+00 -4.132870000e-01
111000000.0 1.473923000e+00 -3.602240000e-01
113700000.0 1.436546000e+00 -3.103810000e-01
116400000.0 1.398961000e+00 -2.675910000e-01
119100000.0 1.363108000e+00 -2.272040000e-01
121800000.0 1.325754000e+00 -1.938110000e-01
124500000.0 1.288932000e+00 -1.631480000e-01
127200000.0 1.252491000e+00 -1.366370000e-01
129900000.0 1.219157000e+00 -1.121010000e-01
132600000.0 1.186734000e+00 -8.876700000e-02
135300000.0 1.155006000e+00 -7.396900000e-02
138000000.0 1.124498000e+00 -5.544900000e-02
140700000.0 1.094101000e+00 -4.015300000e-02
143400000.0 1.065487000e+00 -2.735600000e-02
146100000.0 1.038698000e+00 -1.503300000e-02
148800000.0 1.012135000e+00 -2.370000000e-03
151500000.0 9.998390000e-01 1.078000000e-03
154200000.0 1.000984000e+00 1.628000000e-03
156900000.0 1.001041000e+00 5.400000000e-04
159600000.0 1.001768000e+00 1.002000000e-03
162300000.0 1.002826000e+00 -2.940000000e-04
165000000.0 1.001758000e+00 2.130000000e-04
167700000.0 1.001711000e+00 -6.050000000e-04
170400000.0 1.002362000e+00 2.870000000e-04
173100000.0 1.002983000e+00 -1.330000000e-03
175800000.0 1.002857000e+00 -7.730000000e-04
178500000.0 1.002926000e+00 -1.528000000e-03
181200000.0 1.004434000e+00 -1.930000000e-04
183900000.0 1.003876000e+00 -1.630000000e-04
186600000.0 1.004001000e+00 -1.480000000e-03
189300000.0 1.002737000e+00 -2.104000000e-03
192000000.0 1.004826000e+00 -1.268000000e-03
194700000.0 1.006286000e+00 -2.130000000e-04
197400000.0 1.004961000e+00 -1.176000000e-03
200100000.0 1.005445000e+00 -1.035000000e-03
202800000.0 1.005306000e+00 1.711600000e-02
205500000.0 1.005853000e+00 -1.528000000e-03
208200000.0 1.003807000e+00 -1.982900000e-02
210900000.0 1.004929000e+00 -9.230000000e-04
213600000.0 1.006608000e+00 1.705500000e-02
216300000.0 1.004523000e+00 -1.052000000e-03
219000000.0 1.004271000e+00 -1.885700000e-02
221700000.0 1.007077000e+00 -1.003000000e-03
224400000.0 1.006238000e+00 -2.016000000e-03
227100000.0 1.006646000e+00 -2.464000000e-03
229800000.0 1.006385000e+00 -1.399000000e-03
232500000.0 1.006738000e+00 -2.671000000e-03
235200000.0 1.007753000e+00 -8.890000000e-04
237900000.0 1.005869000e+00 -6.410000000e-04
240600000.0 1.005914000e+00 -1.599000000e-03
243300000.0 1.004881000e+00 -2.971000000e-03
246000000.0 1.005987000e+00 -5.010000000e-04
248700000.0 1.004757000e+00 -1.229000000e-03
251400000.0 1.006379000e+00 -1.434000000e-03
254100000.0 1.005388000e+00 -2.464000000e-03
256800000.0 1.006200000e+00 -1.080000000e-04
259500000.0 1.005274000e+00 1.380000000e-04
262200000.0 1.004556000e+00 -1.341000000e-03
264900000.0 1.004593000e+00 -2.188000000e-03
267600000.0 1.004721000e+00 -1.544000000e-03
270300000.0 1.004504000e+00 -1.260000000e-03
273000000.0 1.003707000e+00 -1.033000000e-03
275700000.0 1.004241000e+00 -2.042000000e-03
278400000.0 1.001702000e+00 1.750000000e-04
281100000.0 1.003784000e+00 -1.051000000e-03
283800000.0 1.001680000e+00 -7.850000000e-04
286500000.0 1.002808000e+00 -1.074000000e-03
289200000.0 1.001767000e+00 -1.128000000e-03
291900000.0 1.003185000e+00 1.271000000e-03
294600000.0 1.005621000e+00 7.430000000e-04
297300000.0 1.002854000e+00 7.570000000e-04
300000000.0 1.001297000e+00 -6.470000000e-04
311500000.0 1.002944000e+00 -6.310000000e-04
323000000.0 1.004152000e+00 -8.650000000e-04
334500000.0 1.003319000e+00 -1.656000000e-03
346000000.0 1.005594000e+00 -1.246000000e-03
357500000.0 1.006835000e+00 8.610000000e-04
369000000.0 1.005937000e+00 1.674000000e-03
380500000.0 1.005881000e+00 1.301000000e-03
392000000.0 1.004380000e+00 -1.718300000e-02
403500000.0 1.005208000e+00 8.640000000e-04
415000000.0 1.005151000e+00 1.997100000e-02
426500000.0 1.003021000e+00 1.888000000e-03
438000000.0 9.986240000e-01 -1.683700000e-02
449500000.0 1.000151000e+00 3.130000000e-04
461000000.0 1.003280000e+00 2.216000000e-03
472500000.0 1.005560000e+00 1.498000000e-03
484000000.0 1.004309000e+00 4.675000000e-03
495500000.0 1.006440000e+00 6.404000000e-03
507000000.0 1.007439000e+00 8.285000000e-03
518500000.0 1.007869000e+00 5.830000000e-03
530000000.0 1.008163000e+00 9.032000000e-03
541500000.0 1.008008000e+00 7.861000000e-03
553000000.0 1.007881000e+00 7.868000000e-03
564500000.0 1.006129000e+00 8.569000000e-03
576000000.0 1.006815000e+00 7.228000000e-03
587500000.0 1.004711000e+00 5.948000000e-03
599000000.0 1.002746000e+00 8.452000000e-03
610500000.0 1.006195000e+00 5.912000000e-03
622000000.0 1.007956000e+00 7.737000000e-03
633500000.0 1.014256000e+00 2.570400000e-02
645000000.0 1.010867000e+00 -7.569000000e-03
656500000.0 1.015269000e+00 1.196100000e-02
668000000.0 1.024304000e+00 4.467900000e-02
679500000.0 1.016228000e+00 9.341000000e-03
691000000.0 1.009398000e+00 -3.081300000e-02
702500000.0 1.005651000e+00 -2.876000000e-02
714000000.0 1.010194000e+00 7.469000000e-03
725500000.0 1.010454000e+00 6.119000000e-03
737000000.0 1.006164000e+00 2.559000000e-03
748500000.0 1.005225000e+00 1.534000000e-03
760000000.0 1.003382000e+00 -3.312000000e-03
771500000.0 1.008785000e+00 6.300000000e-05
783000000.0 1.011498000e+00 -3.720000000e-03
794500000.0 1.016831000e+00 -7.610000000e-04
806000000.0 1.015479000e+00 -5.214000000e-03
817500000.0 1.016712000e+00 -1.743000000e-03
829000000.0 1.014701000e+00 -9.365000000e-03
840500000.0 1.014498000e+00 -4.152000000e-03
852000000.0 1.015333000e+00 -9.126000000e-03
863500000.0 1.012279000e+00 -3.051000000e-03
875000000.0 1.009154000e+00 -2.165000000e-03
886500000.0 1.009847000e+00 3.419000000e-03
898000000.0 1.002350000e+00 2.203000000e-03
909500000.0 1.002580000e+00 -6.240000000e-04
921000000.0 1.004098000e+00 -2.731000000e-03
932500000.0 1.003484000e+00 -5.429000000e-03
944000000.0 1.004230000e+00 -9.871000000e-03
955500000.0 1.009773000e+00 -1.051700000e-02
967000000.0 1.006437000e+00 -1.062100000e-02
978500000.0 1.005847000e+00 -9.848000000e-03
990000000.0 1.004887000e+00 -6.571000000e-03
1001500000.0 1.003498000e+00 -3.820000000e-03
1013000000.0 1.002868000e+00 -5.354000000e-03
1024500000.0 1.006020000e+00 -3.840000000e-03
1036000000.0 1.000075000e+00 -3.294000000e-03
1047500000.0 9.970650000e-01 -6.690000000e-04
1059000000.0 1.000940000e+00 2.407000000e-03
1070500000.0 1.001863000e+00 -4.307000000e-03
1082000000.0 9.996780000e-01 -2.061000000e-03
1093500000.0 1.005536000e+00 -4.343000000e-03
1105000000.0 1.005029000e+00 -6.355000000e-03
1116500000.0 1.005384000e+00 -6.539000000e-03
1128000000.0 1.010419000e+00 -3.723800000e-02
1139500000.0 1.001077000e+00 -3.807000000e-03
1151000000.0 1.001298000e+00 -1.336000000e-03
1162500000.0 1.005534000e+00 -2.695000000e-03
1174000000.0 1.006017000e+00 -1.499000000e-03
1185500000.0 1.001745000e+00 -6.449000000e-03
1197000000.0 9.980750000e-01 -2.868000000e-03
1208500000.0 1.003724000e+00 -5.103000000e-03
1220000000.0 1.007171000e+00 -1.543000000e-03
1231500000.0 1.007229000e+00 6.008000000e-03
1243000000.0 1.005207000e+00 1.411000000e-03
1254500000.0 1.002931000e+00 -6.568000000e-03
1266000000.0 9.994760000e-01 -1.952000000e-03
1277500000.0 1.001097000e+00 -1.065000000e-03
1289000000.0 1.004517000e+00 -5.973000000e-03
1300500000.0 1.005183000e+00 2.012000000e-03
1312000000.0 9.997920000e-01 6.626000000e-03
1323500000.0 9.947860000e-01 1.368000000e-03
1335000000.0 1.002578000e+00 -4.210000000e-04
1346500000.0 1.007688000e+00 2.930000000e-04
1358000000.0 1.003319000e+00 2.408000000e-03
1369500000.0 1.002154000e+00 1.443500000e-02
1381000000.0 1.001550000e+00 1.425200000e-02
1392500000.0 1.006376000e+00 7.571000000e-03
1404000000.0 1.004297000e+00 2.866500000e-02
1415500000.0 1.006482000e+00 1.254600000e-02
1427000000.0 1.004451000e+00 8.782000000e-03
1438500000.0 1.002147000e+00 1.609200000e-02
1450000000.0 1.001814000e+00 1.277100000e-02
