! piloto_saltos / abierto_continuo / r03
# HZ S RI R 50
50000.0 1.005437000e+00 -7.017100000e-02
59500.0 1.005291000e+00 -5.653300000e-02
69000.0 1.004778000e+00 -4.316900000e-02
78500.0 1.001979000e+00 -2.923400000e-02
88000.0 1.001859000e+00 -1.702300000e-02
97500.0 1.000531000e+00 -4.287000000e-03
107000.0 1.000714000e+00 7.667000000e-03
116500.0 1.000502000e+00 2.062900000e-02
126000.0 1.001501000e+00 3.438700000e-02
135500.0 1.000206000e+00 4.433400000e-02
145000.0 1.001312000e+00 5.699500000e-02
154500.0 1.001666000e+00 6.920300000e-02
164000.0 1.002110000e+00 8.126500000e-02
173500.0 1.002841000e+00 9.307300000e-02
183000.0 1.002752000e+00 1.057220000e-01
192500.0 1.003218000e+00 1.174540000e-01
202000.0 1.004470000e+00 1.285730000e-01
211500.0 1.003777000e+00 1.403320000e-01
221000.0 1.004251000e+00 1.522590000e-01
230500.0 1.004886000e+00 1.626600000e-01
240000.0 1.004872000e+00 1.744670000e-01
249500.0 1.024649000e+00 2.163960000e-01
259000.0 1.004541000e+00 1.968380000e-01
268500.0 1.005495000e+00 2.079280000e-01
278000.0 1.005617000e+00 2.190740000e-01
287500.0 1.006036000e+00 2.296310000e-01
297000.0 1.005988000e+00 2.408730000e-01
306500.0 1.006120000e+00 2.518690000e-01
316000.0 1.006144000e+00 2.624840000e-01
325500.0 1.007036000e+00 2.733440000e-01
335000.0 1.006765000e+00 2.851060000e-01
344500.0 1.007595000e+00 2.955770000e-01
354000.0 1.007468000e+00 3.062570000e-01
363500.0 1.008530000e+00 3.161090000e-01
373000.0 1.008311000e+00 3.267330000e-01
382500.0 1.007656000e+00 3.379890000e-01
392000.0 1.007925000e+00 3.476180000e-01
401500.0 1.008067000e+00 3.588880000e-01
411000.0 1.008388000e+00 3.691070000e-01
420500.0 1.014327000e+00 3.604790000e-01
430000.0 1.009712000e+00 3.894220000e-01
439500.0 1.015046000e+00 3.816960000e-01
449000.0 1.005009000e+00 4.282900000e-01
458500.0 1.015220000e+00 4.014190000e-01
468000.0 1.004704000e+00 4.493840000e-01
477500.0 1.015931000e+00 4.221720000e-01
487000.0 1.005666000e+00 4.697570000e-01
496500.0 1.017239000e+00 4.418280000e-01
506000.0 1.011258000e+00 4.712420000e-01
515500.0 1.012430000e+00 4.815560000e-01
525000.0 1.012979000e+00 4.912730000e-01
534500.0 1.013619000e+00 5.002520000e-01
544000.0 1.013815000e+00 5.100340000e-01
553500.0 1.014910000e+00 5.200730000e-01
563000.0 1.014800000e+00 5.296570000e-01
572500.0 1.014976000e+00 5.392490000e-01
582000.0 1.015321000e+00 5.500390000e-01
591500.0 1.015444000e+00 5.593860000e-01
601000.0 1.015610000e+00 5.692470000e-01
610500.0 1.017305000e+00 5.790870000e-01
620000.0 1.017178000e+00 5.877840000e-01
629500.0 1.018284000e+00 5.976410000e-01
639000.0 1.018812000e+00 6.072750000e-01
648500.0 1.019311000e+00 6.180460000e-01
658000.0 1.019566000e+00 6.277030000e-01
667500.0 1.020941000e+00 6.370420000e-01
677000.0 1.022421000e+00 6.463830000e-01
686500.0 1.022233000e+00 6.564510000e-01
696000.0 1.023385000e+00 6.651160000e-01
705500.0 1.023895000e+00 6.738020000e-01
715000.0 1.025205000e+00 6.838850000e-01
724500.0 1.028215000e+00 6.935930000e-01
734000.0 1.027510000e+00 7.015970000e-01
743500.0 1.028004000e+00 7.116160000e-01
753000.0 1.029982000e+00 7.217330000e-01
762500.0 1.030884000e+00 7.299180000e-01
772000.0 1.032341000e+00 7.398650000e-01
781500.0 1.033039000e+00 7.497470000e-01
791000.0 1.034129000e+00 7.583100000e-01
800500.0 1.035149000e+00 7.676050000e-01
810000.0 1.036760000e+00 7.766000000e-01
819500.0 1.039795000e+00 7.861470000e-01
829000.0 1.039967000e+00 7.954380000e-01
838500.0 1.040317000e+00 8.045270000e-01
848000.0 1.043599000e+00 8.135860000e-01
857500.0 1.044072000e+00 8.241430000e-01
867000.0 1.047795000e+00 8.326010000e-01
876500.0 1.049154000e+00 8.402490000e-01
886000.0 1.050815000e+00 8.500890000e-01
895500.0 1.051533000e+00 8.585870000e-01
905000.0 1.054224000e+00 8.681910000e-01
914500.0 1.055957000e+00 8.774470000e-01
924000.0 1.058048000e+00 8.857010000e-01
933500.0 1.060940000e+00 8.949400000e-01
943000.0 1.063448000e+00 9.017280000e-01
952500.0 1.066189000e+00 9.112580000e-01
962000.0 1.069825000e+00 9.198910000e-01
971500.0 1.069662000e+00 9.295090000e-01
981000.0 1.073181000e+00 9.377430000e-01
990500.0 1.075305000e+00 9.470850000e-01
1000000.0 1.077624000e+00 9.553460000e-01
1090000.0 1.105752000e+00 1.036072000e+00
1180000.0 1.146316000e+00 1.112193000e+00
1270000.0 1.195923000e+00 1.182601000e+00
1360000.0 1.252881000e+00 1.243330000e+00
1450000.0 1.323724000e+00 1.294937000e+00
1540000.0 1.402485000e+00 1.331829000e+00
1630000.0 1.489805000e+00 1.353038000e+00
1720000.0 1.577289000e+00 1.355874000e+00
1810000.0 1.670734000e+00 1.339560000e+00
1900000.0 1.756488000e+00 1.297467000e+00
1990000.0 1.829224000e+00 1.239726000e+00
2080000.0 1.891415000e+00 1.166788000e+00
2170000.0 1.932106000e+00 1.081014000e+00
2260000.0 1.961222000e+00 9.918050000e-01
2350000.0 1.968086000e+00 9.006840000e-01
2440000.0 1.960549000e+00 8.183320000e-01
2530000.0 1.944523000e+00 7.371480000e-01
2620000.0 1.913641000e+00 6.636040000e-01
2710000.0 1.881993000e+00 5.976330000e-01
2800000.0 1.844699000e+00 5.423710000e-01
2890000.0 1.804605000e+00 4.902060000e-01
2980000.0 1.765579000e+00 4.477820000e-01
3070000.0 1.727275000e+00 4.103070000e-01
3160000.0 1.688562000e+00 3.763290000e-01
3250000.0 1.652929000e+00 3.455480000e-01
3340000.0 1.620329000e+00 3.191370000e-01
3430000.0 1.588891000e+00 2.943980000e-01
3520000.0 1.558234000e+00 2.712280000e-01
3610000.0 1.528536000e+00 2.512340000e-01
3700000.0 1.502076000e+00 2.317360000e-01
3790000.0 1.479895000e+00 2.147020000e-01
3880000.0 1.456252000e+00 1.974230000e-01
3970000.0 1.433726000e+00 1.812910000e-01
4060000.0 1.414583000e+00 1.656090000e-01
4150000.0 1.395743000e+00 1.514240000e-01
4240000.0 1.380012000e+00 1.373030000e-01
4330000.0 1.365154000e+00 1.215750000e-01
4420000.0 1.350995000e+00 1.082950000e-01
4510000.0 1.336867000e+00 9.495400000e-02
4600000.0 1.327564000e+00 8.111100000e-02
4690000.0 1.316811000e+00 6.846100000e-02
4780000.0 1.306772000e+00 5.538000000e-02
4870000.0 1.299070000e+00 4.271800000e-02
4960000.0 1.292190000e+00 2.893500000e-02
5050000.0 1.276838000e+00 1.650700000e-02
5140000.0 1.272542000e+00 4.770000000e-03
5230000.0 1.267358000e+00 -8.151000000e-03
5320000.0 1.262732000e+00 -1.889800000e-02
5410000.0 1.259721000e+00 -3.076100000e-02
5500000.0 1.255386000e+00 -4.366500000e-02
5590000.0 1.251173000e+00 -5.407900000e-02
5680000.0 1.247528000e+00 -6.656700000e-02
5770000.0 1.245014000e+00 -7.714500000e-02
5860000.0 1.242410000e+00 -8.714800000e-02
5950000.0 1.239395000e+00 -9.772700000e-02
6040000.0 1.237479000e+00 -1.078500000e-01
6130000.0 1.234726000e+00 -1.173870000e-01
6220000.0 1.232344000e+00 -1.263120000e-01
6310000.0 1.231221000e+00 -1.357850000e-01
6400000.0 1.229032000e+00 -1.442860000e-01
6490000.0 1.225615000e+00 -1.512430000e-01
6580000.0 1.224949000e+00 -1.596180000e-01
6670000.0 1.219384000e+00 -1.869360000e-01
6760000.0 1.227603000e+00 -1.489330000e-01
6850000.0 1.216080000e+00 -1.988870000e-01
6940000.0 1.220731000e+00 -1.811950000e-01
7030000.0 1.214684000e+00 -2.076630000e-01
7120000.0 1.224393000e+00 -1.675810000e-01
7210000.0 1.213733000e+00 -2.130960000e-01
7300000.0 1.224254000e+00 -1.721820000e-01
7390000.0 1.213830000e+00 -2.145410000e-01
7480000.0 1.223440000e+00 -1.717410000e-01
7570000.0 -2.433270000e-01 -1.259345000e+00
7660000.0 -2.419080000e-01 -1.259027000e+00
7750000.0 -2.409150000e-01 -1.259987000e+00
7840000.0 -2.414140000e-01 -1.259604000e+00
7930000.0 -2.395400000e-01 -1.260435000e+00
8020000.0 -2.392110000e-01 -1.261004000e+00
8110000.0 -2.389430000e-01 -1.261143000e+00
8200000.0 -2.376990000e-01 -1.262226000e+00
8290000.0 -2.366460000e-01 -1.262620000e+00
8380000.0 -2.366750000e-01 -1.262704000e+00
8470000.0 -2.352890000e-01 -1.263521000e+00
8560000.0 -2.357380000e-01 -1.264549000e+00
8650000.0 -2.337840000e-01 -1.263845000e+00
8740000.0 -2.330300000e-01 -1.264247000e+00
8830000.0 -2.334570000e-01 -1.265242000e+00
8920000.0 -2.333340000e-01 -1.267171000e+00
9010000.0 -2.319220000e-01 -1.268142000e+00
9100000.0 -2.304520000e-01 -1.268141000e+00
9190000.0 -2.303640000e-01 -1.268730000e+00
9280000.0 -2.286310000e-01 -1.269041000e+00
9370000.0 -2.283940000e-01 -1.270794000e+00
9460000.0 -2.276070000e-01 -1.272356000e+00
9550000.0 -2.282120000e-01 -1.271682000e+00
9640000.0 -2.265740000e-01 -1.271841000e+00
9730000.0 -2.259360000e-01 -1.273690000e+00
9820000.0 -2.257790000e-01 -1.274149000e+00
9910000.0 -2.252120000e-01 -1.275403000e+00
10000000.0 -2.249980000e-01 -1.275959000e+00
10900000.0 -2.188840000e-01 -1.285234000e+00
11800000.0 -2.118440000e-01 -1.293348000e+00
12700000.0 -2.075610000e-01 -1.304924000e+00
13600000.0 -2.011210000e-01 -1.314646000e+00
14500000.0 -1.943710000e-01 -1.326756000e+00
15400000.0 -1.885270000e-01 -1.337133000e+00
16300000.0 -1.814660000e-01 -1.349225000e+00
17200000.0 -1.757020000e-01 -1.360434000e+00
18100000.0 -1.677810000e-01 -1.372610000e+00
19000000.0 -1.612410000e-01 -1.385454000e+00
19900000.0 -1.536810000e-01 -1.397758000e+00
20800000.0 -1.451430000e-01 -1.410276000e+00
21700000.0 -1.364250000e-01 -1.423562000e+00
22600000.0 -1.275420000e-01 -1.435896000e+00
23500000.0 -1.192690000e-01 -1.449288000e+00
24400000.0 -1.080480000e-01 -1.463158000e+00
25300000.0 -9.750100000e-02 -1.477188000e+00
26200000.0 -8.714300000e-02 -1.490125000e+00
27100000.0 -7.547900000e-02 -1.504017000e+00
28000000.0 -6.429900000e-02 -1.519003000e+00
28900000.0 -5.273700000e-02 -1.532677000e+00
29800000.0 -3.848200000e-02 -1.546822000e+00
30700000.0 -2.653800000e-02 -1.561962000e+00
31600000.0 -1.164700000e-02 -1.577446000e+00
32500000.0 2.939000000e-03 -1.590708000e+00
33400000.0 1.905000000e-02 -1.605347000e+00
34300000.0 3.277200000e-02 -1.620252000e+00
35200000.0 5.052100000e-02 -1.634130000e+00
36100000.0 6.894200000e-02 -1.649702000e+00
37000000.0 8.654900000e-02 -1.664560000e+00
37900000.0 1.055630000e-01 -1.677967000e+00
38800000.0 1.241560000e-01 -1.694727000e+00
39700000.0 1.446770000e-01 -1.708734000e+00
40600000.0 1.672540000e-01 -1.721985000e+00
41500000.0 1.894320000e-01 -1.736660000e+00
42400000.0 2.129910000e-01 -1.748863000e+00
43300000.0 2.343300000e-01 -1.763669000e+00
44200000.0 2.600240000e-01 -1.775175000e+00
45100000.0 2.852400000e-01 -1.787773000e+00
46000000.0 3.118020000e-01 -1.800558000e+00
46900000.0 3.394920000e-01 -1.810556000e+00
47800000.0 3.665780000e-01 -1.822655000e+00
48700000.0 3.967750000e-01 -1.833976000e+00
49600000.0 4.269450000e-01 -1.842650000e+00
50500000.0 4.568580000e-01 -1.852626000e+00
51400000.0 4.888980000e-01 -1.859071000e+00
52300000.0 5.232750000e-01 -1.867694000e+00
53200000.0 5.566460000e-01 -1.873617000e+00
54100000.0 5.914740000e-01 -1.878627000e+00
55000000.0 6.247660000e-01 -1.883636000e+00
55900000.0 6.602070000e-01 -1.886467000e+00
56800000.0 6.985390000e-01 -1.885334000e+00
57700000.0 7.338820000e-01 -1.885548000e+00
58600000.0 7.745770000e-01 -1.883677000e+00
59500000.0 8.101500000e-01 -1.881691000e+00
60400000.0 8.481980000e-01 -1.874615000e+00
61300000.0 8.869120000e-01 -1.869778000e+00
62200000.0 9.280470000e-01 -1.863531000e+00
63100000.0 9.679600000e-01 -1.851796000e+00
64000000.0 1.005489000e+00 -1.840490000e+00
64900000.0 1.046293000e+00 -1.827821000e+00
65800000.0 1.084923000e+00 -1.814541000e+00
66700000.0 1.121520000e+00 -1.795299000e+00
67600000.0 1.162048000e+00 -1.777009000e+00
68500000.0 1.196325000e+00 -1.756061000e+00
69400000.0 1.233290000e+00 -1.734999000e+00
70300000.0 1.268299000e+00 -1.710355000e+00
71200000.0 1.301221000e+00 -1.686357000e+00
72100000.0 1.336028000e+00 -1.657900000e+00
73000000.0 1.368069000e+00 -1.629074000e+00
73900000.0 1.399623000e+00 -1.598990000e+00
74800000.0 1.427405000e+00 -1.565498000e+00
75700000.0 1.454858000e+00 -1.535523000e+00
76600000.0 1.480511000e+00 -1.503057000e+00
77500000.0 1.506373000e+00 -1.468178000e+00
78400000.0 1.527794000e+00 -1.431054000e+00
79300000.0 1.548405000e+00 -1.395975000e+00
80200000.0 1.567985000e+00 -1.359028000e+00
81100000.0 1.583203000e+00 -1.321807000e+00
82000000.0 1.599400000e+00 -1.285838000e+00
82900000.0 1.613284000e+00 -1.247706000e+00
83800000.0 1.625598000e+00 -1.209260000e+00
84700000.0 1.637015000e+00 -1.172167000e+00
85600000.0 1.643760000e+00 -1.136278000e+00
86500000.0 1.650780000e+00 -1.097986000e+00
87400000.0 1.658245000e+00 -1.063615000e+00
88300000.0 1.661278000e+00 -1.026986000e+00
89200000.0 1.662795000e+00 -9.901180000e-01
90100000.0 1.664047000e+00 -9.571990000e-01
91000000.0 1.663801000e+00 -9.213770000e-01
91900000.0 1.663276000e+00 -8.882070000e-01
92800000.0 1.660209000e+00 -8.567690000e-01
93700000.0 1.655350000e+00 -8.237950000e-01
94600000.0 1.651882000e+00 -7.931900000e-01
95500000.0 1.647033000e+00 -7.622110000e-01
96400000.0 1.641122000e+00 -7.316870000e-01
97300000.0 1.633287000e+00 -7.023480000e-01
98200000.0 1.627135000e+00 -6.739920000e-01
99100000.0 1.618290000e+00 -6.473680000e-01
100000000.0 1.610424000e+00 -6.197450000e-01
109000000.0 1.501464000e+00 -4.005310000e-01
118000000.0 1.376945000e+00 -2.436830000e-01
127000000.0 1.257167000e+00 -1.372360000e-01
136000000.0 1.147220000e+00 -6.955700000e-02
145000000.0 1.049729000e+00 -1.973200000e-02
154000000.0 1.000390000e+00 1.033000000e-03
163000000.0 1.001419000e+00 1.840000000e-04
172000000.0 1.003021000e+00 -8.430000000e-04
181000000.0 1.003825000e+00 -7.780000000e-04
190000000.0 1.004415000e+00 -1.940000000e-04
199000000.0 1.004854000e+00 -2.035000000e-03
208000000.0 1.005801000e+00 -2.286000000e-03
217000000.0 1.006652000e+00 -2.420000000e-03
226000000.0 1.006616000e+00 -1.328000000e-03
235000000.0 1.006133000e+00 6.900000000e-05
244000000.0 1.006567000e+00 -1.937000000e-03
253000000.0 1.005692000e+00 -1.615000000e-03
262000000.0 1.004976000e+00 -6.820000000e-04
271000000.0 1.005769000e+00 -6.760000000e-04
280000000.0 1.003654000e+00 -1.532000000e-03
289000000.0 1.003179000e+00 -1.043000000e-03
298000000.0 1.001435000e+00 -2.040000000e-04
307000000.0 1.002274000e+00 2.231000000e-03
316000000.0 1.003097000e+00 -1.095000000e-03
325000000.0 1.003593000e+00 -1.497000000e-03
334000000.0 1.005799000e+00 -1.520000000e-04
343000000.0 1.007111000e+00 8.100000000e-05
352000000.0 9.973110000e-01 -5.524200000e-02
361000000.0 1.012407000e+00 3.683900000e-02
370000000.0 1.006714000e+00 1.485000000e-03
379000000.0 1.006360000e+00 -2.170000000e-04
388000000.0 1.006823000e+00 3.350000000e-04
397000000.0 1.007290000e+00 7.250000000e-04
406000000.0 1.020118000e+00 5.379500000e-02
415000000.0 1.004696000e+00 1.859000000e-03
424000000.0 1.003811000e+00 1.656000000e-03
433000000.0 1.002338000e+00 1.326000000e-03
442000000.0 1.002587000e+00 5.240000000e-04
451000000.0 1.000802000e+00 2.352000000e-03
460000000.0 1.001492000e+00 2.646000000e-03
469000000.0 1.003289000e+00 4.613000000e-03
478000000.0 1.003124000e+00 3.877000000e-03
487000000.0 1.005011000e+00 6.083000000e-03
496000000.0 1.005911000e+00 4.531000000e-03
505000000.0 1.006564000e+00 6.066000000e-03
514000000.0 1.008997000e+00 6.119000000e-03
523000000.0 1.009797000e+00 6.351000000e-03
532000000.0 1.009136000e+00 6.117000000e-03
541000000.0 1.009666000e+00 8.761000000e-03
550000000.0 1.005186000e+00 9.001000000e-03
559000000.0 1.005932000e+00 5.527000000e-03
568000000.0 1.006705000e+00 8.236000000e-03
577000000.0 1.005944000e+00 7.485000000e-03
586000000.0 1.004502000e+00 9.130000000e-03
595000000.0 1.005511000e+00 7.238000000e-03
604000000.0 1.006475000e+00 8.029000000e-03
613000000.0 1.008652000e+00 9.210000000e-03
622000000.0 1.009339000e+00 4.693000000e-03
631000000.0 1.012914000e+00 8.248000000e-03
640000000.0 1.014759000e+00 9.847000000e-03
649000000.0 1.013900000e+00 9.101000000e-03
658000000.0 1.013656000e+00 7.791000000e-03
667000000.0 1.017428000e+00 5.941000000e-03
676000000.0 1.014115000e+00 6.038000000e-03
685000000.0 1.015595000e+00 7.952000000e-03
694000000.0 1.017401000e+00 7.612000000e-03
703000000.0 1.009284000e+00 -1.845100000e-02
712000000.0 1.009658000e+00 1.081600000e-02
721000000.0 1.013540000e+00 5.309000000e-03
730000000.0 1.008824000e+00 2.335000000e-03
739000000.0 1.003543000e+00 1.628000000e-03
748000000.0 1.001884000e+00 -6.290000000e-04
757000000.0 1.005866000e+00 -2.990000000e-04
766000000.0 1.007571000e+00 -4.788000000e-03
775000000.0 1.011257000e+00 -3.587000000e-03
784000000.0 1.012947000e+00 -4.921000000e-03
793000000.0 1.015247000e+00 -3.186000000e-03
802000000.0 1.014963000e+00 -3.654000000e-03
811000000.0 1.018137000e+00 -1.242000000e-03
820000000.0 1.019163000e+00 -7.317000000e-03
829000000.0 1.015777000e+00 -6.160000000e-03
838000000.0 1.016951000e+00 -5.020000000e-03
847000000.0 1.016607000e+00 -5.126000000e-03
856000000.0 1.011546000e+00 -5.532000000e-03
865000000.0 1.011163000e+00 -7.720000000e-04
874000000.0 1.009480000e+00 -4.112000000e-03
883000000.0 1.006392000e+00 -9.980000000e-04
892000000.0 1.005076000e+00 -3.340000000e-03
901000000.0 9.972990000e-01 -7.399000000e-03
910000000.0 1.000193000e+00 -1.799000000e-03
919000000.0 1.003040000e+00 -2.759000000e-03
928000000.0 1.003976000e+00 -5.637000000e-03
937000000.0 1.004091000e+00 -5.600000000e-03
946000000.0 1.004560000e+00 -8.173000000e-03
955000000.0 1.005047000e+00 -7.109000000e-03
964000000.0 1.005241000e+00 -9.895000000e-03
973000000.0 1.004915000e+00 -9.160000000e-03
982000000.0 1.004020000e+00 -1.201400000e-02
991000000.0 1.002689000e+00 -9.883000000e-03
1000000000.0 1.002653000e+00 -7.375000000e-03
1004500000.0 1.003667000e+00 -8.304000000e-03
1009000000.0 1.004942000e+00 1.170000000e-03
1013500000.0 1.004076000e+00 -1.096900000e-02
1018000000.0 1.001606000e+00 -4.097000000e-03
1022500000.0 1.003399000e+00 -4.045000000e-03
1027000000.0 1.003891000e+00 -1.108000000e-03
1031500000.0 1.002422000e+00 -1.481000000e-03
1036000000.0 1.001927000e+00 -6.098000000e-03
1040500000.0 1.001550000e+00 -1.015000000e-03
1045000000.0 1.000977000e+00 -0.000000000e+00
1049500000.0 9.994870000e-01 7.320000000e-04
1054000000.0 9.969040000e-01 -6.720000000e-04
1058500000.0 1.002734000e+00 1.955000000e-03
1063000000.0 1.002337000e+00 -1.175000000e-03
1067500000.0 1.002087000e+00 3.102000000e-03
1072000000.0 1.001577000e+00 -5.776000000e-03
1076500000.0 9.998470000e-01 -5.750000000e-04
1081000000.0 1.003667000e+00 -1.508000000e-03
1085500000.0 1.001520000e+00 -1.914000000e-03
1090000000.0 1.005564000e+00 -1.763000000e-03
1094500000.0 1.002053000e+00 4.370000000e-04
1099000000.0 1.003210000e+00 8.400000000e-05
1103500000.0 1.003213000e+00 -5.820000000e-03
1108000000.0 1.000739000e+00 -3.104000000e-03
1112500000.0 1.001860000e+00 -3.472000000e-03
1117000000.0 1.000966000e+00 -9.235000000e-03
1121500000.0 1.007093000e+00 -3.079000000e-03
1126000000.0 1.003349000e+00 -2.446000000e-03
1130500000.0 1.006936000e+00 -1.083700000e-02
1135000000.0 1.008441000e+00 -5.938000000e-03
1139500000.0 1.010676000e+00 3.105600000e-02
1144000000.0 1.004376000e+00 -1.868000000e-03
1148500000.0 1.000706000e+00 -8.206000000e-03
1153000000.0 1.010283000e+00 -3.002000000e-03
1157500000.0 9.988830000e-01 -1.107200000e-02
1162000000.0 1.002096000e+00 2.859000000e-03
1166500000.0 1.004069000e+00 -7.954000000e-03
1171000000.0 1.003044000e+00 -8.692000000e-03
1175500000.0 1.005951000e+00 -2.656000000e-03
1180000000.0 1.003789000e+00 -1.140000000e-03
1184500000.0 1.004014000e+00 -9.870000000e-04
1189000000.0 1.010802000e+00 -7.740000000e-03
1193500000.0 9.985330000e-01 -8.350000000e-03
1198000000.0 1.001514000e+00 9.820000000e-04
1202500000.0 1.002596000e+00 -4.812000000e-03
1207000000.0 1.004604000e+00 -3.091000000e-03
1211500000.0 1.004908000e+00 -8.830000000e-03
1216000000.0 9.981750000e-01 -5.411000000e-03
1220500000.0 1.003061000e+00 -1.506000000e-03
1225000000.0 1.000650000e+00 -1.120600000e-02
1229500000.0 1.003666000e+00 1.299000000e-03
1234000000.0 1.005214000e+00 -3.510000000e-03
1238500000.0 1.000250000e+00 -7.971000000e-03
1243000000.0 1.002318000e+00 -6.614000000e-03
1247500000.0 1.003809000e+00 4.830000000e-03
1252000000.0 1.003251000e+00 -6.143000000e-03
1256500000.0 9.978400000e-01 7.629000000e-03
1261000000.0 1.000892000e+00 1.974000000e-03
1265500000.0 1.003243000e+00 3.963000000e-03
1270000000.0 1.008033000e+00 6.510000000e-04
1274500000.0 1.004286000e+00 1.393000000e-03
1279000000.0 1.004750000e+00 6.140000000e-04
1283500000.0 1.002468000e+00 2.152000000e-03
1288000000.0 9.995870000e-01 -3.096000000e-03
1292500000.0 1.001628000e+00 -4.469000000e-03
1297000000.0 1.001560000e+00 -1.700000000e-05
1301500000.0 1.004362000e+00 -1.442000000e-03
1306000000.0 9.998790000e-01 4.252000000e-03
1310500000.0 1.004483000e+00 3.837000000e-03
1315000000.0 1.002619000e+00 2.244000000e-03
1319500000.0 1.003817000e+00 5.998000000e-03
1324000000.0 1.006712000e+00 -1.123000000e-03
1328500000.0 1.005070000e+00 1.250000000e-03
1333000000.0 1.003748000e+00 5.609000000e-03
1337500000.0 1.006353000e+00 6.859000000e-03
1342000000.0 9.979950000e-01 8.315000000e-03
1346500000.0 1.001925000e+00 -4.621000000e-03
1351000000.0 1.005063000e+00 7.432000000e-03
1355500000.0 1.000250000e+00 1.991000000e-03
1360000000.0 1.005560000e+00 8.896000000e-03
1364500000.0 1.008639000e+00 5.214000000e-03
1369000000.0 1.010085000e+00 1.069200000e-02
1373500000.0 1.006520000e+00 6.759000000e-03
1378000000.0 9.985400000e-01 8.209000000e-03
1382500000.0 1.007219000e+00 7.309000000e-03
1387000000.0 1.002470000e+00 1.160000000e-02
1391500000.0 1.007970000e+00 1.338900000e-02
1396000000.0 1.005191000e+00 1.056300000e-02
1400500000.0 1.001446000e+00 1.940200000e-02
1405000000.0 1.008313000e+00 1.585800000e-02
1409500000.0 1.009574000e+00 1.289100000e-02
1414000000.0 1.004145000e+00 4.289000000e-03
1418500000.0 1.001682000e+00 1.474100000e-02
1423000000.0 1.000260000e+00 1.579000000e-02
1427500000.0 1.009405000e+00 1.696400000e-02
1432000000.0 1.003310000e+00 1.513500000e-02
1436500000.0 1.001763000e+00 1.039200000e-02
1441000000.0 1.001054000e+00 1.620200000e-02
1445500000.0 1.002113000e+00 2.153600000e-02
1450000000.0 1.003893000e+00 1.502900000e-02
