! piloto_saltos / abierto_pausado / r02
# HZ S RI R 50
50000.0 1.006495000e+00 -7.061700000e-02
59500.0 1.002817000e+00 -5.630100000e-02
69000.0 1.005560000e+00 -4.328200000e-02
78500.0 1.002391000e+00 -3.041900000e-02
88000.0 1.001118000e+00 -1.618100000e-02
97500.0 1.000685000e+00 -4.168000000e-03
107000.0 1.000205000e+00 8.289000000e-03
116500.0 1.000389000e+00 2.110000000e-02
126000.0 1.002023000e+00 3.397000000e-02
135500.0 1.000863000e+00 4.445300000e-02
145000.0 1.000991000e+00 5.740600000e-02
154500.0 1.001361000e+00 6.864200000e-02
164000.0 1.002199000e+00 8.136900000e-02
173500.0 1.002401000e+00 9.324100000e-02
183000.0 1.002811000e+00 1.053700000e-01
192500.0 1.002914000e+00 1.169800000e-01
202000.0 1.003184000e+00 1.284550000e-01
211500.0 1.003467000e+00 1.396400000e-01
221000.0 1.004002000e+00 1.512490000e-01
230500.0 1.004193000e+00 1.626960000e-01
240000.0 1.003422000e+00 1.744210000e-01
249500.0 1.004537000e+00 1.850770000e-01
259000.0 1.004855000e+00 1.964660000e-01
268500.0 1.005292000e+00 2.082430000e-01
278000.0 1.005474000e+00 2.192070000e-01
287500.0 1.006027000e+00 2.299130000e-01
297000.0 1.006027000e+00 2.408880000e-01
306500.0 1.006110000e+00 2.515740000e-01
316000.0 1.007826000e+00 2.627970000e-01
325500.0 1.007699000e+00 2.741790000e-01
335000.0 1.007703000e+00 2.846710000e-01
344500.0 1.007408000e+00 2.959920000e-01
354000.0 1.007648000e+00 3.063180000e-01
363500.0 1.007132000e+00 3.158100000e-01
373000.0 1.007245000e+00 3.275290000e-01
382500.0 1.007055000e+00 3.375780000e-01
392000.0 1.008191000e+00 3.484950000e-01
401500.0 1.008455000e+00 3.592220000e-01
411000.0 1.009207000e+00 3.691560000e-01
420500.0 1.009590000e+00 3.789130000e-01
430000.0 1.009197000e+00 3.897720000e-01
439500.0 1.009781000e+00 3.993510000e-01
449000.0 1.010155000e+00 4.105970000e-01
458500.0 1.010357000e+00 4.201500000e-01
468000.0 1.010959000e+00 4.316430000e-01
477500.0 1.010918000e+00 4.411620000e-01
487000.0 1.011173000e+00 4.504140000e-01
496500.0 1.011112000e+00 4.606770000e-01
506000.0 1.011617000e+00 4.707340000e-01
515500.0 1.011649000e+00 4.800540000e-01
525000.0 1.012580000e+00 4.905110000e-01
534500.0 1.013696000e+00 5.011460000e-01
544000.0 1.014231000e+00 5.103370000e-01
553500.0 1.015128000e+00 5.211550000e-01
563000.0 1.014012000e+00 5.293840000e-01
572500.0 1.014694000e+00 5.398300000e-01
582000.0 1.015525000e+00 5.496870000e-01
591500.0 1.016238000e+00 5.591290000e-01
601000.0 1.016399000e+00 5.696830000e-01
610500.0 1.016710000e+00 5.784820000e-01
620000.0 1.017156000e+00 5.888270000e-01
629500.0 1.018344000e+00 5.985240000e-01
639000.0 1.019268000e+00 6.083360000e-01
648500.0 1.019019000e+00 6.178890000e-01
658000.0 1.018661000e+00 6.278980000e-01
667500.0 1.020713000e+00 6.371720000e-01
677000.0 1.020645000e+00 6.456880000e-01
686500.0 1.022607000e+00 6.552390000e-01
696000.0 1.024383000e+00 6.637310000e-01
705500.0 1.024870000e+00 6.747220000e-01
715000.0 1.025522000e+00 6.841620000e-01
724500.0 1.026235000e+00 6.929940000e-01
734000.0 1.026750000e+00 7.028520000e-01
743500.0 1.029790000e+00 7.127950000e-01
753000.0 1.028885000e+00 7.212060000e-01
762500.0 1.029742000e+00 7.299870000e-01
772000.0 1.031476000e+00 7.400630000e-01
781500.0 1.034219000e+00 7.496270000e-01
791000.0 1.033538000e+00 7.579630000e-01
800500.0 1.035900000e+00 7.676340000e-01
810000.0 1.037202000e+00 7.756830000e-01
819500.0 1.038251000e+00 7.869500000e-01
829000.0 1.040723000e+00 7.946010000e-01
838500.0 1.042477000e+00 8.053080000e-01
848000.0 1.043718000e+00 8.147920000e-01
857500.0 1.044640000e+00 8.237720000e-01
867000.0 1.046365000e+00 8.304260000e-01
876500.0 1.049003000e+00 8.400810000e-01
886000.0 1.051384000e+00 8.501990000e-01
895500.0 1.051322000e+00 8.590620000e-01
905000.0 1.054400000e+00 8.685750000e-01
914500.0 1.054508000e+00 8.443820000e-01
924000.0 1.058676000e+00 8.849110000e-01
933500.0 1.062175000e+00 8.945610000e-01
943000.0 1.064527000e+00 9.032460000e-01
952500.0 1.066188000e+00 9.124070000e-01
962000.0 1.066910000e+00 9.219560000e-01
971500.0 1.070678000e+00 9.303110000e-01
981000.0 1.074014000e+00 9.379810000e-01
990500.0 1.075356000e+00 9.469620000e-01
1000000.0 1.077624000e+00 9.559090000e-01
1090000.0 1.105678000e+00 1.035715000e+00
1180000.0 1.145475000e+00 1.110777000e+00
1270000.0 1.195384000e+00 1.181776000e+00
1360000.0 1.254279000e+00 1.243886000e+00
1450000.0 1.324672000e+00 1.294778000e+00
1540000.0 1.402896000e+00 1.333937000e+00
1630000.0 1.493013000e+00 1.355558000e+00
1720000.0 1.580201000e+00 1.356595000e+00
1810000.0 1.672680000e+00 1.337890000e+00
1900000.0 1.755041000e+00 1.294549000e+00
1990000.0 1.830094000e+00 1.242209000e+00
2080000.0 1.890569000e+00 1.167756000e+00
2170000.0 1.932720000e+00 1.081634000e+00
2260000.0 1.959267000e+00 9.893380000e-01
2350000.0 1.966624000e+00 9.002670000e-01
2440000.0 1.960320000e+00 8.149540000e-01
2530000.0 1.941946000e+00 7.367310000e-01
2620000.0 1.914600000e+00 6.624680000e-01
2710000.0 1.881411000e+00 5.986720000e-01
2800000.0 1.844651000e+00 5.412150000e-01
2890000.0 1.804848000e+00 4.912440000e-01
2980000.0 1.766002000e+00 4.468780000e-01
3070000.0 1.727545000e+00 4.099900000e-01
3160000.0 1.690268000e+00 3.756260000e-01
3250000.0 1.654443000e+00 3.462590000e-01
3340000.0 1.620334000e+00 3.185540000e-01
3430000.0 1.587428000e+00 2.952850000e-01
3520000.0 1.557372000e+00 2.711950000e-01
3610000.0 1.528145000e+00 2.525490000e-01
3700000.0 1.502355000e+00 2.315240000e-01
3790000.0 1.477680000e+00 2.139260000e-01
3880000.0 1.454428000e+00 1.982160000e-01
3970000.0 1.435192000e+00 1.828380000e-01
4060000.0 1.414814000e+00 1.658390000e-01
4150000.0 1.396498000e+00 1.493420000e-01
4240000.0 1.379510000e+00 1.372970000e-01
4330000.0 1.364582000e+00 1.223910000e-01
4420000.0 1.349978000e+00 1.086140000e-01
4510000.0 1.338583000e+00 9.482400000e-02
4600000.0 1.326499000e+00 8.216000000e-02
4690000.0 1.316209000e+00 6.825200000e-02
4780000.0 1.307503000e+00 5.408800000e-02
4870000.0 1.298596000e+00 4.169800000e-02
4960000.0 1.291921000e+00 2.925800000e-02
5050000.0 1.276160000e+00 1.789600000e-02
5140000.0 1.272485000e+00 6.276000000e-03
5230000.0 1.267633000e+00 -7.872000000e-03
5320000.0 1.263199000e+00 -1.975400000e-02
5410000.0 1.258919000e+00 -3.199400000e-02
5500000.0 1.254816000e+00 -4.333000000e-02
5590000.0 1.252244000e+00 -5.380300000e-02
5680000.0 1.248474000e+00 -6.568200000e-02
5770000.0 1.245044000e+00 -7.593700000e-02
5860000.0 1.242970000e+00 -8.735000000e-02
5950000.0 1.240689000e+00 -9.857500000e-02
6040000.0 1.236607000e+00 -1.083150000e-01
6130000.0 1.234235000e+00 -1.173370000e-01
6220000.0 1.232344000e+00 -1.268060000e-01
6310000.0 1.230867000e+00 -1.361110000e-01
6400000.0 1.229249000e+00 -1.435100000e-01
6490000.0 1.226073000e+00 -1.511270000e-01
6580000.0 1.225187000e+00 -1.589620000e-01
6670000.0 1.224539000e+00 -1.655860000e-01
6760000.0 1.222273000e+00 -1.716230000e-01
6850000.0 1.222205000e+00 -1.766970000e-01
6940000.0 1.221214000e+00 -1.819900000e-01
7030000.0 1.219879000e+00 -1.862420000e-01
7120000.0 1.221139000e+00 -1.892040000e-01
7210000.0 1.218747000e+00 -1.916290000e-01
7300000.0 1.219194000e+00 -1.929390000e-01
7390000.0 1.218704000e+00 -1.942600000e-01
7480000.0 1.219681000e+00 -1.943380000e-01
7570000.0 -2.438140000e-01 -1.258151000e+00
7660000.0 -2.424720000e-01 -1.259998000e+00
7750000.0 -2.408870000e-01 -1.259419000e+00
7840000.0 -2.398020000e-01 -1.260645000e+00
7930000.0 -2.402210000e-01 -1.259888000e+00
8020000.0 -2.382100000e-01 -1.260241000e+00
8110000.0 -2.385190000e-01 -1.261100000e+00
8200000.0 -2.372060000e-01 -1.261563000e+00
8290000.0 -2.368770000e-01 -1.262738000e+00
8380000.0 -2.372070000e-01 -1.263135000e+00
8470000.0 -2.359900000e-01 -1.264857000e+00
8560000.0 -2.344660000e-01 -1.264545000e+00
8650000.0 -2.340570000e-01 -1.265411000e+00
8740000.0 -2.339690000e-01 -1.266061000e+00
8830000.0 -2.334220000e-01 -1.266002000e+00
8920000.0 -2.324600000e-01 -1.266192000e+00
9010000.0 -2.315040000e-01 -1.267066000e+00
9100000.0 -2.306090000e-01 -1.267668000e+00
9190000.0 -2.291040000e-01 -1.268770000e+00
9280000.0 -2.291830000e-01 -1.270014000e+00
9370000.0 -2.299790000e-01 -1.270046000e+00
9460000.0 -2.284930000e-01 -1.270309000e+00
9550000.0 -2.273170000e-01 -1.272242000e+00
9640000.0 -2.283280000e-01 -1.271295000e+00
9730000.0 -2.266560000e-01 -1.273417000e+00
9820000.0 -2.257770000e-01 -1.274835000e+00
9910000.0 -2.262100000e-01 -1.274557000e+00
10000000.0 -2.239180000e-01 -1.275269000e+00
10900000.0 -2.182030000e-01 -1.285235000e+00
11800000.0 -2.129010000e-01 -1.293515000e+00
12700000.0 -2.066740000e-01 -1.304357000e+00
13600000.0 -2.012900000e-01 -1.315223000e+00
14500000.0 -1.948450000e-01 -1.326687000e+00
15400000.0 -1.878110000e-01 -1.336887000e+00
16300000.0 -1.816770000e-01 -1.348311000e+00
17200000.0 -1.758310000e-01 -1.360461000e+00
18100000.0 -1.678930000e-01 -1.372583000e+00
19000000.0 -1.613290000e-01 -1.384627000e+00
19900000.0 -1.540680000e-01 -1.396691000e+00
20800000.0 -1.447990000e-01 -1.410545000e+00
21700000.0 -1.361790000e-01 -1.422768000e+00
22600000.0 -1.272160000e-01 -1.436951000e+00
23500000.0 -1.198030000e-01 -1.449565000e+00
24400000.0 -1.089060000e-01 -1.463648000e+00
25300000.0 -9.791400000e-02 -1.477110000e+00
26200000.0 -8.651600000e-02 -1.490495000e+00
27100000.0 -7.568400000e-02 -1.504112000e+00
28000000.0 -6.393700000e-02 -1.518544000e+00
28900000.0 -5.091100000e-02 -1.532899000e+00
29800000.0 -6.597100000e-02 -1.544065000e+00
30700000.0 -2.619600000e-02 -1.561541000e+00
31600000.0 -1.092000000e-02 -1.576469000e+00
32500000.0 3.830000000e-03 -1.590511000e+00
33400000.0 1.828300000e-02 -1.605692000e+00
34300000.0 3.434700000e-02 -1.620513000e+00
35200000.0 4.934200000e-02 -1.635420000e+00
36100000.0 6.821700000e-02 -1.650131000e+00
37000000.0 8.668800000e-02 -1.665458000e+00
37900000.0 1.041980000e-01 -1.679291000e+00
38800000.0 1.261840000e-01 -1.693939000e+00
39700000.0 1.457780000e-01 -1.708846000e+00
40600000.0 1.666160000e-01 -1.723304000e+00
41500000.0 1.898330000e-01 -1.736453000e+00
42400000.0 2.108550000e-01 -1.748972000e+00
43300000.0 2.352670000e-01 -1.764388000e+00
44200000.0 2.603790000e-01 -1.775939000e+00
45100000.0 2.862230000e-01 -1.788197000e+00
46000000.0 3.122370000e-01 -1.802045000e+00
46900000.0 3.389490000e-01 -1.811409000e+00
47800000.0 3.675630000e-01 -1.822914000e+00
48700000.0 3.966150000e-01 -1.834836000e+00
49600000.0 4.258620000e-01 -1.843458000e+00
50500000.0 4.565190000e-01 -1.853445000e+00
51400000.0 4.888350000e-01 -1.859889000e+00
52300000.0 5.216280000e-01 -1.867732000e+00
53200000.0 5.553140000e-01 -1.872995000e+00
54100000.0 5.899640000e-01 -1.877315000e+00
55000000.0 6.247750000e-01 -1.881286000e+00
55900000.0 6.618500000e-01 -1.886051000e+00
56800000.0 6.977920000e-01 -1.885233000e+00
57700000.0 7.359270000e-01 -1.884321000e+00
58600000.0 7.719870000e-01 -1.884479000e+00
59500000.0 8.113660000e-01 -1.878486000e+00
60400000.0 8.487300000e-01 -1.875410000e+00
61300000.0 8.892150000e-01 -1.870087000e+00
62200000.0 9.274950000e-01 -1.860811000e+00
63100000.0 9.676820000e-01 -1.853057000e+00
64000000.0 1.007872000e+00 -1.840617000e+00
64900000.0 1.046641000e+00 -1.828575000e+00
65800000.0 1.083590000e+00 -1.811669000e+00
66700000.0 1.122137000e+00 -1.794997000e+00
67600000.0 1.159196000e+00 -1.777224000e+00
68500000.0 1.197662000e+00 -1.755006000e+00
69400000.0 1.232593000e+00 -1.734342000e+00
70300000.0 1.270216000e+00 -1.709274000e+00
71200000.0 1.303495000e+00 -1.683739000e+00
72100000.0 1.335241000e+00 -1.657445000e+00
73000000.0 1.370059000e+00 -1.627121000e+00
73900000.0 1.398364000e+00 -1.598156000e+00
74800000.0 1.425598000e+00 -1.567145000e+00
75700000.0 1.456075000e+00 -1.534430000e+00
76600000.0 1.481071000e+00 -1.499117000e+00
77500000.0 1.505985000e+00 -1.467352000e+00
78400000.0 1.529441000e+00 -1.432690000e+00
79300000.0 1.546856000e+00 -1.394512000e+00
80200000.0 1.566986000e+00 -1.359418000e+00
81100000.0 1.584472000e+00 -1.320944000e+00
82000000.0 1.597754000e+00 -1.282881000e+00
82900000.0 1.613881000e+00 -1.249234000e+00
83800000.0 1.627238000e+00 -1.209281000e+00
84700000.0 1.635251000e+00 -1.171710000e+00
85600000.0 1.643275000e+00 -1.135685000e+00
86500000.0 1.650324000e+00 -1.098822000e+00
87400000.0 1.655232000e+00 -1.062096000e+00
88300000.0 1.659334000e+00 -1.025351000e+00
89200000.0 1.662899000e+00 -9.906030000e-01
90100000.0 1.664889000e+00 -9.561810000e-01
91000000.0 1.663771000e+00 -9.225460000e-01
91900000.0 1.663435000e+00 -8.883630000e-01
92800000.0 1.661153000e+00 -8.547440000e-01
93700000.0 1.657957000e+00 -8.230700000e-01
94600000.0 1.652882000e+00 -7.913990000e-01
95500000.0 1.648055000e+00 -7.611100000e-01
96400000.0 1.640322000e+00 -7.311870000e-01
97300000.0 1.633658000e+00 -7.028170000e-01
98200000.0 1.627794000e+00 -6.759950000e-01
99100000.0 1.620395000e+00 -6.455960000e-01
100000000.0 1.610476000e+00 -6.208560000e-01
109000000.0 1.501279000e+00 -4.000790000e-01
118000000.0 1.376742000e+00 -2.441660000e-01
127000000.0 1.256518000e+00 -1.390220000e-01
136000000.0 1.147923000e+00 -6.838700000e-02
145000000.0 1.049308000e+00 -2.008100000e-02
154000000.0 1.000564000e+00 6.300000000e-05
163000000.0 1.001514000e+00 2.330000000e-04
172000000.0 1.003600000e+00 6.500000000e-05
181000000.0 1.003355000e+00 -1.166000000e-03
190000000.0 1.004794000e+00 -9.980000000e-04
199000000.0 1.005725000e+00 -1.954000000e-03
208000000.0 1.005816000e+00 -9.460000000e-04
217000000.0 1.006266000e+00 -2.535000000e-03
226000000.0 1.005914000e+00 -2.930000000e-03
235000000.0 1.005869000e+00 -7.600000000e-04
244000000.0 1.006243000e+00 -4.150000000e-04
253000000.0 1.005710000e+00 -1.166000000e-03
262000000.0 1.004628000e+00 -9.210000000e-04
271000000.0 1.004171000e+00 -1.585000000e-03
280000000.0 1.003980000e+00 -1.319000000e-03
289000000.0 1.002618000e+00 2.160000000e-04
298000000.0 1.001615000e+00 -3.960000000e-04
307000000.0 1.002216000e+00 -3.080000000e-04
316000000.0 1.002906000e+00 -4.150000000e-04
325000000.0 1.003778000e+00 -4.640000000e-04
334000000.0 1.006552000e+00 -3.210000000e-04
343000000.0 1.007262000e+00 -1.034000000e-03
352000000.0 9.972800000e-01 -3.585700000e-02
361000000.0 1.011497000e+00 1.843600000e-02
370000000.0 1.006239000e+00 1.374000000e-03
379000000.0 1.011767000e+00 1.770200000e-02
388000000.0 1.004624000e+00 -1.607700000e-02
397000000.0 1.003549000e+00 -1.604200000e-02
406000000.0 1.004777000e+00 2.491000000e-03
415000000.0 9.955760000e-01 -3.431800000e-02
424000000.0 1.003881000e+00 4.640000000e-04
433000000.0 1.002342000e+00 5.120000000e-04
442000000.0 1.000301000e+00 5.130000000e-04
451000000.0 9.993280000e-01 1.303000000e-03
460000000.0 1.001377000e+00 1.632000000e-03
469000000.0 1.002873000e+00 2.178000000e-03
478000000.0 1.005380000e+00 3.165000000e-03
487000000.0 1.005830000e+00 2.641000000e-03
496000000.0 1.006693000e+00 5.229000000e-03
505000000.0 1.007954000e+00 7.485000000e-03
514000000.0 1.009038000e+00 5.512000000e-03
523000000.0 1.008226000e+00 6.442000000e-03
532000000.0 1.007934000e+00 8.442000000e-03
541000000.0 1.007304000e+00 7.658000000e-03
550000000.0 1.006440000e+00 1.020800000e-02
559000000.0 1.008819000e+00 7.397000000e-03
568000000.0 1.007953000e+00 9.914000000e-03
577000000.0 1.004768000e+00 7.498000000e-03
586000000.0 1.004637000e+00 6.747000000e-03
595000000.0 1.003814000e+00 7.377000000e-03
604000000.0 1.004609000e+00 9.050000000e-03
613000000.0 1.004433000e+00 7.148000000e-03
622000000.0 1.009116000e+00 6.686000000e-03
631000000.0 1.012742000e+00 5.376000000e-03
640000000.0 1.013979000e+00 6.164000000e-03
649000000.0 1.013564000e+00 9.096000000e-03
658000000.0 1.014946000e+00 9.260000000e-03
667000000.0 1.013973000e+00 5.563000000e-03
676000000.0 1.014285000e+00 1.044600000e-02
685000000.0 1.017776000e+00 7.041000000e-03
694000000.0 1.015434000e+00 5.370000000e-03
703000000.0 1.013124000e+00 -1.133100000e-02
712000000.0 1.013485000e+00 9.636000000e-03
721000000.0 1.011808000e+00 7.268000000e-03
730000000.0 1.008480000e+00 2.227000000e-03
739000000.0 1.005974000e+00 6.615000000e-03
748000000.0 1.001963000e+00 3.187000000e-03
757000000.0 1.004662000e+00 1.250000000e-04
766000000.0 1.006354000e+00 -3.353000000e-03
775000000.0 1.008658000e+00 -1.620000000e-03
784000000.0 1.010757000e+00 -2.110000000e-03
793000000.0 1.013597000e+00 -4.141000000e-03
802000000.0 1.016203000e+00 -4.647000000e-03
811000000.0 1.017148000e+00 -1.163600000e-02
820000000.0 1.016283000e+00 -7.931000000e-03
829000000.0 1.020818000e+00 -4.813000000e-03
838000000.0 1.017108000e+00 -3.577000000e-03
847000000.0 1.015440000e+00 -6.889000000e-03
856000000.0 1.013299000e+00 -5.384000000e-03
865000000.0 1.011470000e+00 -4.922000000e-03
874000000.0 1.012358000e+00 -3.915000000e-03
883000000.0 1.009793000e+00 -2.279000000e-03
892000000.0 1.005396000e+00 1.995000000e-03
901000000.0 9.978660000e-01 -8.850000000e-04
910000000.0 1.003892000e+00 2.000000000e-06
919000000.0 1.002840000e+00 -3.774000000e-03
928000000.0 1.000126000e+00 -3.874000000e-03
937000000.0 1.004264000e+00 -2.445000000e-03
946000000.0 1.004901000e+00 9.152000000e-03
955000000.0 1.005278000e+00 -6.046000000e-03
964000000.0 1.004067000e+00 -2.769400000e-02
973000000.0 1.005980000e+00 -8.534000000e-03
982000000.0 1.006367000e+00 -9.961000000e-03
991000000.0 1.004243000e+00 -8.844000000e-03
1000000000.0 1.005220000e+00 -2.802100000e-02
1004500000.0 1.005103000e+00 -1.116000000e-02
1009000000.0 1.001554000e+00 -9.636000000e-03
1013500000.0 1.003066000e+00 -6.475000000e-03
1018000000.0 1.001027000e+00 -5.425000000e-03
1022500000.0 1.000319000e+00 -7.400000000e-03
1027000000.0 1.004627000e+00 1.170000000e-04
1031500000.0 1.003063000e+00 -6.678000000e-03
1036000000.0 1.001265000e+00 -3.885000000e-03
1040500000.0 1.001689000e+00 -2.896000000e-03
1045000000.0 1.001381000e+00 -2.156000000e-03
1049500000.0 1.002098000e+00 -5.000000000e-06
1054000000.0 9.988800000e-01 -5.199000000e-03
1058500000.0 9.991320000e-01 2.110000000e-04
1063000000.0 9.994750000e-01 -6.370000000e-04
1067500000.0 1.003036000e+00 -5.068000000e-03
1072000000.0 9.982780000e-01 -1.559000000e-03
1076500000.0 1.001908000e+00 2.140000000e-04
1081000000.0 1.005058000e+00 -2.890000000e-04
1085500000.0 1.002865000e+00 -1.880000000e-03
1090000000.0 9.990390000e-01 -1.813000000e-03
1094500000.0 1.000834000e+00 8.586000000e-03
1099000000.0 1.002060000e+00 -4.552000000e-03
1103500000.0 9.990210000e-01 -2.503000000e-03
1108000000.0 1.003538000e+00 8.920000000e-04
1112500000.0 1.003888000e+00 -6.912000000e-03
1117000000.0 1.003699000e+00 -6.480000000e-03
1121500000.0 1.001732000e+00 -2.613000000e-03
1126000000.0 1.005792000e+00 -1.290200000e-02
1130500000.0 9.877610000e-01 -6.020200000e-02
1135000000.0 1.006605000e+00 -2.213900000e-02
1139500000.0 1.006830000e+00 -8.338000000e-03
1144000000.0 1.003204000e+00 -1.991300000e-02
1148500000.0 1.007022000e+00 -3.243900000e-02
1153000000.0 1.006611000e+00 1.367200000e-02
1157500000.0 1.009530000e+00 3.243100000e-02
1162000000.0 1.003995000e+00 -2.691000000e-03
1166500000.0 1.004867000e+00 -2.845000000e-03
1171000000.0 1.006525000e+00 -3.322000000e-03
1175500000.0 1.006104000e+00 -7.140000000e-03
1180000000.0 1.002011000e+00 -7.666000000e-03
1184500000.0 1.001114000e+00 -6.160000000e-03
1189000000.0 1.005807000e+00 -1.069000000e-03
1193500000.0 1.006378000e+00 -7.340000000e-04
1198000000.0 1.004289000e+00 1.951000000e-03
1202500000.0 1.003954000e+00 -8.960000000e-03
1207000000.0 1.002953000e+00 -3.173000000e-03
1211500000.0 1.005644000e+00 -8.280000000e-03
1216000000.0 1.003665000e+00 -2.416000000e-03
1220500000.0 1.006968000e+00 3.777000000e-03
1225000000.0 9.993420000e-01 -8.457000000e-03
1229500000.0 1.002758000e+00 -1.931000000e-03
1234000000.0 1.004763000e+00 -8.102000000e-03
1238500000.0 1.003679000e+00 -1.503600000e-02
1243000000.0 1.005556000e+00 -5.101000000e-03
1247500000.0 1.002582000e+00 -2.840000000e-03
1252000000.0 1.003077000e+00 -4.450000000e-04
1256500000.0 1.007818000e+00 -2.344000000e-03
1261000000.0 1.007995000e+00 4.799000000e-03
1265500000.0 1.007258000e+00 2.910000000e-04
1270000000.0 1.002968000e+00 -3.342000000e-03
1274500000.0 1.009966000e+00 2.172000000e-03
1279000000.0 1.001218000e+00 -9.530000000e-04
1283500000.0 1.002134000e+00 -1.822000000e-03
1288000000.0 9.995530000e-01 -1.525000000e-03
1292500000.0 1.005293000e+00 -4.157000000e-03
1297000000.0 1.005170000e+00 -8.171000000e-03
1301500000.0 1.001080000e+00 -6.758000000e-03
1306000000.0 1.005309000e+00 2.811000000e-03
1310500000.0 1.002792000e+00 1.640000000e-03
1315000000.0 1.004410000e+00 8.501000000e-03
1319500000.0 1.000504000e+00 -5.820000000e-04
1324000000.0 1.002346000e+00 1.227500000e-02
1328500000.0 1.002051000e+00 1.327000000e-03
1333000000.0 1.003165000e+00 5.218000000e-03
1337500000.0 1.012044000e+00 4.406000000e-03
1342000000.0 1.000930000e+00 2.153000000e-03
1346500000.0 1.003712000e+00 2.536000000e-03
1351000000.0 1.001306000e+00 1.900000000e-05
1355500000.0 1.003383000e+00 1.730000000e-04
1360000000.0 1.006041000e+00 3.914000000e-03
1364500000.0 1.000946000e+00 -2.602000000e-03
1369000000.0 1.005097000e+00 9.336000000e-03
1373500000.0 9.997040000e-01 -6.046000000e-03
1378000000.0 1.006260000e+00 1.161900000e-02
1382500000.0 1.000023000e+00 5.155000000e-03
1387000000.0 1.003466000e+00 1.202600000e-02
1391500000.0 1.004159000e+00 1.003200000e-02
1396000000.0 1.005318000e+00 8.454000000e-03
1400500000.0 9.987430000e-01 1.330400000e-02
1405000000.0 1.005533000e+00 6.342000000e-03
1409500000.0 1.007183000e+00 2.043400000e-02
1414000000.0 1.008288000e+00 1.775000000e-02
1418500000.0 1.005792000e+00 7.607000000e-03
1423000000.0 9.979540000e-01 2.381100000e-02
1427500000.0 1.002645000e+00 2.595400000e-02
1432000000.0 1.002752000e+00 1.598400000e-02
1436500000.0 1.000951000e+00 1.391700000e-02
1441000000.0 1.002413000e+00 1.728900000e-02
1445500000.0 1.002034000e+00 4.454000000e-03
1450000000.0 1.003410000e+00 1.192500000e-02
