! piloto_saltos / abierto_51puntos / r05
# HZ S RI R 50
50000.0 1.006105000e+00 -7.071600000e-02
69000.0 1.005196000e+00 -4.371000000e-02
88000.0 1.001149000e+00 -1.694500000e-02
107000.0 1.000892000e+00 9.238000000e-03
126000.0 1.002670000e+00 3.210800000e-02
145000.0 1.000945000e+00 5.842000000e-02
164000.0 1.002096000e+00 8.130300000e-02
183000.0 1.003425000e+00 1.061390000e-01
202000.0 1.003319000e+00 1.296690000e-01
221000.0 1.004901000e+00 1.524830000e-01
240000.0 1.004543000e+00 1.751570000e-01
259000.0 1.005659000e+00 1.976550000e-01
278000.0 1.005725000e+00 2.195780000e-01
297000.0 1.006033000e+00 2.421920000e-01
316000.0 1.006950000e+00 2.643410000e-01
335000.0 1.007220000e+00 2.856900000e-01
354000.0 1.008593000e+00 3.073000000e-01
373000.0 1.008074000e+00 3.287140000e-01
392000.0 1.008839000e+00 3.491930000e-01
411000.0 1.009391000e+00 3.711410000e-01
430000.0 1.009985000e+00 3.914690000e-01
449000.0 1.010931000e+00 4.124390000e-01
468000.0 1.010898000e+00 4.331000000e-01
487000.0 9.856250000e-01 3.192860000e-01
506000.0 1.012219000e+00 4.732430000e-01
525000.0 1.012558000e+00 4.924050000e-01
544000.0 1.013229000e+00 5.126450000e-01
563000.0 1.015755000e+00 5.321870000e-01
582000.0 1.017272000e+00 5.528680000e-01
601000.0 1.017650000e+00 5.714360000e-01
620000.0 1.019314000e+00 5.912230000e-01
639000.0 1.019460000e+00 6.101470000e-01
658000.0 1.021407000e+00 6.300680000e-01
677000.0 1.022303000e+00 6.498810000e-01
696000.0 1.025120000e+00 6.670270000e-01
715000.0 1.026786000e+00 6.868660000e-01
734000.0 1.028773000e+00 7.056500000e-01
753000.0 1.030905000e+00 7.238120000e-01
772000.0 1.033912000e+00 7.439700000e-01
791000.0 1.036012000e+00 7.614000000e-01
810000.0 1.038221000e+00 7.810610000e-01
829000.0 1.040903000e+00 8.002050000e-01
848000.0 1.045949000e+00 8.180180000e-01
867000.0 1.050608000e+00 8.359610000e-01
886000.0 1.053403000e+00 8.531200000e-01
905000.0 1.055672000e+00 8.708010000e-01
924000.0 1.061026000e+00 8.893070000e-01
943000.0 1.065938000e+00 9.072750000e-01
962000.0 1.070712000e+00 9.246430000e-01
981000.0 1.075914000e+00 9.421490000e-01
1000000.0 1.081280000e+00 9.601830000e-01
1180000.0 1.166789000e+00 1.093734000e+00
1360000.0 1.261090000e+00 1.247684000e+00
1540000.0 1.412372000e+00 1.334472000e+00
1720000.0 1.592407000e+00 1.327668000e+00
1900000.0 1.765517000e+00 1.292935000e+00
2080000.0 1.899677000e+00 1.158007000e+00
2260000.0 1.964811000e+00 9.800570000e-01
2440000.0 1.959711000e+00 8.048980000e-01
2620000.0 1.910655000e+00 6.535600000e-01
2800000.0 1.839782000e+00 5.341050000e-01
2980000.0 1.762587000e+00 4.399480000e-01
3160000.0 1.623116000e+00 2.623410000e-01
3340000.0 1.613872000e+00 3.441020000e-01
3520000.0 1.553584000e+00 2.699820000e-01
3700000.0 1.500122000e+00 2.335850000e-01
3880000.0 1.453302000e+00 1.982540000e-01
4060000.0 1.413095000e+00 1.653500000e-01
4240000.0 1.378006000e+00 1.369580000e-01
4420000.0 1.349678000e+00 1.091130000e-01
4600000.0 1.325182000e+00 8.142300000e-02
4780000.0 1.305719000e+00 5.641900000e-02
4960000.0 1.290609000e+00 3.075800000e-02
5140000.0 1.270692000e+00 5.654000000e-03
5320000.0 1.262254000e+00 -2.004500000e-02
5500000.0 1.254092000e+00 -4.239700000e-02
5680000.0 1.247013000e+00 -6.552900000e-02
5860000.0 1.241385000e+00 -8.736600000e-02
6040000.0 1.235440000e+00 -1.080130000e-01
6220000.0 1.231776000e+00 -1.264860000e-01
6400000.0 1.228504000e+00 -1.428650000e-01
6580000.0 1.223843000e+00 -1.582570000e-01
6760000.0 1.222722000e+00 -1.704190000e-01
6940000.0 1.220060000e+00 -1.806960000e-01
7120000.0 1.219838000e+00 -1.880430000e-01
7300000.0 1.218961000e+00 -1.927800000e-01
7480000.0 1.219709000e+00 -1.926990000e-01
7660000.0 -2.412630000e-01 -1.258721000e+00
7840000.0 -2.406570000e-01 -1.259273000e+00
8020000.0 -2.392180000e-01 -1.261407000e+00
8200000.0 -2.369880000e-01 -1.261507000e+00
8380000.0 -2.354380000e-01 -1.262508000e+00
8560000.0 -2.360820000e-01 -1.264372000e+00
8740000.0 -2.332820000e-01 -1.264455000e+00
8920000.0 -2.320860000e-01 -1.266721000e+00
9100000.0 -2.301830000e-01 -1.268345000e+00
9280000.0 -2.294700000e-01 -1.269587000e+00
9460000.0 -2.284500000e-01 -1.270307000e+00
9640000.0 -2.269160000e-01 -1.272512000e+00
9820000.0 -2.250590000e-01 -1.274016000e+00
10000000.0 -2.252130000e-01 -1.275933000e+00
11800000.0 -2.121570000e-01 -1.293343000e+00
13600000.0 -2.012430000e-01 -1.315188000e+00
15400000.0 -1.878080000e-01 -1.336805000e+00
17200000.0 -1.747190000e-01 -1.360162000e+00
19000000.0 -1.604240000e-01 -1.383980000e+00
20800000.0 -1.423590000e-01 -1.410071000e+00
22600000.0 -1.270760000e-01 -1.436363000e+00
24400000.0 -1.085610000e-01 -1.462283000e+00
26200000.0 -8.862800000e-02 -1.490316000e+00
28000000.0 -6.349400000e-02 -1.519747000e+00
29800000.0 -3.840200000e-02 -1.547690000e+00
31600000.0 -1.711500000e-01 -1.345185000e+00
33400000.0 1.950000000e-02 -1.605322000e+00
35200000.0 5.159700000e-02 -1.634151000e+00
37000000.0 8.590000000e-02 -1.664334000e+00
38800000.0 1.253070000e-01 -1.693824000e+00
40600000.0 1.666990000e-01 -1.722694000e+00
42400000.0 2.131720000e-01 -1.748057000e+00
44200000.0 2.593400000e-01 -1.775534000e+00
46000000.0 3.121010000e-01 -1.801205000e+00
47800000.0 3.675260000e-01 -1.821897000e+00
49600000.0 4.279200000e-01 -1.843603000e+00
51400000.0 4.893370000e-01 -1.859551000e+00
53200000.0 5.546910000e-01 -1.871966000e+00
55000000.0 6.257500000e-01 -1.882372000e+00
56800000.0 6.973360000e-01 -1.884838000e+00
58600000.0 7.713590000e-01 -1.882242000e+00
60400000.0 8.512450000e-01 -1.876976000e+00
62200000.0 9.270090000e-01 -1.863278000e+00
64000000.0 1.005368000e+00 -1.841878000e+00
65800000.0 1.085350000e+00 -1.812981000e+00
67600000.0 1.161125000e+00 -1.777107000e+00
69400000.0 1.232538000e+00 -1.733681000e+00
71200000.0 1.302786000e+00 -1.685447000e+00
73000000.0 1.367230000e+00 -1.626259000e+00
74800000.0 1.427901000e+00 -1.566595000e+00
76600000.0 1.480970000e+00 -1.500502000e+00
78400000.0 1.528171000e+00 -1.429804000e+00
80200000.0 1.567453000e+00 -1.357318000e+00
82000000.0 1.599208000e+00 -1.285395000e+00
83800000.0 1.625375000e+00 -1.209691000e+00
85600000.0 1.646089000e+00 -1.135448000e+00
87400000.0 1.657532000e+00 -1.061500000e+00
89200000.0 1.662832000e+00 -9.907820000e-01
91000000.0 1.664394000e+00 -9.218540000e-01
92800000.0 1.659409000e+00 -8.561920000e-01
94600000.0 1.653160000e+00 -7.911370000e-01
96400000.0 1.641482000e+00 -7.302240000e-01
98200000.0 1.625818000e+00 -6.740110000e-01
100000000.0 1.611100000e+00 -6.200490000e-01
118000000.0 1.377946000e+00 -2.450570000e-01
136000000.0 1.147472000e+00 -6.910100000e-02
154000000.0 1.000378000e+00 3.750000000e-04
172000000.0 1.003058000e+00 -4.900000000e-04
190000000.0 1.004647000e+00 -1.498000000e-03
208000000.0 1.006025000e+00 -1.979000000e-03
226000000.0 1.006385000e+00 -1.381000000e-03
244000000.0 1.006014000e+00 -1.106000000e-03
262000000.0 1.004942000e+00 -1.440000000e-04
280000000.0 1.003302000e+00 -1.821600000e-02
298000000.0 1.001183000e+00 -1.566000000e-03
316000000.0 1.003674000e+00 -7.650000000e-04
334000000.0 1.010011000e+00 1.818500000e-02
352000000.0 1.006743000e+00 -3.380000000e-04
370000000.0 1.006751000e+00 2.037000000e-03
388000000.0 1.006525000e+00 -2.760000000e-04
406000000.0 1.004403000e+00 3.341000000e-03
424000000.0 1.001289000e+00 1.663000000e-03
442000000.0 9.987700000e-01 1.043000000e-03
460000000.0 1.001247000e+00 4.714000000e-03
478000000.0 1.004150000e+00 3.392000000e-03
496000000.0 1.007735000e+00 6.065000000e-03
514000000.0 1.007366000e+00 9.187000000e-03
532000000.0 1.008974000e+00 5.449000000e-03
550000000.0 1.010297000e+00 9.613000000e-03
568000000.0 1.005984000e+00 5.395000000e-03
586000000.0 1.005118000e+00 1.021700000e-02
604000000.0 1.004647000e+00 4.818000000e-03
622000000.0 1.008264000e+00 7.782000000e-03
640000000.0 1.013424000e+00 9.570000000e-03
658000000.0 1.014921000e+00 1.094900000e-02
676000000.0 1.015972000e+00 6.307000000e-03
694000000.0 1.019273000e+00 8.085000000e-03
712000000.0 1.010965000e+00 2.541000000e-03
730000000.0 1.010134000e+00 4.573000000e-03
748000000.0 1.001273000e+00 1.409000000e-03
766000000.0 1.005791000e+00 -2.327000000e-03
784000000.0 1.011753000e+00 -4.971000000e-03
802000000.0 1.015802000e+00 -5.494000000e-03
820000000.0 1.019133000e+00 -5.362000000e-03
838000000.0 1.018152000e+00 -2.940000000e-03
856000000.0 1.013635000e+00 -5.691000000e-03
874000000.0 1.010760000e+00 -5.352000000e-03
892000000.0 9.975420000e-01 -1.876000000e-03
910000000.0 1.002851000e+00 -2.367000000e-03
928000000.0 1.005199000e+00 -4.494000000e-03
946000000.0 1.002535000e+00 -8.006000000e-03
964000000.0 1.002974000e+00 -9.767000000e-03
982000000.0 1.002946000e+00 -6.581000000e-03
1000000000.0 1.003676000e+00 -5.403000000e-03
1009000000.0 1.005063000e+00 -6.800000000e-03
1018000000.0 1.002315000e+00 -4.239000000e-03
1027000000.0 1.002062000e+00 -1.960000000e-03
1036000000.0 1.001366000e+00 -3.322000000e-03
1045000000.0 9.987840000e-01 -3.496000000e-03
1054000000.0 9.979180000e-01 1.708000000e-03
1063000000.0 1.002400000e+00 -2.079000000e-03
1072000000.0 1.000712000e+00 2.850000000e-04
1081000000.0 1.004647000e+00 -4.023000000e-03
1090000000.0 9.901620000e-01 -7.771000000e-02
1099000000.0 1.002939000e+00 -6.466000000e-03
1108000000.0 1.002285000e+00 -4.660000000e-04
1117000000.0 1.005665000e+00 5.259000000e-03
1126000000.0 1.005251000e+00 -5.234000000e-03
1135000000.0 1.006929000e+00 -6.235000000e-03
1144000000.0 1.003693000e+00 -5.285000000e-03
1153000000.0 1.007278000e+00 -5.654000000e-03
1162000000.0 1.005113000e+00 -3.149000000e-03
1171000000.0 1.005854000e+00 -4.770000000e-04
1180000000.0 1.004433000e+00 -7.565000000e-03
1189000000.0 1.008203000e+00 -3.788000000e-03
1198000000.0 1.002715000e+00 -2.987000000e-03
1207000000.0 1.004900000e+00 -9.415000000e-03
1216000000.0 1.001954000e+00 -3.767000000e-03
1225000000.0 1.001978000e+00 -7.796000000e-03
1234000000.0 1.001461000e+00 -6.978000000e-03
1243000000.0 1.006758000e+00 -9.247000000e-03
1252000000.0 1.003119000e+00 -3.332000000e-03
1261000000.0 1.003556000e+00 5.020000000e-04
1270000000.0 1.002890000e+00 -8.905000000e-03
1279000000.0 1.004914000e+00 1.024000000e-03
1288000000.0 1.004262000e+00 2.881000000e-03
1297000000.0 1.006431000e+00 -1.981000000e-03
1306000000.0 1.003736000e+00 -1.958000000e-03
1315000000.0 1.002721000e+00 3.703000000e-03
1324000000.0 1.008717000e+00 3.664000000e-03
1333000000.0 1.002057000e+00 4.298000000e-03
1342000000.0 1.003690000e+00 -1.327000000e-03
1351000000.0 1.000160000e+00 2.112000000e-03
1360000000.0 1.000806000e+00 2.849000000e-03
1369000000.0 1.006817000e+00 1.400700000e-02
1378000000.0 1.002743000e+00 9.810000000e-03
1387000000.0 9.978280000e-01 1.036400000e-02
1396000000.0 1.004561000e+00 2.175400000e-02
1405000000.0 1.003695000e+00 3.058000000e-03
1414000000.0 1.007056000e+00 1.609600000e-02
1423000000.0 1.004111000e+00 2.140200000e-02
1432000000.0 1.003689000e+00 2.107900000e-02
1441000000.0 9.996620000e-01 1.308400000e-02
1450000000.0 1.003101000e+00 1.531400000e-02
