! piloto_saltos / abierto_pausado / r06
# HZ S RI R 50
50000.0 1.007319000e+00 -7.085300000e-02
59500.0 1.004789000e+00 -5.541400000e-02
69000.0 1.003779000e+00 -4.196600000e-02
78500.0 1.001929000e+00 -2.988400000e-02
88000.0 1.001508000e+00 -1.718200000e-02
97500.0 1.000649000e+00 -4.328000000e-03
107000.0 9.998430000e-01 8.247000000e-03
116500.0 1.000424000e+00 2.068100000e-02
126000.0 9.978880000e-01 3.246900000e-02
135500.0 1.000818000e+00 4.469700000e-02
145000.0 1.001449000e+00 5.675700000e-02
154500.0 1.001236000e+00 6.864600000e-02
164000.0 1.002316000e+00 8.136100000e-02
173500.0 1.002021000e+00 9.257800000e-02
183000.0 1.002543000e+00 1.046570000e-01
192500.0 1.002515000e+00 1.156650000e-01
202000.0 1.003369000e+00 1.278230000e-01
211500.0 1.003094000e+00 1.402940000e-01
221000.0 1.004013000e+00 1.517130000e-01
230500.0 1.004352000e+00 1.626960000e-01
240000.0 1.004354000e+00 1.740470000e-01
249500.0 1.004200000e+00 1.854930000e-01
259000.0 1.005550000e+00 1.970460000e-01
268500.0 1.005060000e+00 2.081080000e-01
278000.0 1.005288000e+00 2.191890000e-01
287500.0 1.005957000e+00 2.291190000e-01
297000.0 1.006390000e+00 2.412440000e-01
306500.0 1.006577000e+00 2.518940000e-01
316000.0 1.006441000e+00 2.628510000e-01
325500.0 1.006724000e+00 2.729950000e-01
335000.0 1.007519000e+00 2.846900000e-01
344500.0 1.007027000e+00 2.951480000e-01
354000.0 1.006518000e+00 3.061330000e-01
363500.0 1.007888000e+00 3.162430000e-01
373000.0 1.007393000e+00 3.266350000e-01
382500.0 1.007788000e+00 3.373760000e-01
392000.0 1.008433000e+00 3.476390000e-01
401500.0 1.008004000e+00 3.581520000e-01
411000.0 1.008986000e+00 3.687320000e-01
420500.0 1.009575000e+00 3.798020000e-01
430000.0 1.010142000e+00 3.892440000e-01
439500.0 1.009839000e+00 3.989670000e-01
449000.0 1.010404000e+00 4.104850000e-01
458500.0 1.010012000e+00 4.204180000e-01
468000.0 1.010525000e+00 4.302110000e-01
477500.0 1.011526000e+00 4.395440000e-01
487000.0 1.010728000e+00 4.501260000e-01
496500.0 1.010981000e+00 4.601940000e-01
506000.0 1.011680000e+00 4.701520000e-01
515500.0 1.011831000e+00 4.800400000e-01
525000.0 1.012704000e+00 4.905270000e-01
534500.0 1.013932000e+00 5.008800000e-01
544000.0 1.013908000e+00 5.104430000e-01
553500.0 1.013391000e+00 5.208760000e-01
563000.0 1.015114000e+00 5.300700000e-01
572500.0 1.014764000e+00 5.402520000e-01
582000.0 1.015837000e+00 5.502800000e-01
591500.0 1.015744000e+00 5.598760000e-01
601000.0 1.016540000e+00 5.693370000e-01
610500.0 1.016476000e+00 5.791670000e-01
620000.0 1.016972000e+00 5.882050000e-01
629500.0 1.017887000e+00 5.975590000e-01
639000.0 1.018540000e+00 6.075520000e-01
648500.0 1.019182000e+00 6.174160000e-01
658000.0 1.020741000e+00 6.268620000e-01
667500.0 1.019761000e+00 6.366920000e-01
677000.0 1.021588000e+00 6.462270000e-01
686500.0 1.022382000e+00 6.560200000e-01
696000.0 1.023389000e+00 6.644540000e-01
705500.0 1.024106000e+00 6.743130000e-01
715000.0 1.025378000e+00 6.845960000e-01
724500.0 1.025971000e+00 6.933640000e-01
734000.0 1.027393000e+00 7.028780000e-01
743500.0 1.028216000e+00 7.116540000e-01
753000.0 1.028912000e+00 7.210540000e-01
762500.0 1.030784000e+00 7.303520000e-01
772000.0 1.031575000e+00 7.397620000e-01
781500.0 1.032369000e+00 7.493260000e-01
791000.0 1.033500000e+00 7.584680000e-01
800500.0 1.035074000e+00 7.678420000e-01
810000.0 1.037785000e+00 7.766470000e-01
819500.0 1.038472000e+00 7.860350000e-01
829000.0 1.039809000e+00 7.956970000e-01
838500.0 1.041317000e+00 8.055400000e-01
848000.0 1.042633000e+00 8.134920000e-01
857500.0 1.044240000e+00 8.224750000e-01
867000.0 1.046903000e+00 8.329220000e-01
876500.0 1.048104000e+00 8.409560000e-01
886000.0 1.051215000e+00 8.498020000e-01
895500.0 1.052222000e+00 8.583340000e-01
905000.0 1.054627000e+00 8.676840000e-01
914500.0 1.056837000e+00 8.763430000e-01
924000.0 1.058955000e+00 8.849650000e-01
933500.0 1.061095000e+00 8.949270000e-01
943000.0 1.062792000e+00 9.028520000e-01
952500.0 1.066489000e+00 9.118950000e-01
962000.0 1.068322000e+00 9.196140000e-01
971500.0 1.070134000e+00 9.283300000e-01
981000.0 1.073520000e+00 9.379570000e-01
990500.0 1.074681000e+00 9.478110000e-01
1000000.0 1.078327000e+00 9.552000000e-01
1090000.0 1.105301000e+00 1.035800000e+00
1180000.0 1.144331000e+00 1.110862000e+00
1270000.0 1.194163000e+00 1.180757000e+00
1360000.0 1.255361000e+00 1.243395000e+00
1450000.0 1.322908000e+00 1.296055000e+00
1540000.0 1.402342000e+00 1.332466000e+00
1630000.0 1.489207000e+00 1.353862000e+00
1720000.0 1.578501000e+00 1.355553000e+00
1810000.0 1.669023000e+00 1.334536000e+00
1900000.0 1.755463000e+00 1.298944000e+00
1990000.0 1.828475000e+00 1.239471000e+00
2080000.0 1.890810000e+00 1.165182000e+00
2170000.0 1.934079000e+00 1.083525000e+00
2260000.0 1.962812000e+00 9.908650000e-01
2350000.0 1.965831000e+00 9.047350000e-01
2440000.0 1.958565000e+00 8.147260000e-01
2530000.0 1.940762000e+00 7.368910000e-01
2620000.0 1.913087000e+00 6.644420000e-01
2710000.0 1.879246000e+00 5.989740000e-01
2800000.0 1.844645000e+00 5.414000000e-01
2890000.0 1.804062000e+00 4.435090000e-01
2980000.0 1.766713000e+00 4.497610000e-01
3070000.0 1.727422000e+00 4.101210000e-01
3160000.0 1.691181000e+00 3.744950000e-01
3250000.0 1.654510000e+00 3.445870000e-01
3340000.0 1.619089000e+00 3.184810000e-01
3430000.0 1.587105000e+00 2.953400000e-01
3520000.0 1.557068000e+00 2.725300000e-01
3610000.0 1.529953000e+00 2.507010000e-01
3700000.0 1.502759000e+00 2.336440000e-01
3790000.0 1.478517000e+00 2.138940000e-01
3880000.0 1.455477000e+00 1.972600000e-01
3970000.0 1.433617000e+00 1.821810000e-01
4060000.0 1.414003000e+00 1.657220000e-01
4150000.0 1.397771000e+00 1.510210000e-01
4240000.0 1.379424000e+00 1.369800000e-01
4330000.0 1.364190000e+00 1.225990000e-01
4420000.0 1.349580000e+00 1.083400000e-01
4510000.0 1.338912000e+00 9.446200000e-02
4600000.0 1.326200000e+00 8.230800000e-02
4690000.0 1.315266000e+00 6.840300000e-02
4780000.0 1.308039000e+00 5.556600000e-02
4870000.0 1.298342000e+00 4.315600000e-02
4960000.0 1.291889000e+00 3.010300000e-02
5050000.0 1.277381000e+00 1.795700000e-02
5140000.0 1.271521000e+00 5.525000000e-03
5230000.0 1.267624000e+00 -6.948000000e-03
5320000.0 1.263837000e+00 -1.983800000e-02
5410000.0 1.258774000e+00 -3.021200000e-02
5500000.0 1.255364000e+00 -4.246600000e-02
5590000.0 1.251868000e+00 -5.363300000e-02
5680000.0 1.247801000e+00 -6.506200000e-02
5770000.0 1.246040000e+00 -7.775100000e-02
5860000.0 1.242227000e+00 -8.668800000e-02
5950000.0 1.240307000e+00 -9.692900000e-02
6040000.0 1.237573000e+00 -1.067530000e-01
6130000.0 1.234271000e+00 -1.184120000e-01
6220000.0 1.232578000e+00 -1.268610000e-01
6310000.0 1.230954000e+00 -1.358850000e-01
6400000.0 1.229259000e+00 -1.442140000e-01
6490000.0 1.226585000e+00 -1.520880000e-01
6580000.0 1.224714000e+00 -1.586720000e-01
6670000.0 1.223892000e+00 -1.661610000e-01
6760000.0 1.222678000e+00 -1.716390000e-01
6850000.0 1.222195000e+00 -1.767430000e-01
6940000.0 1.221986000e+00 -1.822670000e-01
7030000.0 1.219974000e+00 -1.859890000e-01
7120000.0 1.220158000e+00 -1.896220000e-01
7210000.0 1.219666000e+00 -1.912990000e-01
7300000.0 1.219647000e+00 -1.922300000e-01
7390000.0 1.218981000e+00 -1.937920000e-01
7480000.0 1.219953000e+00 -1.936270000e-01
7570000.0 -2.421450000e-01 -1.257224000e+00
7660000.0 -2.420180000e-01 -1.259812000e+00
7750000.0 -2.424920000e-01 -1.259620000e+00
7840000.0 -2.404630000e-01 -1.259978000e+00
7930000.0 -2.386600000e-01 -1.259749000e+00
8020000.0 -2.390850000e-01 -1.261759000e+00
8110000.0 -2.382040000e-01 -1.260752000e+00
8200000.0 -2.390180000e-01 -1.262099000e+00
8290000.0 -2.363830000e-01 -1.262205000e+00
8380000.0 -2.366060000e-01 -1.263862000e+00
8470000.0 -2.359610000e-01 -1.263657000e+00
8560000.0 -2.359720000e-01 -1.264416000e+00
8650000.0 -2.345110000e-01 -1.264113000e+00
8740000.0 -2.338240000e-01 -1.265450000e+00
8830000.0 -2.334780000e-01 -1.266798000e+00
8920000.0 -2.319580000e-01 -1.265827000e+00
9010000.0 -2.309450000e-01 -1.266900000e+00
9100000.0 -2.302690000e-01 -1.268571000e+00
9190000.0 -2.298470000e-01 -1.268785000e+00
9280000.0 -2.293390000e-01 -1.270504000e+00
9370000.0 -2.291450000e-01 -1.269983000e+00
9460000.0 -2.281460000e-01 -1.270349000e+00
9550000.0 -2.284400000e-01 -1.270927000e+00
9640000.0 -2.273790000e-01 -1.272246000e+00
9730000.0 -2.269840000e-01 -1.273440000e+00
9820000.0 -2.258590000e-01 -1.274095000e+00
9910000.0 -2.259050000e-01 -1.274375000e+00
10000000.0 -2.241350000e-01 -1.275424000e+00
10900000.0 -2.193710000e-01 -1.285076000e+00
11800000.0 -2.121670000e-01 -1.294144000e+00
12700000.0 -2.057870000e-01 -1.304103000e+00
13600000.0 -2.008470000e-01 -1.314615000e+00
14500000.0 -1.943600000e-01 -1.325673000e+00
15400000.0 -1.892450000e-01 -1.337328000e+00
16300000.0 -1.824250000e-01 -1.349641000e+00
17200000.0 -1.765890000e-01 -1.360481000e+00
18100000.0 -1.684220000e-01 -1.371805000e+00
19000000.0 -1.611290000e-01 -1.384728000e+00
19900000.0 -1.535820000e-01 -1.396945000e+00
20800000.0 -1.452620000e-01 -1.410895000e+00
21700000.0 -1.357580000e-01 -1.423016000e+00
22600000.0 -1.270070000e-01 -1.437041000e+00
23500000.0 -1.171330000e-01 -1.450254000e+00
24400000.0 -1.096370000e-01 -1.462677000e+00
25300000.0 -9.792000000e-02 -1.477842000e+00
26200000.0 -8.805500000e-02 -1.490721000e+00
27100000.0 -7.580400000e-02 -1.504913000e+00
28000000.0 -6.332500000e-02 -1.518738000e+00
28900000.0 -5.185500000e-02 -1.531756000e+00
29800000.0 -3.955700000e-02 -1.547754000e+00
30700000.0 -2.504700000e-02 -1.561936000e+00
31600000.0 -1.096300000e-02 -1.577139000e+00
32500000.0 2.805000000e-03 -1.592310000e+00
33400000.0 1.988400000e-02 -1.605583000e+00
34300000.0 3.373800000e-02 -1.620664000e+00
35200000.0 5.125900000e-02 -1.635242000e+00
36100000.0 6.956900000e-02 -1.650287000e+00
37000000.0 8.646300000e-02 -1.665426000e+00
37900000.0 1.051880000e-01 -1.679612000e+00
38800000.0 1.263320000e-01 -1.693125000e+00
39700000.0 1.459590000e-01 -1.709589000e+00
40600000.0 1.676390000e-01 -1.722515000e+00
41500000.0 1.891340000e-01 -1.737066000e+00
42400000.0 2.123260000e-01 -1.749693000e+00
43300000.0 2.349780000e-01 -1.763020000e+00
44200000.0 2.607240000e-01 -1.776579000e+00
45100000.0 2.852390000e-01 -1.789410000e+00
46000000.0 3.127800000e-01 -1.800112000e+00
46900000.0 3.389620000e-01 -1.812761000e+00
47800000.0 3.674570000e-01 -1.822425000e+00
48700000.0 3.971540000e-01 -1.832500000e+00
49600000.0 4.270990000e-01 -1.844656000e+00
50500000.0 4.576290000e-01 -1.851881000e+00
51400000.0 4.895610000e-01 -1.859805000e+00
52300000.0 5.216010000e-01 -1.866441000e+00
53200000.0 5.553970000e-01 -1.873333000e+00
54100000.0 5.884830000e-01 -1.878304000e+00
55000000.0 6.260000000e-01 -1.883333000e+00
55900000.0 6.618500000e-01 -1.885178000e+00
56800000.0 6.982530000e-01 -1.884759000e+00
57700000.0 7.357750000e-01 -1.884537000e+00
58600000.0 7.730710000e-01 -1.883997000e+00
59500000.0 8.106530000e-01 -1.881451000e+00
60400000.0 8.482850000e-01 -1.874425000e+00
61300000.0 8.889990000e-01 -1.870909000e+00
62200000.0 9.256020000e-01 -1.862705000e+00
63100000.0 9.668210000e-01 -1.853824000e+00
64000000.0 1.005051000e+00 -1.841141000e+00
64900000.0 1.042230000e+00 -1.828166000e+00
65800000.0 1.084038000e+00 -1.813599000e+00
66700000.0 1.121624000e+00 -1.797153000e+00
67600000.0 1.161222000e+00 -1.775394000e+00
68500000.0 1.196384000e+00 -1.756624000e+00
69400000.0 1.234000000e+00 -1.734022000e+00
70300000.0 1.268096000e+00 -1.708882000e+00
71200000.0 1.301965000e+00 -1.684587000e+00
72100000.0 1.336482000e+00 -1.657259000e+00
73000000.0 1.367843000e+00 -1.628831000e+00
73900000.0 1.398538000e+00 -1.596413000e+00
74800000.0 1.428375000e+00 -1.568009000e+00
75700000.0 1.455085000e+00 -1.534148000e+00
76600000.0 1.478472000e+00 -1.500822000e+00
77500000.0 1.505308000e+00 -1.466971000e+00
78400000.0 1.527008000e+00 -1.429501000e+00
79300000.0 1.548810000e+00 -1.394598000e+00
80200000.0 1.567916000e+00 -1.358459000e+00
81100000.0 1.583512000e+00 -1.321690000e+00
82000000.0 1.601022000e+00 -1.285051000e+00
82900000.0 1.613931000e+00 -1.247782000e+00
83800000.0 1.625528000e+00 -1.210229000e+00
84700000.0 1.635879000e+00 -1.173040000e+00
85600000.0 1.643968000e+00 -1.135133000e+00
86500000.0 1.651374000e+00 -1.100369000e+00
87400000.0 1.656411000e+00 -1.061840000e+00
88300000.0 1.659261000e+00 -1.026842000e+00
89200000.0 1.661231000e+00 -9.919640000e-01
90100000.0 1.664086000e+00 -9.566670000e-01
91000000.0 1.665468000e+00 -9.204080000e-01
91900000.0 1.662293000e+00 -8.864060000e-01
92800000.0 1.660726000e+00 -8.553130000e-01
93700000.0 1.656579000e+00 -8.255220000e-01
94600000.0 1.653497000e+00 -7.930490000e-01
95500000.0 1.647083000e+00 -7.607840000e-01
96400000.0 1.642309000e+00 -7.312160000e-01
97300000.0 1.633966000e+00 -7.017580000e-01
98200000.0 1.628048000e+00 -6.733940000e-01
99100000.0 1.617528000e+00 -6.468510000e-01
100000000.0 1.610766000e+00 -6.198180000e-01
109000000.0 1.502766000e+00 -3.989000000e-01
118000000.0 1.377294000e+00 -2.433290000e-01
127000000.0 1.256817000e+00 -1.385780000e-01
136000000.0 1.147363000e+00 -6.923800000e-02
145000000.0 1.049734000e+00 -1.986900000e-02
154000000.0 9.998270000e-01 2.490000000e-04
163000000.0 1.001998000e+00 -8.020000000e-04
172000000.0 1.003333000e+00 -2.650000000e-04
181000000.0 1.003429000e+00 -1.375000000e-03
190000000.0 1.004717000e+00 -1.431000000e-03
199000000.0 1.005104000e+00 -2.183000000e-03
208000000.0 1.006140000e+00 -1.628000000e-03
217000000.0 1.005989000e+00 -2.298000000e-03
226000000.0 1.005716000e+00 -1.733000000e-03
235000000.0 1.006450000e+00 -4.890000000e-04
244000000.0 1.006122000e+00 -3.370000000e-04
253000000.0 1.006052000e+00 -8.380000000e-04
262000000.0 1.005730000e+00 -7.120000000e-04
271000000.0 1.004664000e+00 -4.110000000e-04
280000000.0 1.004722000e+00 -1.300000000e-05
289000000.0 1.001925000e+00 -9.270000000e-04
298000000.0 1.002000000e+00 3.430000000e-04
307000000.0 1.002345000e+00 9.060000000e-04
316000000.0 1.003072000e+00 1.993000000e-03
325000000.0 1.003810000e+00 -4.630000000e-04
334000000.0 1.003549000e+00 -2.419000000e-03
343000000.0 1.004903000e+00 5.830000000e-04
352000000.0 1.006134000e+00 1.711000000e-03
361000000.0 1.004889000e+00 -1.214000000e-03
370000000.0 1.007523000e+00 7.360000000e-04
379000000.0 1.005036000e+00 -1.699800000e-02
388000000.0 1.005499000e+00 1.049000000e-03
397000000.0 1.005149000e+00 4.820000000e-04
406000000.0 1.005030000e+00 2.614000000e-03
415000000.0 1.011104000e+00 3.449000000e-02
424000000.0 1.003334000e+00 9.580000000e-04
433000000.0 1.000892000e+00 2.509000000e-03
442000000.0 9.991970000e-01 1.769000000e-03
451000000.0 9.987030000e-01 -1.224000000e-03
460000000.0 1.001116000e+00 3.687000000e-03
469000000.0 1.003490000e+00 4.419000000e-03
478000000.0 1.004923000e+00 5.502000000e-03
487000000.0 1.005428000e+00 4.619000000e-03
496000000.0 1.007267000e+00 5.788000000e-03
505000000.0 1.009204000e+00 7.831000000e-03
514000000.0 1.007864000e+00 8.728000000e-03
523000000.0 1.008558000e+00 8.119000000e-03
532000000.0 1.008252000e+00 8.603000000e-03
541000000.0 1.009172000e+00 7.150000000e-03
550000000.0 1.008526000e+00 9.933000000e-03
559000000.0 1.008654000e+00 7.973000000e-03
568000000.0 1.009513000e+00 8.480000000e-03
577000000.0 1.005244000e+00 8.075000000e-03
586000000.0 1.005899000e+00 6.065000000e-03
595000000.0 1.006040000e+00 8.096000000e-03
604000000.0 1.005297000e+00 6.300000000e-03
613000000.0 1.008765000e+00 8.452000000e-03
622000000.0 1.009490000e+00 5.443000000e-03
631000000.0 1.011963000e+00 9.813000000e-03
640000000.0 1.014078000e+00 8.359000000e-03
649000000.0 1.013666000e+00 6.806000000e-03
658000000.0 1.014927000e+00 6.901000000e-03
667000000.0 1.018777000e+00 7.685000000e-03
676000000.0 1.019389000e+00 6.916000000e-03
685000000.0 1.013633000e+00 1.246600000e-02
694000000.0 1.015044000e+00 5.323000000e-03
703000000.0 1.017538000e+00 4.939000000e-03
712000000.0 1.006228000e+00 -2.148400000e-02
721000000.0 1.009027000e+00 7.844000000e-03
730000000.0 1.006161000e+00 3.686000000e-03
739000000.0 1.003239000e+00 4.311000000e-03
748000000.0 1.003834000e+00 -5.720000000e-04
757000000.0 1.005352000e+00 1.639000000e-03
766000000.0 1.007805000e+00 -3.100000000e-03
775000000.0 1.008309000e+00 -5.025000000e-03
784000000.0 1.012641000e+00 -1.390000000e-03
793000000.0 1.016618000e+00 -1.447000000e-03
802000000.0 1.017629000e+00 -3.819000000e-03
811000000.0 1.016627000e+00 -3.169000000e-03
820000000.0 1.016463000e+00 -6.804000000e-03
829000000.0 1.017890000e+00 -3.456000000e-03
838000000.0 1.016273000e+00 -1.216900000e-02
847000000.0 1.015343000e+00 -5.903000000e-03
856000000.0 1.012669000e+00 -8.723000000e-03
865000000.0 1.013556000e+00 -2.678000000e-03
874000000.0 1.011391000e+00 -8.175000000e-03
883000000.0 1.005956000e+00 -6.100000000e-05
892000000.0 9.993050000e-01 -3.277000000e-03
901000000.0 1.004649000e+00 1.170000000e-03
910000000.0 1.002944000e+00 3.710000000e-04
919000000.0 1.002697000e+00 -2.775000000e-03
928000000.0 1.000614000e+00 -8.115000000e-03
937000000.0 1.006938000e+00 -5.181000000e-03
946000000.0 1.007376000e+00 -9.660000000e-03
955000000.0 1.004095000e+00 -5.990000000e-03
964000000.0 1.003510000e+00 -9.331000000e-03
973000000.0 1.004909000e+00 -6.595000000e-03
982000000.0 1.003024000e+00 -8.905000000e-03
991000000.0 1.007703000e+00 -8.934000000e-03
1000000000.0 1.003464000e+00 -8.797000000e-03
1004500000.0 1.003104000e+00 -6.468000000e-03
1009000000.0 1.002794000e+00 -6.405000000e-03
1013500000.0 1.002777000e+00 -6.535000000e-03
1018000000.0 1.001490000e+00 -3.758000000e-03
1022500000.0 1.003656000e+00 -2.727000000e-03
1027000000.0 1.001996000e+00 -4.238000000e-03
1031500000.0 1.002136000e+00 -5.716000000e-03
1036000000.0 1.002901000e+00 -3.310000000e-04
1040500000.0 1.002880000e+00 -1.860000000e-03
1045000000.0 1.001819000e+00 -2.761000000e-03
1049500000.0 1.000247000e+00 3.596000000e-03
1054000000.0 9.991450000e-01 3.800000000e-04
1058500000.0 1.001250000e+00 1.839000000e-03
1063000000.0 1.000828000e+00 -2.245000000e-03
1067500000.0 1.002177000e+00 3.183000000e-03
1072000000.0 1.000562000e+00 -1.125000000e-03
1076500000.0 1.000477000e+00 4.200000000e-04
1081000000.0 1.001505000e+00 -6.750000000e-04
1085500000.0 9.987590000e-01 -2.984000000e-03
1090000000.0 1.004188000e+00 -2.546000000e-03
1094500000.0 1.004125000e+00 -8.211000000e-03
1099000000.0 1.000015000e+00 -7.198000000e-03
1103500000.0 1.002308000e+00 -1.415000000e-03
1108000000.0 1.005709000e+00 -1.653000000e-03
1112500000.0 1.005017000e+00 -3.262000000e-03
1117000000.0 1.000672000e+00 -3.036000000e-03
1121500000.0 1.000945000e+00 4.010000000e-04
1126000000.0 1.004098000e+00 -3.610000000e-03
1130500000.0 1.003038000e+00 1.217000000e-03
1135000000.0 1.006999000e+00 -1.671000000e-03
1139500000.0 1.000136000e+00 -9.788000000e-03
1144000000.0 1.004404000e+00 -5.067000000e-03
1148500000.0 1.007721000e+00 -6.060000000e-04
1153000000.0 1.007687000e+00 -4.735000000e-03
1157500000.0 1.007774000e+00 1.297200000e-02
1162000000.0 1.003684000e+00 -1.080000000e-03
1166500000.0 1.002041000e+00 -8.667000000e-03
1171000000.0 1.001533000e+00 -8.494000000e-03
1175500000.0 1.004923000e+00 -3.944000000e-03
1180000000.0 1.001049000e+00 -6.223000000e-03
1184500000.0 1.002031000e+00 -6.402000000e-03
1189000000.0 1.010786000e+00 -1.048600000e-02
1193500000.0 1.003198000e+00 -1.846000000e-03
1198000000.0 1.006393000e+00 -4.845000000e-03
1202500000.0 1.002730000e+00 -2.374000000e-03
1207000000.0 1.002351000e+00 -6.089000000e-03
1211500000.0 1.003245000e+00 -5.255000000e-03
1216000000.0 9.983030000e-01 -5.288000000e-03
1220500000.0 1.002729000e+00 -6.616000000e-03
1225000000.0 1.009235000e+00 -7.295000000e-03
1229500000.0 1.007440000e+00 -7.998000000e-03
1234000000.0 1.004797000e+00 -2.250000000e-04
1238500000.0 9.989610000e-01 -5.224000000e-03
1243000000.0 1.001124000e+00 -1.130000000e-03
1247500000.0 1.004123000e+00 5.342000000e-03
1252000000.0 1.001956000e+00 -3.519000000e-03
1256500000.0 1.006647000e+00 -3.610000000e-03
1261000000.0 1.003107000e+00 6.636000000e-03
1265500000.0 1.005292000e+00 4.084000000e-03
1270000000.0 1.000734000e+00 -1.739000000e-03
1274500000.0 1.004614000e+00 3.222000000e-03
1279000000.0 1.003555000e+00 -2.201000000e-03
1283500000.0 1.002513000e+00 -6.537000000e-03
1288000000.0 1.002222000e+00 -2.312000000e-03
1292500000.0 1.001861000e+00 9.893000000e-03
1297000000.0 1.001182000e+00 -1.491000000e-03
1301500000.0 1.002620000e+00 3.271000000e-03
1306000000.0 1.001465000e+00 7.575000000e-03
1310500000.0 1.001429000e+00 2.520000000e-04
1315000000.0 1.005737000e+00 3.852000000e-03
1319500000.0 1.007386000e+00 -5.453000000e-03
1324000000.0 1.004771000e+00 2.989000000e-03
1328500000.0 1.004784000e+00 2.850000000e-04
1333000000.0 1.003188000e+00 6.098000000e-03
1337500000.0 1.003729000e+00 8.407000000e-03
1342000000.0 1.002728000e+00 6.411000000e-03
1346500000.0 1.002753000e+00 2.724000000e-03
1351000000.0 1.004620000e+00 2.128000000e-03
1355500000.0 9.996870000e-01 4.200000000e-03
1360000000.0 1.003812000e+00 -2.403000000e-03
1364500000.0 9.970710000e-01 8.340000000e-03
1369000000.0 1.007148000e+00 1.311700000e-02
1373500000.0 1.000896000e+00 1.231600000e-02
1378000000.0 1.002706000e+00 9.487000000e-03
1382500000.0 1.001556000e+00 -4.360000000e-04
1387000000.0 1.001736000e+00 3.501000000e-03
1391500000.0 1.005101000e+00 1.931400000e-02
1396000000.0 1.005268000e+00 1.182600000e-02
1400500000.0 1.006717000e+00 1.224200000e-02
1405000000.0 1.004293000e+00 1.143400000e-02
1409500000.0 1.004029000e+00 1.936000000e-02
1414000000.0 1.004972000e+00 -1.270000000e-02
1418500000.0 1.005312000e+00 6.385000000e-03
1423000000.0 1.002145000e+00 3.706300000e-02
1427500000.0 1.001046000e+00 2.700100000e-02
1432000000.0 1.003104000e+00 3.649000000e-03
1436500000.0 1.002608000e+00 1.300800000e-02
1441000000.0 1.001693000e+00 3.290900000e-02
1445500000.0 1.003636000e+00 1.956200000e-02
1450000000.0 9.985220000e-01 -7.479000000e-03
