! piloto_saltos / abierto_51puntos / r11
# HZ S RI R 50
50000.0 1.006847000e+00 -7.096000000e-02
69000.0 1.004817000e+00 -4.348300000e-02
88000.0 1.000563000e+00 -1.575200000e-02
107000.0 9.995250000e-01 8.515000000e-03
126000.0 1.002854000e+00 3.110600000e-02
145000.0 1.001245000e+00 5.792000000e-02
164000.0 1.002292000e+00 8.147800000e-02
183000.0 1.002927000e+00 1.057780000e-01
202000.0 1.003353000e+00 1.291260000e-01
221000.0 1.004678000e+00 1.515410000e-01
240000.0 1.005218000e+00 1.747770000e-01
259000.0 1.006089000e+00 1.980270000e-01
278000.0 1.005973000e+00 2.208740000e-01
297000.0 1.006793000e+00 2.428300000e-01
316000.0 1.007298000e+00 2.638830000e-01
335000.0 1.007837000e+00 2.858820000e-01
354000.0 1.007867000e+00 3.077350000e-01
373000.0 1.008048000e+00 3.289330000e-01
392000.0 1.009264000e+00 3.497460000e-01
411000.0 1.009309000e+00 3.705320000e-01
430000.0 1.010000000e+00 3.911880000e-01
449000.0 1.009890000e+00 4.125080000e-01
468000.0 1.011683000e+00 4.330020000e-01
487000.0 1.022042000e+00 4.690370000e-01
506000.0 1.012707000e+00 4.735160000e-01
525000.0 1.013800000e+00 4.930600000e-01
544000.0 1.014872000e+00 5.137620000e-01
563000.0 1.015041000e+00 5.327790000e-01
582000.0 1.016431000e+00 5.527780000e-01
601000.0 1.017756000e+00 5.729060000e-01
620000.0 1.018955000e+00 5.906830000e-01
639000.0 1.021020000e+00 6.099200000e-01
658000.0 1.021135000e+00 6.300950000e-01
677000.0 1.023186000e+00 6.484540000e-01
696000.0 1.025054000e+00 6.676840000e-01
715000.0 1.027806000e+00 6.866960000e-01
734000.0 1.027339000e+00 7.062170000e-01
753000.0 1.031202000e+00 7.257390000e-01
772000.0 1.032876000e+00 7.438520000e-01
791000.0 1.036016000e+00 7.624270000e-01
810000.0 1.039422000e+00 7.810760000e-01
829000.0 1.041761000e+00 7.980570000e-01
848000.0 1.045594000e+00 8.170670000e-01
867000.0 1.049270000e+00 8.355830000e-01
886000.0 1.052494000e+00 8.537680000e-01
905000.0 1.056547000e+00 8.720610000e-01
924000.0 1.061605000e+00 8.903570000e-01
943000.0 1.066742000e+00 9.078360000e-01
962000.0 1.072399000e+00 9.261810000e-01
981000.0 1.075784000e+00 9.419340000e-01
1000000.0 1.081836000e+00 9.594050000e-01
1180000.0 1.151210000e+00 1.116700000e+00
1360000.0 1.280231000e+00 1.224701000e+00
1540000.0 1.410693000e+00 1.335897000e+00
1720000.0 1.586423000e+00 1.356993000e+00
1900000.0 1.768979000e+00 1.295657000e+00
2080000.0 1.898132000e+00 1.157040000e+00
2260000.0 1.963707000e+00 9.790690000e-01
2440000.0 1.962193000e+00 8.061480000e-01
2620000.0 1.912833000e+00 6.540830000e-01
2800000.0 1.841041000e+00 5.346280000e-01
2980000.0 1.762191000e+00 4.428610000e-01
3160000.0 1.651867000e+00 3.303550000e-01
3340000.0 1.615096000e+00 3.106140000e-01
3520000.0 1.553029000e+00 2.263100000e-01
3700000.0 1.499737000e+00 2.313210000e-01
3880000.0 1.453161000e+00 1.978480000e-01
4060000.0 1.412005000e+00 1.659250000e-01
4240000.0 1.378749000e+00 1.354030000e-01
4420000.0 1.348751000e+00 1.080830000e-01
4600000.0 1.325483000e+00 8.139800000e-02
4780000.0 1.305548000e+00 5.617300000e-02
4960000.0 1.291450000e+00 3.011300000e-02
5140000.0 1.270914000e+00 4.155000000e-03
5320000.0 1.262738000e+00 -1.877600000e-02
5500000.0 1.255416000e+00 -4.253800000e-02
5680000.0 1.247091000e+00 -6.517200000e-02
5860000.0 1.241712000e+00 -8.701400000e-02
6040000.0 1.236050000e+00 -1.082400000e-01
6220000.0 1.232410000e+00 -1.259290000e-01
6400000.0 1.228104000e+00 -1.437700000e-01
6580000.0 1.224505000e+00 -1.574800000e-01
6760000.0 1.222345000e+00 -1.712510000e-01
6940000.0 1.221121000e+00 -1.812380000e-01
7120000.0 1.219076000e+00 -1.894670000e-01
7300000.0 1.218506000e+00 -1.927760000e-01
7480000.0 1.219401000e+00 -1.924930000e-01
7660000.0 -2.400380000e-01 -1.258977000e+00
7840000.0 -2.398990000e-01 -1.258962000e+00
8020000.0 -2.376520000e-01 -1.260385000e+00
8200000.0 -2.365330000e-01 -1.261796000e+00
8380000.0 -2.353100000e-01 -1.262344000e+00
8560000.0 -2.351850000e-01 -1.263625000e+00
8740000.0 -2.326290000e-01 -1.264556000e+00
8920000.0 -2.298530000e-01 -1.265624000e+00
9100000.0 -2.304970000e-01 -1.268356000e+00
9280000.0 -2.294780000e-01 -1.269371000e+00
9460000.0 -2.274050000e-01 -1.271713000e+00
9640000.0 -2.263610000e-01 -1.272370000e+00
9820000.0 -2.259370000e-01 -1.274189000e+00
10000000.0 -2.231490000e-01 -1.274982000e+00
11800000.0 -2.134610000e-01 -1.294158000e+00
13600000.0 -2.015090000e-01 -1.314185000e+00
15400000.0 -1.889130000e-01 -1.336736000e+00
17200000.0 -1.744520000e-01 -1.360712000e+00
19000000.0 -1.606120000e-01 -1.384182000e+00
20800000.0 -1.458060000e-01 -1.410411000e+00
22600000.0 -1.273190000e-01 -1.434636000e+00
24400000.0 -1.080150000e-01 -1.462994000e+00
26200000.0 -8.696300000e-02 -1.491059000e+00
28000000.0 -6.515900000e-02 -1.518418000e+00
29800000.0 -3.752400000e-02 -1.547914000e+00
31600000.0 -1.174100000e-02 -1.577137000e+00
33400000.0 1.687400000e-02 -1.603136000e+00
35200000.0 5.288200000e-02 -1.636139000e+00
37000000.0 8.802500000e-02 -1.666084000e+00
38800000.0 1.259690000e-01 -1.693858000e+00
40600000.0 1.676030000e-01 -1.723271000e+00
42400000.0 2.127130000e-01 -1.750712000e+00
44200000.0 2.595750000e-01 -1.775171000e+00
46000000.0 3.138750000e-01 -1.801831000e+00
47800000.0 3.672780000e-01 -1.823866000e+00
49600000.0 4.262830000e-01 -1.842861000e+00
51400000.0 4.861780000e-01 -1.858623000e+00
53200000.0 5.566230000e-01 -1.873097000e+00
55000000.0 6.261990000e-01 -1.880634000e+00
56800000.0 6.997630000e-01 -1.886427000e+00
58600000.0 7.721430000e-01 -1.884284000e+00
60400000.0 8.489070000e-01 -1.876521000e+00
62200000.0 9.282910000e-01 -1.864050000e+00
64000000.0 1.004298000e+00 -1.840200000e+00
65800000.0 1.083712000e+00 -1.812012000e+00
67600000.0 1.160017000e+00 -1.775602000e+00
69400000.0 1.233444000e+00 -1.734160000e+00
71200000.0 1.302747000e+00 -1.683821000e+00
73000000.0 1.369716000e+00 -1.627775000e+00
74800000.0 1.428031000e+00 -1.567935000e+00
76600000.0 1.480200000e+00 -1.501387000e+00
78400000.0 1.528920000e+00 -1.430572000e+00
80200000.0 1.567527000e+00 -1.358781000e+00
82000000.0 1.599717000e+00 -1.284826000e+00
83800000.0 1.624407000e+00 -1.210274000e+00
85600000.0 1.643702000e+00 -1.135753000e+00
87400000.0 1.656774000e+00 -1.061443000e+00
89200000.0 1.663017000e+00 -9.922070000e-01
91000000.0 1.663445000e+00 -9.193780000e-01
92800000.0 1.662863000e+00 -8.553020000e-01
94600000.0 1.652671000e+00 -7.905910000e-01
96400000.0 1.641443000e+00 -7.308690000e-01
98200000.0 1.626165000e+00 -6.744860000e-01
100000000.0 1.608663000e+00 -6.202010000e-01
118000000.0 1.378262000e+00 -2.438560000e-01
136000000.0 1.146867000e+00 -6.849600000e-02
154000000.0 1.000784000e+00 2.300000000e-04
172000000.0 1.003226000e+00 -5.860000000e-04
190000000.0 1.004686000e+00 -3.970000000e-04
208000000.0 1.005665000e+00 -1.906000000e-03
226000000.0 1.006124000e+00 -1.676000000e-03
244000000.0 1.006572000e+00 -2.026000000e-03
262000000.0 1.005049000e+00 -2.180000000e-04
280000000.0 9.957490000e-01 -3.461900000e-02
298000000.0 1.003029000e+00 1.741900000e-02
316000000.0 1.004167000e+00 1.000000000e-04
334000000.0 1.002789000e+00 -1.861400000e-02
352000000.0 1.006938000e+00 1.627000000e-03
370000000.0 1.006824000e+00 1.742000000e-03
388000000.0 1.005391000e+00 8.090000000e-04
406000000.0 1.004551000e+00 5.400000000e-05
424000000.0 1.002321000e+00 1.297000000e-03
442000000.0 1.000120000e+00 1.183000000e-03
460000000.0 1.001845000e+00 2.091000000e-03
478000000.0 1.004797000e+00 2.565000000e-03
496000000.0 1.005949000e+00 4.797000000e-03
514000000.0 1.008965000e+00 6.101000000e-03
532000000.0 1.008460000e+00 6.382000000e-03
550000000.0 1.011113000e+00 9.650000000e-03
568000000.0 1.006447000e+00 7.664000000e-03
586000000.0 1.003389000e+00 4.107000000e-03
604000000.0 1.002270000e+00 5.090000000e-03
622000000.0 1.009306000e+00 6.174000000e-03
640000000.0 1.013106000e+00 6.486000000e-03
658000000.0 1.016932000e+00 8.594000000e-03
676000000.0 1.015775000e+00 4.279000000e-03
694000000.0 1.014740000e+00 6.030000000e-03
712000000.0 1.011047000e+00 2.172000000e-03
730000000.0 1.006716000e+00 4.890000000e-03
748000000.0 1.002751000e+00 2.281000000e-03
766000000.0 1.008461000e+00 -2.134000000e-03
784000000.0 1.014302000e+00 -3.850000000e-03
802000000.0 1.016533000e+00 -3.834000000e-03
820000000.0 1.017598000e+00 -3.396000000e-03
838000000.0 1.016791000e+00 -7.271000000e-03
856000000.0 1.018204000e+00 -4.725000000e-03
874000000.0 1.009364000e+00 5.040000000e-04
892000000.0 1.002668000e+00 1.477000000e-03
910000000.0 1.001263000e+00 1.660500000e-02
928000000.0 1.004756000e+00 -6.768000000e-03
946000000.0 1.003179000e+00 -7.444000000e-03
964000000.0 1.005693000e+00 -1.020500000e-02
982000000.0 1.005699000e+00 -1.057100000e-02
1000000000.0 1.003471000e+00 -4.708000000e-03
1009000000.0 1.002482000e+00 -7.868000000e-03
1018000000.0 1.004238000e+00 -6.562000000e-03
1027000000.0 1.002266000e+00 -4.751000000e-03
1036000000.0 9.990670000e-01 -1.076000000e-03
1045000000.0 1.001083000e+00 2.460000000e-03
1054000000.0 9.980360000e-01 -2.176000000e-03
1063000000.0 9.955460000e-01 3.200000000e-04
1072000000.0 9.996440000e-01 -2.643000000e-03
1081000000.0 1.000290000e+00 3.702000000e-03
1090000000.0 1.003098000e+00 -2.960000000e-04
1099000000.0 1.004527000e+00 -1.684000000e-03
1108000000.0 1.009694000e+00 3.222300000e-02
1117000000.0 9.849070000e-01 -5.317600000e-02
1126000000.0 1.008026000e+00 -4.264000000e-03
1135000000.0 1.001090000e+00 -4.672000000e-03
1144000000.0 1.004956000e+00 -4.300000000e-05
1153000000.0 1.002076000e+00 -9.622000000e-03
1162000000.0 1.005574000e+00 -9.362000000e-03
1171000000.0 1.002222000e+00 -3.470000000e-03
1180000000.0 1.004666000e+00 3.457000000e-03
1189000000.0 1.002078000e+00 -2.869000000e-03
1198000000.0 1.008356000e+00 -1.780000000e-03
1207000000.0 1.001947000e+00 -8.401000000e-03
1216000000.0 1.004703000e+00 2.245000000e-03
1225000000.0 1.000698000e+00 -6.726000000e-03
1234000000.0 1.007553000e+00 -1.604000000e-03
1243000000.0 1.002734000e+00 -2.990000000e-03
1252000000.0 1.003669000e+00 5.004000000e-03
1261000000.0 9.965200000e-01 -6.832000000e-03
1270000000.0 1.000624000e+00 -4.991000000e-03
1279000000.0 1.004589000e+00 2.061000000e-03
1288000000.0 1.002302000e+00 -4.909000000e-03
1297000000.0 1.006561000e+00 5.911000000e-03
1306000000.0 1.004695000e+00 -9.082000000e-03
1315000000.0 1.002167000e+00 -6.520000000e-04
1324000000.0 1.008345000e+00 9.950000000e-04
1333000000.0 1.003134000e+00 -3.004000000e-03
1342000000.0 1.004564000e+00 1.185000000e-03
1351000000.0 9.994360000e-01 -3.955000000e-03
1360000000.0 1.006707000e+00 3.562000000e-03
1369000000.0 1.001624000e+00 9.031000000e-03
1378000000.0 1.000507000e+00 7.034000000e-03
1387000000.0 1.005460000e+00 8.873000000e-03
1396000000.0 1.007791000e+00 1.559700000e-02
1405000000.0 1.004163000e+00 1.454500000e-02
1414000000.0 1.003395000e+00 1.200700000e-02
1423000000.0 1.004784000e+00 -1.412400000e-02
1432000000.0 1.000350000e+00 1.335200000e-02
1441000000.0 9.984700000e-01 1.573600000e-02
1450000000.0 1.002161000e+00 1.275100000e-02
