! piloto_saltos / abierto_101puntos / r02
# HZ S RI R 50
50000.0 1.005605000e+00 -6.900300000e-02
59500.0 1.007411000e+00 -5.657200000e-02
69000.0 1.006360000e+00 -4.385000000e-02
78500.0 1.002776000e+00 -2.934600000e-02
88000.0 1.002322000e+00 -1.649000000e-02
97500.0 1.000567000e+00 -3.560000000e-03
107000.0 1.000190000e+00 8.262000000e-03
116500.0 1.000362000e+00 2.102000000e-02
126000.0 1.003410000e+00 3.150400000e-02
135500.0 1.001030000e+00 4.581900000e-02
145000.0 1.001381000e+00 5.813700000e-02
154500.0 1.002119000e+00 7.046000000e-02
164000.0 1.002584000e+00 8.257300000e-02
173500.0 1.002725000e+00 9.440900000e-02
183000.0 1.002880000e+00 1.056430000e-01
192500.0 1.004313000e+00 1.178750000e-01
202000.0 1.004778000e+00 1.294950000e-01
211500.0 1.004057000e+00 1.404270000e-01
221000.0 1.003952000e+00 1.529000000e-01
230500.0 1.004896000e+00 1.642630000e-01
240000.0 1.004469000e+00 1.751330000e-01
249500.0 1.004917000e+00 1.872120000e-01
259000.0 1.005298000e+00 1.980260000e-01
268500.0 1.006024000e+00 2.090330000e-01
278000.0 1.006035000e+00 2.201460000e-01
287500.0 1.005907000e+00 2.321530000e-01
297000.0 1.006343000e+00 2.422460000e-01
306500.0 1.006498000e+00 2.536460000e-01
316000.0 1.006736000e+00 2.650460000e-01
325500.0 1.007076000e+00 2.748670000e-01
335000.0 1.008140000e+00 2.863850000e-01
344500.0 1.007458000e+00 2.969290000e-01
354000.0 1.007882000e+00 3.083870000e-01
363500.0 1.008145000e+00 3.183930000e-01
373000.0 1.008762000e+00 3.288940000e-01
382500.0 1.008428000e+00 3.393660000e-01
392000.0 1.008605000e+00 3.494150000e-01
401500.0 1.009837000e+00 3.605560000e-01
411000.0 1.008163000e+00 3.711150000e-01
420500.0 1.009228000e+00 3.811130000e-01
430000.0 1.010089000e+00 3.914960000e-01
439500.0 1.009809000e+00 4.017390000e-01
449000.0 1.010370000e+00 4.121430000e-01
458500.0 1.011648000e+00 4.223140000e-01
468000.0 1.011349000e+00 4.324920000e-01
477500.0 1.011568000e+00 4.418830000e-01
487000.0 1.011810000e+00 4.530700000e-01
496500.0 1.011189000e+00 4.626650000e-01
506000.0 1.012181000e+00 4.731300000e-01
515500.0 1.012719000e+00 4.831090000e-01
525000.0 1.013882000e+00 4.932450000e-01
534500.0 1.014291000e+00 5.026270000e-01
544000.0 1.012850000e+00 5.127920000e-01
553500.0 1.015492000e+00 5.224940000e-01
563000.0 1.015236000e+00 5.323970000e-01
572500.0 1.015732000e+00 5.428130000e-01
582000.0 1.015736000e+00 5.524990000e-01
591500.0 1.016126000e+00 5.614650000e-01
601000.0 1.017203000e+00 5.718470000e-01
610500.0 1.018428000e+00 5.816240000e-01
620000.0 1.017901000e+00 5.913940000e-01
629500.0 1.018061000e+00 6.003300000e-01
639000.0 1.019892000e+00 6.101670000e-01
648500.0 1.021340000e+00 6.195140000e-01
658000.0 1.021292000e+00 6.294400000e-01
667500.0 1.022730000e+00 6.393000000e-01
677000.0 1.021877000e+00 6.481380000e-01
686500.0 1.022622000e+00 6.590040000e-01
696000.0 1.024516000e+00 6.688040000e-01
705500.0 1.025006000e+00 6.770240000e-01
715000.0 1.025777000e+00 6.860630000e-01
724500.0 1.026962000e+00 6.957620000e-01
734000.0 1.028327000e+00 7.048340000e-01
743500.0 1.031367000e+00 7.159370000e-01
753000.0 1.030271000e+00 7.249100000e-01
762500.0 1.032099000e+00 7.336770000e-01
772000.0 1.033257000e+00 7.435480000e-01
781500.0 1.034413000e+00 7.529900000e-01
791000.0 1.035158000e+00 7.623310000e-01
800500.0 1.037634000e+00 7.719300000e-01
810000.0 1.038934000e+00 7.802130000e-01
819500.0 1.040841000e+00 7.899640000e-01
829000.0 1.040881000e+00 7.990820000e-01
838500.0 1.045172000e+00 8.078360000e-01
848000.0 1.044250000e+00 8.178460000e-01
857500.0 1.047212000e+00 8.262760000e-01
867000.0 1.049011000e+00 8.355600000e-01
876500.0 1.051174000e+00 8.442420000e-01
886000.0 1.051145000e+00 8.518940000e-01
895500.0 1.055256000e+00 8.617300000e-01
905000.0 1.055795000e+00 8.715960000e-01
914500.0 1.058828000e+00 8.805560000e-01
924000.0 1.061396000e+00 8.898320000e-01
933500.0 1.063799000e+00 8.980630000e-01
943000.0 1.065795000e+00 9.067370000e-01
952500.0 1.067526000e+00 9.159680000e-01
962000.0 1.071147000e+00 9.253210000e-01
971500.0 1.075016000e+00 9.324840000e-01
981000.0 1.074791000e+00 9.422360000e-01
990500.0 1.077898000e+00 9.503210000e-01
1000000.0 1.080069000e+00 9.589010000e-01
1090000.0 1.108600000e+00 1.039591000e+00
1180000.0 1.149863000e+00 1.115681000e+00
1270000.0 1.202192000e+00 1.185167000e+00
1360000.0 1.262714000e+00 1.246991000e+00
1450000.0 1.331777000e+00 1.298768000e+00
1540000.0 1.412102000e+00 1.334090000e+00
1630000.0 1.500400000e+00 1.355355000e+00
1720000.0 1.585671000e+00 1.355184000e+00
1810000.0 1.682382000e+00 1.334628000e+00
1900000.0 1.769041000e+00 1.291235000e+00
1990000.0 1.840849000e+00 1.232417000e+00
2080000.0 1.898943000e+00 1.157410000e+00
2170000.0 1.941185000e+00 1.070766000e+00
2260000.0 1.963316000e+00 9.807360000e-01
2350000.0 1.970741000e+00 8.945820000e-01
2440000.0 1.960676000e+00 8.069260000e-01
2530000.0 1.941710000e+00 7.257280000e-01
2620000.0 1.909768000e+00 6.546080000e-01
2710000.0 1.878121000e+00 5.919070000e-01
2800000.0 1.839261000e+00 5.347920000e-01
2890000.0 1.803031000e+00 4.761700000e-01
2980000.0 1.762407000e+00 4.442090000e-01
3070000.0 1.723250000e+00 4.051420000e-01
3160000.0 1.684246000e+00 3.727510000e-01
3250000.0 1.648144000e+00 3.429360000e-01
3340000.0 1.616192000e+00 3.194470000e-01
3430000.0 1.583543000e+00 2.913570000e-01
3520000.0 1.554191000e+00 2.709280000e-01
3610000.0 1.526306000e+00 2.517800000e-01
3700000.0 1.500868000e+00 2.336460000e-01
3790000.0 1.475802000e+00 2.134090000e-01
3880000.0 1.453822000e+00 1.965540000e-01
3970000.0 1.432239000e+00 1.811460000e-01
4060000.0 1.412271000e+00 1.656390000e-01
4150000.0 1.394255000e+00 1.509430000e-01
4240000.0 1.379151000e+00 1.365020000e-01
4330000.0 1.363278000e+00 1.217470000e-01
4420000.0 1.349951000e+00 1.078720000e-01
4510000.0 1.337305000e+00 9.578700000e-02
4600000.0 1.327043000e+00 8.164600000e-02
4690000.0 1.316140000e+00 6.941100000e-02
4780000.0 1.305568000e+00 5.549000000e-02
4870000.0 1.299078000e+00 4.359200000e-02
4960000.0 1.290926000e+00 3.126000000e-02
5050000.0 1.274998000e+00 1.788300000e-02
5140000.0 1.270451000e+00 5.116000000e-03
5230000.0 1.267122000e+00 -5.963000000e-03
5320000.0 1.261507000e+00 -1.856200000e-02
5410000.0 1.258036000e+00 -3.033200000e-02
5500000.0 1.254990000e+00 -4.296700000e-02
5590000.0 1.251256000e+00 -5.284400000e-02
5680000.0 1.247141000e+00 -6.535800000e-02
5770000.0 1.244876000e+00 -7.532000000e-02
5860000.0 1.242842000e+00 -8.676300000e-02
5950000.0 1.240265000e+00 -9.740000000e-02
6040000.0 1.236953000e+00 -1.071500000e-01
6130000.0 1.234166000e+00 -1.180300000e-01
6220000.0 1.231832000e+00 -1.270500000e-01
6310000.0 1.229698000e+00 -1.357520000e-01
6400000.0 1.228403000e+00 -1.425480000e-01
6490000.0 1.226153000e+00 -1.506760000e-01
6580000.0 1.224512000e+00 -1.566460000e-01
6670000.0 1.223462000e+00 -1.645960000e-01
6760000.0 1.223908000e+00 -1.714470000e-01
6850000.0 1.222490000e+00 -1.768090000e-01
6940000.0 1.220785000e+00 -1.807850000e-01
7030000.0 1.219570000e+00 -1.845860000e-01
7120000.0 1.219902000e+00 -1.884730000e-01
7210000.0 1.218687000e+00 -1.911310000e-01
7300000.0 1.219096000e+00 -1.933200000e-01
7390000.0 1.218764000e+00 -1.941100000e-01
7480000.0 1.219889000e+00 -1.923270000e-01
7570000.0 -2.423480000e-01 -1.258072000e+00
7660000.0 -2.431900000e-01 -1.258949000e+00
7750000.0 -2.406030000e-01 -1.259156000e+00
7840000.0 -2.408590000e-01 -1.259463000e+00
7930000.0 -2.386040000e-01 -1.259483000e+00
8020000.0 -2.385030000e-01 -1.259671000e+00
8110000.0 -2.388540000e-01 -1.260417000e+00
8200000.0 -2.379440000e-01 -1.261323000e+00
8290000.0 -2.361410000e-01 -1.261681000e+00
8380000.0 -2.367750000e-01 -1.262781000e+00
8470000.0 -2.358610000e-01 -1.263667000e+00
8560000.0 -2.341970000e-01 -1.264514000e+00
8650000.0 -2.354270000e-01 -1.265554000e+00
8740000.0 -2.334120000e-01 -1.266261000e+00
8830000.0 -2.334770000e-01 -1.264892000e+00
8920000.0 -2.324050000e-01 -1.266519000e+00
9010000.0 -2.307750000e-01 -1.267226000e+00
9100000.0 -2.304590000e-01 -1.267711000e+00
9190000.0 -2.302090000e-01 -1.267626000e+00
9280000.0 -2.289980000e-01 -1.269393000e+00
9370000.0 -2.275660000e-01 -1.270957000e+00
9460000.0 -2.277190000e-01 -1.269562000e+00
9550000.0 -2.280500000e-01 -1.271271000e+00
9640000.0 -2.268120000e-01 -1.272004000e+00
9730000.0 -2.260930000e-01 -1.274165000e+00
9820000.0 -2.259000000e-01 -1.274655000e+00
9910000.0 -2.255910000e-01 -1.274523000e+00
10000000.0 -2.233110000e-01 -1.276147000e+00
10900000.0 -2.176110000e-01 -1.285207000e+00
11800000.0 -2.128590000e-01 -1.293115000e+00
12700000.0 -2.070970000e-01 -1.304141000e+00
13600000.0 -2.008750000e-01 -1.315222000e+00
14500000.0 -1.944240000e-01 -1.326021000e+00
15400000.0 -1.885640000e-01 -1.337977000e+00
16300000.0 -1.817960000e-01 -1.348539000e+00
17200000.0 -1.760670000e-01 -1.360124000e+00
18100000.0 -1.679230000e-01 -1.372844000e+00
19000000.0 -1.609440000e-01 -1.385426000e+00
19900000.0 -1.523950000e-01 -1.396467000e+00
20800000.0 -1.447370000e-01 -1.410094000e+00
21700000.0 -1.362930000e-01 -1.421955000e+00
22600000.0 -1.276260000e-01 -1.435341000e+00
23500000.0 -1.187050000e-01 -1.449546000e+00
24400000.0 -1.073950000e-01 -1.462736000e+00
25300000.0 -9.740200000e-02 -1.478047000e+00
26200000.0 -8.617900000e-02 -1.489572000e+00
27100000.0 -7.662400000e-02 -1.505722000e+00
28000000.0 -6.352900000e-02 -1.519908000e+00
28900000.0 -5.192100000e-02 -1.533700000e+00
29800000.0 -6.643200000e-02 -1.543561000e+00
30700000.0 -2.459700000e-02 -1.561791000e+00
31600000.0 -1.147800000e-02 -1.577587000e+00
32500000.0 2.718000000e-03 -1.590906000e+00
33400000.0 1.922300000e-02 -1.605621000e+00
34300000.0 3.346900000e-02 -1.620526000e+00
35200000.0 5.237500000e-02 -1.636014000e+00
36100000.0 7.009200000e-02 -1.650309000e+00
37000000.0 8.587000000e-02 -1.662730000e+00
37900000.0 1.069650000e-01 -1.678311000e+00
38800000.0 1.248530000e-01 -1.694463000e+00
39700000.0 1.471110000e-01 -1.707673000e+00
40600000.0 1.666200000e-01 -1.720866000e+00
41500000.0 1.895680000e-01 -1.734707000e+00
42400000.0 2.132740000e-01 -1.749165000e+00
43300000.0 2.343250000e-01 -1.762032000e+00
44200000.0 2.594200000e-01 -1.775535000e+00
45100000.0 2.848940000e-01 -1.789399000e+00
46000000.0 3.103020000e-01 -1.799485000e+00
46900000.0 3.375340000e-01 -1.810884000e+00
47800000.0 3.665880000e-01 -1.822907000e+00
48700000.0 3.983220000e-01 -1.831846000e+00
49600000.0 4.263390000e-01 -1.843312000e+00
50500000.0 4.579840000e-01 -1.851772000e+00
51400000.0 4.886590000e-01 -1.859801000e+00
52300000.0 5.237600000e-01 -1.866020000e+00
53200000.0 5.556020000e-01 -1.872922000e+00
54100000.0 5.891750000e-01 -1.877705000e+00
55000000.0 6.257090000e-01 -1.880925000e+00
55900000.0 6.611630000e-01 -1.885448000e+00
56800000.0 6.960900000e-01 -1.883854000e+00
57700000.0 7.342630000e-01 -1.885272000e+00
58600000.0 7.736560000e-01 -1.883370000e+00
59500000.0 8.101720000e-01 -1.881553000e+00
60400000.0 8.490100000e-01 -1.876905000e+00
61300000.0 8.894130000e-01 -1.868307000e+00
62200000.0 9.275140000e-01 -1.861757000e+00
63100000.0 9.660320000e-01 -1.851143000e+00
64000000.0 1.003863000e+00 -1.843912000e+00
64900000.0 1.045591000e+00 -1.827586000e+00
65800000.0 1.081437000e+00 -1.812127000e+00
66700000.0 1.121171000e+00 -1.794361000e+00
67600000.0 1.159564000e+00 -1.775177000e+00
68500000.0 1.201313000e+00 -1.756905000e+00
69400000.0 1.232617000e+00 -1.734643000e+00
70300000.0 1.269587000e+00 -1.707929000e+00
71200000.0 1.301737000e+00 -1.682917000e+00
72100000.0 1.337312000e+00 -1.658640000e+00
73000000.0 1.366282000e+00 -1.627915000e+00
73900000.0 1.396780000e+00 -1.599237000e+00
74800000.0 1.428085000e+00 -1.565943000e+00
75700000.0 1.457827000e+00 -1.534781000e+00
76600000.0 1.479963000e+00 -1.501400000e+00
77500000.0 1.505052000e+00 -1.466408000e+00
78400000.0 1.527510000e+00 -1.432292000e+00
79300000.0 1.547241000e+00 -1.396056000e+00
80200000.0 1.567068000e+00 -1.359775000e+00
81100000.0 1.584086000e+00 -1.323542000e+00
82000000.0 1.600055000e+00 -1.285006000e+00
82900000.0 1.614727000e+00 -1.247695000e+00
83800000.0 1.624913000e+00 -1.208457000e+00
84700000.0 1.635940000e+00 -1.173158000e+00
85600000.0 1.644076000e+00 -1.136112000e+00
86500000.0 1.651028000e+00 -1.100234000e+00
87400000.0 1.655210000e+00 -1.063043000e+00
88300000.0 1.660537000e+00 -1.026471000e+00
89200000.0 1.664156000e+00 -9.913510000e-01
90100000.0 1.663886000e+00 -9.572960000e-01
91000000.0 1.662086000e+00 -9.211850000e-01
91900000.0 1.663236000e+00 -8.891700000e-01
92800000.0 1.660847000e+00 -8.553070000e-01
93700000.0 1.656767000e+00 -8.216630000e-01
94600000.0 1.651876000e+00 -7.913320000e-01
95500000.0 1.647313000e+00 -7.613130000e-01
96400000.0 1.641639000e+00 -7.299500000e-01
97300000.0 1.633328000e+00 -7.008920000e-01
98200000.0 1.626136000e+00 -6.745220000e-01
99100000.0 1.619521000e+00 -6.468890000e-01
100000000.0 1.611002000e+00 -6.192770000e-01
109000000.0 1.501228000e+00 -3.979160000e-01
118000000.0 1.377517000e+00 -2.429720000e-01
127000000.0 1.256766000e+00 -1.381250000e-01
136000000.0 1.148161000e+00 -6.891700000e-02
145000000.0 1.049433000e+00 -1.927900000e-02
154000000.0 1.001783000e+00 1.862500000e-02
163000000.0 1.002119000e+00 3.300000000e-04
172000000.0 1.003176000e+00 -4.210000000e-04
181000000.0 1.003670000e+00 3.260000000e-04
190000000.0 1.005133000e+00 1.674400000e-02
199000000.0 1.004695000e+00 -1.164000000e-03
208000000.0 1.003985000e+00 -1.918400000e-02
217000000.0 1.006045000e+00 -1.110000000e-03
226000000.0 1.007122000e+00 1.548300000e-02
235000000.0 1.006119000e+00 -1.315000000e-03
244000000.0 1.006494000e+00 -1.020000000e-03
253000000.0 1.005852000e+00 -1.040000000e-03
262000000.0 1.005424000e+00 -1.615000000e-03
271000000.0 1.004385000e+00 -1.123000000e-03
280000000.0 1.004423000e+00 -2.080000000e-04
289000000.0 1.003439000e+00 -2.830000000e-04
298000000.0 1.000889000e+00 -5.530000000e-04
307000000.0 1.003512000e+00 8.540000000e-04
316000000.0 1.004797000e+00 -7.950000000e-04
325000000.0 1.003600000e+00 6.600000000e-04
334000000.0 1.004883000e+00 1.735000000e-03
343000000.0 1.006816000e+00 -1.621000000e-03
352000000.0 1.004912000e+00 -4.360000000e-04
361000000.0 1.006510000e+00 1.450000000e-03
370000000.0 9.987550000e-01 -3.476100000e-02
379000000.0 9.993470000e-01 -3.541100000e-02
388000000.0 1.013630000e+00 3.726200000e-02
397000000.0 1.004871000e+00 1.073000000e-03
406000000.0 1.003762000e+00 8.250000000e-04
415000000.0 1.005251000e+00 1.690000000e-03
424000000.0 1.004302000e+00 2.583000000e-03
433000000.0 1.001413000e+00 3.758000000e-03
442000000.0 9.990710000e-01 4.170000000e-04
451000000.0 9.987490000e-01 5.440000000e-04
460000000.0 1.000678000e+00 4.139000000e-03
469000000.0 1.002106000e+00 3.339000000e-03
478000000.0 1.004520000e+00 4.331000000e-03
487000000.0 1.005272000e+00 3.816000000e-03
496000000.0 1.005985000e+00 5.868000000e-03
505000000.0 1.006643000e+00 5.317000000e-03
514000000.0 1.007875000e+00 6.869000000e-03
523000000.0 1.008309000e+00 5.413000000e-03
532000000.0 1.008480000e+00 6.547000000e-03
541000000.0 1.008180000e+00 6.463000000e-03
550000000.0 1.006923000e+00 1.083500000e-02
559000000.0 1.008963000e+00 4.427000000e-03
568000000.0 1.007437000e+00 8.703000000e-03
577000000.0 1.007150000e+00 6.738000000e-03
586000000.0 1.004886000e+00 1.016200000e-02
595000000.0 1.004585000e+00 8.960000000e-04
604000000.0 1.004279000e+00 5.241000000e-03
613000000.0 1.004273000e+00 5.120000000e-03
622000000.0 1.009583000e+00 1.091300000e-02
631000000.0 1.009818000e+00 8.747000000e-03
640000000.0 1.014758000e+00 6.310000000e-03
649000000.0 1.014730000e+00 1.256700000e-02
658000000.0 1.013606000e+00 9.736000000e-03
667000000.0 1.015494000e+00 8.074000000e-03
676000000.0 1.017740000e+00 1.131900000e-02
685000000.0 1.015123000e+00 1.009200000e-02
694000000.0 1.015879000e+00 7.046000000e-03
703000000.0 1.018071000e+00 1.873000000e-03
712000000.0 1.017272000e+00 9.833000000e-03
721000000.0 1.009430000e+00 1.875000000e-03
730000000.0 1.008628000e+00 3.603000000e-03
739000000.0 1.004087000e+00 4.458000000e-03
748000000.0 1.002210000e+00 6.370000000e-04
757000000.0 1.004531000e+00 5.940000000e-04
766000000.0 1.008733000e+00 -2.072000000e-03
775000000.0 1.011914000e+00 -1.378000000e-03
784000000.0 1.013147000e+00 -2.965000000e-03
793000000.0 1.013998000e+00 -2.728000000e-03
802000000.0 1.017437000e+00 -4.751000000e-03
811000000.0 1.014440000e+00 -4.593000000e-03
820000000.0 1.018011000e+00 -5.828000000e-03
829000000.0 1.016020000e+00 -8.154000000e-03
838000000.0 1.014978000e+00 -8.192000000e-03
847000000.0 1.015145000e+00 -6.071000000e-03
856000000.0 1.013849000e+00 -3.867000000e-03
865000000.0 1.012511000e+00 -7.264000000e-03
874000000.0 1.009657000e+00 -3.910000000e-04
883000000.0 1.006490000e+00 -3.051000000e-03
892000000.0 1.003919000e+00 -2.316000000e-03
901000000.0 9.977720000e-01 1.312000000e-03
910000000.0 9.990330000e-01 -3.291000000e-03
919000000.0 1.004131000e+00 -1.909000000e-03
928000000.0 1.002324000e+00 -7.326000000e-03
937000000.0 1.006160000e+00 -2.767000000e-03
946000000.0 1.004260000e+00 -9.498000000e-03
955000000.0 1.004527000e+00 -1.069300000e-02
964000000.0 1.004209000e+00 -1.138400000e-02
973000000.0 1.006480000e+00 -1.187600000e-02
982000000.0 1.003431000e+00 -1.088700000e-02
991000000.0 1.004654000e+00 -7.892000000e-03
1000000000.0 1.002961000e+00 -1.080100000e-02
1004500000.0 1.003054000e+00 -7.346000000e-03
1009000000.0 1.003468000e+00 -5.355000000e-03
1013500000.0 1.003355000e+00 -5.444000000e-03
1018000000.0 1.004436000e+00 -1.548000000e-03
1022500000.0 1.000451000e+00 -6.007000000e-03
1027000000.0 1.002364000e+00 -1.921000000e-03
1031500000.0 1.000697000e+00 -1.096000000e-03
1036000000.0 1.003119000e+00 -2.078000000e-03
1040500000.0 1.000377000e+00 -3.115000000e-03
1045000000.0 9.992910000e-01 -3.544000000e-03
1049500000.0 1.001149000e+00 3.438000000e-03
1054000000.0 9.973480000e-01 2.135000000e-03
1058500000.0 1.002481000e+00 6.770000000e-04
1063000000.0 9.979990000e-01 -5.465000000e-03
1067500000.0 1.001832000e+00 -3.690000000e-04
1072000000.0 9.998690000e-01 -1.223000000e-03
1076500000.0 1.001209000e+00 2.022000000e-03
1081000000.0 9.988980000e-01 -3.357000000e-03
1085500000.0 1.003805000e+00 -3.550000000e-04
1090000000.0 1.001572000e+00 1.300000000e-05
1094500000.0 1.002735000e+00 -3.551000000e-03
1099000000.0 1.004032000e+00 -2.092000000e-03
1103500000.0 1.002780000e+00 -3.197000000e-03
1108000000.0 1.004683000e+00 -8.052000000e-03
1112500000.0 1.006198000e+00 -7.490000000e-04
1117000000.0 9.983210000e-01 -1.170000000e-03
1121500000.0 1.006857000e+00 8.200000000e-05
1126000000.0 1.010158000e+00 -2.260000000e-03
1130500000.0 1.008294000e+00 3.340700000e-02
1135000000.0 1.004534000e+00 -2.693000000e-03
1139500000.0 1.003972000e+00 -1.212000000e-03
1144000000.0 1.004206000e+00 -1.241700000e-02
1148500000.0 1.002044000e+00 -8.414000000e-03
1153000000.0 1.007923000e+00 -8.334000000e-03
1157500000.0 1.005796000e+00 -4.872000000e-03
1162000000.0 1.006667000e+00 1.683600000e-02
1166500000.0 1.009451000e+00 5.470000000e-04
1171000000.0 1.005126000e+00 -1.514000000e-03
1175500000.0 1.002269000e+00 -2.942000000e-03
1180000000.0 1.006777000e+00 3.057000000e-03
1184500000.0 1.003836000e+00 1.336000000e-03
1189000000.0 9.966960000e-01 -2.495000000e-03
1193500000.0 1.006342000e+00 -1.051000000e-03
1198000000.0 1.005195000e+00 -3.200000000e-03
1202500000.0 1.005331000e+00 -9.086000000e-03
1207000000.0 1.005880000e+00 -7.293000000e-03
1211500000.0 1.002768000e+00 2.322000000e-03
1216000000.0 1.003972000e+00 -2.467000000e-03
1220500000.0 1.005226000e+00 -6.894000000e-03
1225000000.0 1.000269000e+00 -3.705000000e-03
1229500000.0 1.001433000e+00 -3.847000000e-03
1234000000.0 1.006793000e+00 -7.487000000e-03
1238500000.0 1.000443000e+00 -9.348000000e-03
1243000000.0 1.004277000e+00 -4.404000000e-03
1247500000.0 1.004126000e+00 5.250000000e-04
1252000000.0 1.002743000e+00 -7.453000000e-03
1256500000.0 1.012623000e+00 -2.541000000e-03
1261000000.0 1.000755000e+00 -6.695000000e-03
1265500000.0 1.005832000e+00 8.820000000e-04
1270000000.0 1.002768000e+00 -1.969000000e-03
1274500000.0 1.007068000e+00 6.100000000e-03
1279000000.0 1.003341000e+00 3.369000000e-03
1283500000.0 1.004359000e+00 3.891000000e-03
1288000000.0 1.001339000e+00 3.750000000e-03
1292500000.0 1.001123000e+00 3.471000000e-03
1297000000.0 1.008765000e+00 1.045000000e-03
1301500000.0 1.002832000e+00 -6.850000000e-03
1306000000.0 1.002147000e+00 8.049000000e-03
1310500000.0 1.000991000e+00 3.172000000e-03
1315000000.0 1.004277000e+00 1.772000000e-03
1319500000.0 1.001161000e+00 2.733000000e-03
1324000000.0 1.006431000e+00 6.361000000e-03
1328500000.0 1.002710000e+00 1.111000000e-03
1333000000.0 9.984720000e-01 1.204600000e-02
1337500000.0 1.003659000e+00 7.650000000e-04
1342000000.0 1.007844000e+00 9.785000000e-03
1346500000.0 1.007357000e+00 -2.792000000e-03
1351000000.0 1.007596000e+00 2.558000000e-03
1355500000.0 1.002895000e+00 8.616000000e-03
1360000000.0 1.003781000e+00 7.784000000e-03
1364500000.0 1.005383000e+00 1.329700000e-02
1369000000.0 1.006028000e+00 7.126000000e-03
1373500000.0 1.004194000e+00 7.977000000e-03
1378000000.0 1.001614000e+00 7.928000000e-03
1382500000.0 1.003347000e+00 8.777000000e-03
1387000000.0 1.006137000e+00 8.113000000e-03
1391500000.0 1.000750000e+00 6.459000000e-03
1396000000.0 1.006092000e+00 1.243800000e-02
1400500000.0 1.008998000e+00 9.681000000e-03
1405000000.0 1.007274000e+00 1.747600000e-02
1409500000.0 1.001865000e+00 8.249000000e-03
1414000000.0 1.001593000e+00 1.527800000e-02
1418500000.0 1.004291000e+00 1.161300000e-02
1423000000.0 1.005307000e+00 1.012600000e-02
1427500000.0 9.977690000e-01 1.138600000e-02
1432000000.0 1.004748000e+00 1.867400000e-02
1436500000.0 1.001767000e+00 1.546400000e-02
1441000000.0 9.987020000e-01 1.171300000e-02
1445500000.0 1.000654000e+00 1.055900000e-02
1450000000.0 1.002411000e+00 1.322900000e-02
