! piloto_saltos / abierto_51puntos / r07
# HZ S RI R 50
50000.0 1.006679000e+00 -6.961600000e-02
69000.0 1.005673000e+00 -4.445000000e-02
88000.0 1.001826000e+00 -1.638700000e-02
107000.0 1.000529000e+00 8.565000000e-03
126000.0 1.001217000e+00 3.092800000e-02
145000.0 1.001137000e+00 5.720500000e-02
164000.0 1.002121000e+00 8.221300000e-02
183000.0 1.003546000e+00 1.056980000e-01
202000.0 1.004220000e+00 1.293740000e-01
221000.0 1.003768000e+00 1.527780000e-01
240000.0 1.004464000e+00 1.752090000e-01
259000.0 1.005562000e+00 1.977790000e-01
278000.0 1.005700000e+00 2.201230000e-01
297000.0 1.006738000e+00 2.418000000e-01
316000.0 1.006225000e+00 2.647970000e-01
335000.0 1.007421000e+00 2.861700000e-01
354000.0 1.007817000e+00 3.073530000e-01
373000.0 1.007654000e+00 3.281850000e-01
392000.0 1.008630000e+00 3.509700000e-01
411000.0 1.008976000e+00 3.707950000e-01
430000.0 1.010207000e+00 3.919130000e-01
449000.0 1.010566000e+00 4.119770000e-01
468000.0 1.011698000e+00 4.323580000e-01
487000.0 1.012082000e+00 4.529060000e-01
506000.0 9.953290000e-01 4.074270000e-01
525000.0 9.915370000e-01 4.463940000e-01
544000.0 1.015180000e+00 5.131570000e-01
563000.0 1.014708000e+00 5.325570000e-01
582000.0 1.015986000e+00 5.522470000e-01
601000.0 1.018529000e+00 5.721810000e-01
620000.0 1.018637000e+00 5.915680000e-01
639000.0 1.020550000e+00 6.114680000e-01
658000.0 1.021346000e+00 6.293800000e-01
677000.0 1.022887000e+00 6.492100000e-01
696000.0 1.025043000e+00 6.690920000e-01
715000.0 1.026913000e+00 6.862200000e-01
734000.0 1.028323000e+00 7.055230000e-01
753000.0 1.028955000e+00 7.244540000e-01
772000.0 1.032760000e+00 7.439520000e-01
791000.0 1.036258000e+00 7.624750000e-01
810000.0 1.038594000e+00 7.803740000e-01
829000.0 1.042134000e+00 7.993130000e-01
848000.0 1.045861000e+00 8.171690000e-01
867000.0 1.048889000e+00 8.348610000e-01
886000.0 1.052663000e+00 8.522310000e-01
905000.0 1.057335000e+00 8.722640000e-01
924000.0 1.062027000e+00 8.914370000e-01
943000.0 1.065659000e+00 9.082320000e-01
962000.0 1.071000000e+00 9.246050000e-01
981000.0 1.077046000e+00 9.429900000e-01
1000000.0 1.081012000e+00 9.603780000e-01
1180000.0 1.150397000e+00 1.115878000e+00
1360000.0 1.260504000e+00 1.246405000e+00
1540000.0 1.410700000e+00 1.333685000e+00
1720000.0 1.591683000e+00 1.356811000e+00
1900000.0 1.766138000e+00 1.292904000e+00
2080000.0 1.898543000e+00 1.157058000e+00
2260000.0 1.963362000e+00 9.840280000e-01
2440000.0 1.959821000e+00 8.045780000e-01
2620000.0 1.912595000e+00 6.535400000e-01
2800000.0 1.841264000e+00 5.320190000e-01
2980000.0 1.761630000e+00 4.418870000e-01
3160000.0 1.685341000e+00 3.712150000e-01
3340000.0 1.616403000e+00 3.139140000e-01
3520000.0 1.556409000e+00 2.432880000e-01
3700000.0 1.499573000e+00 2.318260000e-01
3880000.0 1.453708000e+00 1.969130000e-01
4060000.0 1.412986000e+00 1.657250000e-01
4240000.0 1.377911000e+00 1.369090000e-01
4420000.0 1.350046000e+00 1.080870000e-01
4600000.0 1.325590000e+00 8.169600000e-02
4780000.0 1.305471000e+00 5.436400000e-02
4960000.0 1.290343000e+00 3.059300000e-02
5140000.0 1.270808000e+00 5.252000000e-03
5320000.0 1.262621000e+00 -1.945300000e-02
5500000.0 1.254076000e+00 -4.283200000e-02
5680000.0 1.246667000e+00 -6.513100000e-02
5860000.0 1.240698000e+00 -8.806500000e-02
6040000.0 1.236921000e+00 -1.067720000e-01
6220000.0 1.232097000e+00 -1.266170000e-01
6400000.0 1.228746000e+00 -1.438930000e-01
6580000.0 1.226113000e+00 -1.585000000e-01
6760000.0 1.222953000e+00 -1.720660000e-01
6940000.0 1.220544000e+00 -1.810450000e-01
7120000.0 1.219856000e+00 -1.879030000e-01
7300000.0 1.220344000e+00 -1.915980000e-01
7480000.0 1.219240000e+00 -1.936420000e-01
7660000.0 -2.421380000e-01 -1.259598000e+00
7840000.0 -2.410080000e-01 -1.260915000e+00
8020000.0 -2.386950000e-01 -1.261765000e+00
8200000.0 -2.368320000e-01 -1.262030000e+00
8380000.0 -2.350770000e-01 -1.262960000e+00
8560000.0 -2.337980000e-01 -1.265105000e+00
8740000.0 -2.336300000e-01 -1.265411000e+00
8920000.0 -2.327770000e-01 -1.266277000e+00
9100000.0 -2.303460000e-01 -1.268086000e+00
9280000.0 -2.290870000e-01 -1.269190000e+00
9460000.0 -2.276790000e-01 -1.271142000e+00
9640000.0 -2.269570000e-01 -1.271879000e+00
9820000.0 -2.266250000e-01 -1.273925000e+00
10000000.0 -2.246050000e-01 -1.275970000e+00
11800000.0 -2.123170000e-01 -1.293703000e+00
13600000.0 -2.011520000e-01 -1.313876000e+00
15400000.0 -1.890830000e-01 -1.337102000e+00
17200000.0 -1.749700000e-01 -1.359868000e+00
19000000.0 -1.605150000e-01 -1.383785000e+00
20800000.0 -1.443480000e-01 -1.409248000e+00
22600000.0 -1.266730000e-01 -1.434938000e+00
24400000.0 -1.091730000e-01 -1.462712000e+00
26200000.0 -8.584100000e-02 -1.490986000e+00
28000000.0 -6.452500000e-02 -1.519191000e+00
29800000.0 -3.874900000e-02 -1.548391000e+00
31600000.0 -1.231600000e-02 -1.578542000e+00
33400000.0 -3.516800000e-02 -1.579447000e+00
35200000.0 4.877200000e-02 -1.634146000e+00
37000000.0 2.820300000e-02 -1.655188000e+00
38800000.0 1.256990000e-01 -1.694344000e+00
40600000.0 1.663890000e-01 -1.721108000e+00
42400000.0 2.124450000e-01 -1.749873000e+00
44200000.0 2.591640000e-01 -1.774813000e+00
46000000.0 3.121300000e-01 -1.799928000e+00
47800000.0 3.667690000e-01 -1.823280000e+00
49600000.0 4.283560000e-01 -1.843016000e+00
51400000.0 4.872240000e-01 -1.861303000e+00
53200000.0 5.548880000e-01 -1.873468000e+00
55000000.0 6.247060000e-01 -1.882100000e+00
56800000.0 6.974040000e-01 -1.885212000e+00
58600000.0 7.740180000e-01 -1.882280000e+00
60400000.0 8.522330000e-01 -1.874858000e+00
62200000.0 9.265630000e-01 -1.863148000e+00
64000000.0 1.005037000e+00 -1.840426000e+00
65800000.0 1.082993000e+00 -1.812129000e+00
67600000.0 1.160004000e+00 -1.776204000e+00
69400000.0 1.233946000e+00 -1.733648000e+00
71200000.0 1.303702000e+00 -1.684236000e+00
73000000.0 1.368129000e+00 -1.625115000e+00
74800000.0 1.426803000e+00 -1.568218000e+00
76600000.0 1.481424000e+00 -1.501998000e+00
78400000.0 1.527701000e+00 -1.431056000e+00
80200000.0 1.565961000e+00 -1.360456000e+00
82000000.0 1.599153000e+00 -1.284019000e+00
83800000.0 1.625399000e+00 -1.208727000e+00
85600000.0 1.644005000e+00 -1.136223000e+00
87400000.0 1.656358000e+00 -1.062003000e+00
89200000.0 1.662089000e+00 -9.917520000e-01
91000000.0 1.664277000e+00 -9.218540000e-01
92800000.0 1.660409000e+00 -8.552410000e-01
94600000.0 1.652497000e+00 -7.912140000e-01
96400000.0 1.641723000e+00 -7.297850000e-01
98200000.0 1.625583000e+00 -6.720300000e-01
100000000.0 1.608197000e+00 -6.204440000e-01
118000000.0 1.378312000e+00 -2.444790000e-01
136000000.0 1.147205000e+00 -6.806500000e-02
154000000.0 1.000669000e+00 1.141000000e-03
172000000.0 1.003398000e+00 -1.300000000e-05
190000000.0 1.004916000e+00 -8.360000000e-04
208000000.0 1.005639000e+00 -1.632000000e-03
226000000.0 1.006428000e+00 -9.360000000e-04
244000000.0 1.006567000e+00 5.520000000e-04
262000000.0 1.005097000e+00 -7.330000000e-04
280000000.0 1.004241000e+00 7.460000000e-04
298000000.0 1.002801000e+00 9.020000000e-04
316000000.0 1.002269000e+00 -1.670800000e-02
334000000.0 1.004184000e+00 -8.790000000e-04
352000000.0 1.007506000e+00 6.790000000e-04
370000000.0 1.006286000e+00 -1.018000000e-03
388000000.0 1.005952000e+00 2.845000000e-03
406000000.0 1.003576000e+00 5.580000000e-04
424000000.0 1.002679000e+00 7.320000000e-04
442000000.0 9.994130000e-01 2.000000000e-04
460000000.0 1.001703000e+00 3.102000000e-03
478000000.0 1.004264000e+00 3.360000000e-03
496000000.0 1.006611000e+00 4.083000000e-03
514000000.0 1.009296000e+00 8.350000000e-03
532000000.0 1.007802000e+00 9.956000000e-03
550000000.0 1.010684000e+00 1.105700000e-02
568000000.0 1.006607000e+00 5.385000000e-03
586000000.0 1.005218000e+00 7.626000000e-03
604000000.0 1.002800000e+00 5.160000000e-03
622000000.0 1.010027000e+00 7.455000000e-03
640000000.0 1.015351000e+00 6.483000000e-03
658000000.0 1.018237000e+00 1.187300000e-02
676000000.0 1.019391000e+00 6.826000000e-03
694000000.0 1.017171000e+00 4.187000000e-03
712000000.0 1.011214000e+00 8.157000000e-03
730000000.0 1.007643000e+00 3.099000000e-03
748000000.0 1.002730000e+00 1.820000000e-04
766000000.0 1.005663000e+00 -2.432000000e-03
784000000.0 1.010798000e+00 -7.294000000e-03
802000000.0 1.014857000e+00 -6.235000000e-03
820000000.0 1.019172000e+00 -6.493000000e-03
838000000.0 1.017113000e+00 -6.371000000e-03
856000000.0 1.015217000e+00 -6.079000000e-03
874000000.0 1.009592000e+00 -5.636000000e-03
892000000.0 1.001168000e+00 -3.191000000e-03
910000000.0 1.030449000e+00 6.309100000e-02
928000000.0 1.002324000e+00 -6.031000000e-03
946000000.0 1.003468000e+00 -7.209000000e-03
964000000.0 1.005088000e+00 -8.850000000e-03
982000000.0 1.005200000e+00 -7.830000000e-03
1000000000.0 1.001882000e+00 -5.470000000e-03
1009000000.0 1.001408000e+00 -6.887000000e-03
1018000000.0 1.004314000e+00 -2.781000000e-03
1027000000.0 1.003393000e+00 -1.695000000e-03
1036000000.0 1.000149000e+00 -2.548000000e-03
1045000000.0 1.000428000e+00 -1.984000000e-03
1054000000.0 1.000612000e+00 2.220000000e-03
1063000000.0 9.991370000e-01 -3.433000000e-03
1072000000.0 1.000820000e+00 -2.449000000e-03
1081000000.0 1.003258000e+00 2.550000000e-03
1090000000.0 1.002887000e+00 5.496000000e-03
1099000000.0 1.004791000e+00 -1.862000000e-03
1108000000.0 1.003319000e+00 -2.351000000e-03
1117000000.0 1.004221000e+00 -6.641000000e-03
1126000000.0 1.014691000e+00 3.508000000e-02
1135000000.0 1.001363000e+00 -4.273000000e-03
1144000000.0 1.006315000e+00 -8.798000000e-03
1153000000.0 1.002445000e+00 -1.064400000e-02
1162000000.0 1.004220000e+00 -4.373000000e-03
1171000000.0 1.005684000e+00 -5.989000000e-03
1180000000.0 1.001408000e+00 -2.673000000e-03
1189000000.0 1.011094000e+00 5.590000000e-04
1198000000.0 1.003792000e+00 -6.369000000e-03
1207000000.0 1.004919000e+00 -1.001000000e-02
1216000000.0 1.005818000e+00 -6.499000000e-03
1225000000.0 1.006384000e+00 -3.584000000e-03
1234000000.0 1.005302000e+00 -6.756000000e-03
1243000000.0 1.007080000e+00 8.572000000e-03
1252000000.0 1.003801000e+00 -5.039000000e-03
1261000000.0 1.000314000e+00 -1.554100000e-02
1270000000.0 1.000248000e+00 9.830000000e-04
1279000000.0 1.003764000e+00 -4.568000000e-03
1288000000.0 1.005470000e+00 -1.981000000e-03
1297000000.0 1.006487000e+00 1.730000000e-03
1306000000.0 1.002511000e+00 1.952000000e-03
1315000000.0 1.005623000e+00 -6.792000000e-03
1324000000.0 1.007685000e+00 3.106000000e-03
1333000000.0 1.000214000e+00 -8.561000000e-03
1342000000.0 1.001841000e+00 -6.445000000e-03
1351000000.0 1.005932000e+00 4.487000000e-03
1360000000.0 1.005871000e+00 6.602000000e-03
1369000000.0 1.000442000e+00 8.205000000e-03
1378000000.0 1.006106000e+00 5.116000000e-03
1387000000.0 1.005861000e+00 1.191600000e-02
1396000000.0 1.003446000e+00 1.956700000e-02
1405000000.0 1.001038000e+00 1.754000000e-02
1414000000.0 1.002208000e+00 1.571300000e-02
1423000000.0 1.011632000e+00 1.446300000e-02
1432000000.0 1.001692000e+00 8.132000000e-03
1441000000.0 1.003777000e+00 1.913900000e-02
1450000000.0 1.001671000e+00 1.037200000e-02
