! piloto_saltos / abierto_tramosB / r06
# HZ S RI R 50
50000.0 1.006926000e+00 -6.901100000e-02
52500.0 1.005209000e+00 -6.496600000e-02
55000.0 1.005945000e+00 -6.269800000e-02
57500.0 1.006596000e+00 -5.861000000e-02
60000.0 1.001939000e+00 -5.321500000e-02
62500.0 1.006022000e+00 -5.140400000e-02
65000.0 1.004915000e+00 -4.653700000e-02
67500.0 1.004654000e+00 -4.313100000e-02
70000.0 1.004740000e+00 -4.000300000e-02
72500.0 1.005075000e+00 -3.616200000e-02
75000.0 1.003320000e+00 -3.191100000e-02
77500.0 1.002750000e+00 -3.012000000e-02
80000.0 1.003496000e+00 -2.639200000e-02
82500.0 1.002597000e+00 -2.331800000e-02
85000.0 1.002122000e+00 -1.963100000e-02
87500.0 1.001457000e+00 -1.671400000e-02
90000.0 1.001438000e+00 -1.349200000e-02
92500.0 1.001133000e+00 -1.004400000e-02
95000.0 1.001828000e+00 -6.290000000e-03
97500.0 1.000825000e+00 -2.895000000e-03
100000.0 1.000789000e+00 -4.800000000e-05
102500.0 1.000872000e+00 4.196000000e-03
105000.0 1.000681000e+00 7.055000000e-03
107500.0 1.000369000e+00 1.026300000e-02
110000.0 1.000797000e+00 1.355300000e-02
112500.0 1.000879000e+00 1.632800000e-02
115000.0 9.999410000e-01 1.966400000e-02
117500.0 9.994180000e-01 2.224900000e-02
120000.0 9.986450000e-01 2.657200000e-02
122500.0 1.001186000e+00 2.899700000e-02
125000.0 1.001341000e+00 3.213700000e-02
127500.0 1.001026000e+00 3.630500000e-02
130000.0 1.001340000e+00 3.887200000e-02
132500.0 1.001050000e+00 4.263200000e-02
135000.0 1.000896000e+00 4.482100000e-02
137500.0 9.997280000e-01 4.518500000e-02
140000.0 1.002165000e+00 5.200700000e-02
142500.0 1.001805000e+00 5.408800000e-02
145000.0 1.001602000e+00 5.913200000e-02
147500.0 1.001816000e+00 6.209300000e-02
150000.0 1.001768000e+00 6.492700000e-02
152500.0 1.002431000e+00 6.801000000e-02
155000.0 1.002206000e+00 7.115300000e-02
157500.0 1.002468000e+00 7.391200000e-02
160000.0 1.001521000e+00 7.701200000e-02
162500.0 1.002284000e+00 8.082200000e-02
165000.0 1.002423000e+00 8.364200000e-02
167500.0 1.002236000e+00 8.687500000e-02
170000.0 1.002798000e+00 9.022500000e-02
172500.0 1.003039000e+00 9.360200000e-02
175000.0 1.002337000e+00 9.617900000e-02
177500.0 1.002457000e+00 9.970200000e-02
180000.0 1.002193000e+00 1.022420000e-01
182500.0 1.003113000e+00 1.057850000e-01
185000.0 1.003693000e+00 1.086690000e-01
187500.0 1.003150000e+00 1.119640000e-01
190000.0 1.003809000e+00 1.143700000e-01
192500.0 1.004326000e+00 1.179870000e-01
195000.0 1.004178000e+00 1.211350000e-01
197500.0 1.003112000e+00 1.245200000e-01
200000.0 1.003753000e+00 1.274520000e-01
202500.0 1.004048000e+00 1.302770000e-01
205000.0 1.004397000e+00 1.336230000e-01
207500.0 1.003817000e+00 1.362100000e-01
210000.0 1.004447000e+00 1.392810000e-01
212500.0 1.004435000e+00 1.428430000e-01
215000.0 1.004088000e+00 1.460040000e-01
217500.0 1.003838000e+00 1.481110000e-01
220000.0 1.004248000e+00 1.515430000e-01
222500.0 1.004104000e+00 1.542250000e-01
225000.0 1.004770000e+00 1.580480000e-01
227500.0 1.005338000e+00 1.605430000e-01
230000.0 1.004795000e+00 1.632880000e-01
232500.0 1.005076000e+00 1.665070000e-01
235000.0 1.005237000e+00 1.688600000e-01
237500.0 1.004277000e+00 1.719620000e-01
240000.0 1.004806000e+00 1.752930000e-01
242500.0 1.005189000e+00 1.783730000e-01
245000.0 1.005072000e+00 1.820210000e-01
247500.0 1.005644000e+00 1.836340000e-01
250000.0 1.005588000e+00 1.875730000e-01
252500.0 1.006231000e+00 1.906480000e-01
255000.0 1.005542000e+00 1.934090000e-01
257500.0 1.005553000e+00 1.965310000e-01
260000.0 1.005215000e+00 1.996690000e-01
262500.0 1.006894000e+00 2.030040000e-01
265000.0 1.005543000e+00 2.053860000e-01
267500.0 1.005832000e+00 2.080300000e-01
270000.0 1.005312000e+00 2.108550000e-01
272500.0 1.006267000e+00 2.145280000e-01
275000.0 1.005793000e+00 2.173540000e-01
277500.0 1.006301000e+00 2.202030000e-01
280000.0 1.006058000e+00 2.230900000e-01
282500.0 1.005753000e+00 2.254230000e-01
285000.0 1.006788000e+00 2.285950000e-01
287500.0 1.006673000e+00 2.322550000e-01
290000.0 1.006516000e+00 2.352730000e-01
292500.0 1.006248000e+00 2.369870000e-01
295000.0 1.007313000e+00 2.407050000e-01
297500.0 1.007100000e+00 2.434490000e-01
300000.0 1.007328000e+00 2.466590000e-01
327000.0 1.006096000e+00 2.756040000e-01
354000.0 1.007279000e+00 3.068210000e-01
381000.0 1.007523000e+00 3.364420000e-01
408000.0 1.008211000e+00 3.670260000e-01
435000.0 1.009655000e+00 3.968940000e-01
462000.0 1.010244000e+00 4.253940000e-01
489000.0 1.011839000e+00 4.547700000e-01
516000.0 1.012033000e+00 4.836590000e-01
543000.0 1.013907000e+00 5.119810000e-01
570000.0 1.014370000e+00 5.399820000e-01
597000.0 1.017486000e+00 5.680690000e-01
624000.0 1.019136000e+00 5.949400000e-01
651000.0 1.021138000e+00 6.221480000e-01
678000.0 1.022235000e+00 6.499230000e-01
705000.0 1.026384000e+00 6.767940000e-01
732000.0 1.028920000e+00 7.039900000e-01
759000.0 1.031676000e+00 7.318860000e-01
786000.0 1.034791000e+00 7.581580000e-01
813000.0 1.040592000e+00 7.839420000e-01
840000.0 1.043742000e+00 8.099470000e-01
867000.0 1.048553000e+00 8.354190000e-01
894000.0 1.054255000e+00 8.623390000e-01
921000.0 1.061669000e+00 8.872240000e-01
948000.0 1.069160000e+00 9.123350000e-01
975000.0 1.076037000e+00 9.387920000e-01
1002000.0 1.083031000e+00 9.640830000e-01
1029000.0 1.092866000e+00 9.853600000e-01
1056000.0 1.099550000e+00 1.011480000e+00
1083000.0 1.109771000e+00 1.035363000e+00
1110000.0 1.121603000e+00 1.058367000e+00
1137000.0 1.133385000e+00 1.083421000e+00
1164000.0 1.146860000e+00 1.105626000e+00
1191000.0 1.159482000e+00 1.125384000e+00
1218000.0 1.175871000e+00 1.146058000e+00
1245000.0 1.190002000e+00 1.169203000e+00
1272000.0 1.206495000e+00 1.188971000e+00
1299000.0 1.223857000e+00 1.206443000e+00
1326000.0 1.242352000e+00 1.225762000e+00
1353000.0 1.259727000e+00 1.244655000e+00
1380000.0 1.283308000e+00 1.260324000e+00
1407000.0 1.301763000e+00 1.276856000e+00
1434000.0 1.324835000e+00 1.291252000e+00
1461000.0 1.347174000e+00 1.305245000e+00
1488000.0 1.370362000e+00 1.315072000e+00
1515000.0 1.395438000e+00 1.325662000e+00
1542000.0 1.418116000e+00 1.335159000e+00
1569000.0 1.445005000e+00 1.343440000e+00
1596000.0 1.471684000e+00 1.349123000e+00
1623000.0 1.495717000e+00 1.353143000e+00
1650000.0 1.523123000e+00 1.356046000e+00
1677000.0 1.552213000e+00 1.354292000e+00
1704000.0 1.577318000e+00 1.357209000e+00
1731000.0 1.605768000e+00 1.352532000e+00
1758000.0 1.633400000e+00 1.344545000e+00
1785000.0 1.657207000e+00 1.341068000e+00
1812000.0 1.688042000e+00 1.330843000e+00
1839000.0 1.711563000e+00 1.317798000e+00
1866000.0 1.737217000e+00 1.307536000e+00
1893000.0 1.763575000e+00 1.295248000e+00
1920000.0 1.786596000e+00 1.276743000e+00
1947000.0 1.808002000e+00 1.259233000e+00
1974000.0 1.831957000e+00 1.239354000e+00
2001000.0 1.850306000e+00 1.218862000e+00
2028000.0 1.867168000e+00 1.199121000e+00
2055000.0 1.886170000e+00 1.174635000e+00
2082000.0 1.900291000e+00 1.148075000e+00
2109000.0 1.914035000e+00 1.124143000e+00
2136000.0 1.927433000e+00 1.097927000e+00
2163000.0 1.938310000e+00 1.074322000e+00
2190000.0 1.944526000e+00 1.046684000e+00
2217000.0 1.951808000e+00 1.019056000e+00
2244000.0 1.959357000e+00 9.930700000e-01
2271000.0 1.964586000e+00 9.677270000e-01
2298000.0 1.969465000e+00 9.434570000e-01
2325000.0 1.970571000e+00 9.116030000e-01
2352000.0 1.967395000e+00 8.860800000e-01
2379000.0 1.966106000e+00 8.599200000e-01
2406000.0 1.964520000e+00 8.335750000e-01
2433000.0 1.959304000e+00 8.096050000e-01
2460000.0 1.954883000e+00 7.845240000e-01
2487000.0 1.947745000e+00 7.588890000e-01
2514000.0 1.944058000e+00 7.362010000e-01
2541000.0 1.936953000e+00 7.180560000e-01
2568000.0 1.929538000e+00 6.911060000e-01
2595000.0 1.917857000e+00 6.718500000e-01
2622000.0 1.908797000e+00 6.500070000e-01
2649000.0 1.898636000e+00 6.308220000e-01
2676000.0 1.890104000e+00 6.143830000e-01
2703000.0 1.877583000e+00 5.929170000e-01
2730000.0 1.867779000e+00 5.765680000e-01
2757000.0 1.854853000e+00 5.591960000e-01
2784000.0 1.842904000e+00 5.455420000e-01
2811000.0 1.832350000e+00 5.273090000e-01
2838000.0 1.821691000e+00 5.134270000e-01
2865000.0 1.808921000e+00 4.978740000e-01
2892000.0 1.798437000e+00 4.848390000e-01
2919000.0 1.787055000e+00 4.731770000e-01
2946000.0 1.774847000e+00 4.593420000e-01
2973000.0 1.763490000e+00 4.475300000e-01
3000000.0 1.750296000e+00 4.339840000e-01
3270000.0 1.641955000e+00 3.354750000e-01
3540000.0 1.545336000e+00 2.650580000e-01
3810000.0 1.468411000e+00 2.090500000e-01
4080000.0 1.408015000e+00 1.623090000e-01
4350000.0 1.358659000e+00 1.191060000e-01
4620000.0 1.322503000e+00 7.901000000e-02
4890000.0 1.295878000e+00 4.017100000e-02
5160000.0 1.270530000e+00 2.465000000e-03
5430000.0 1.256967000e+00 -3.302100000e-02
5700000.0 1.246398000e+00 -6.723600000e-02
5970000.0 1.239058000e+00 -9.989500000e-02
6240000.0 1.230764000e+00 -1.280570000e-01
6510000.0 1.225676000e+00 -1.522010000e-01
6780000.0 1.222353000e+00 -1.720460000e-01
7050000.0 1.220369000e+00 -1.858730000e-01
7320000.0 1.220153000e+00 -1.922990000e-01
7590000.0 -2.414590000e-01 -1.258305000e+00
7860000.0 -2.408500000e-01 -1.259773000e+00
8130000.0 -2.369380000e-01 -1.260987000e+00
8400000.0 -2.365060000e-01 -1.263262000e+00
8670000.0 -2.329290000e-01 -1.263452000e+00
8940000.0 -2.315450000e-01 -1.267432000e+00
9210000.0 -2.297830000e-01 -1.268991000e+00
9480000.0 -2.273150000e-01 -1.271858000e+00
9750000.0 -2.263570000e-01 -1.272373000e+00
10020000.0 -2.245940000e-01 -1.275673000e+00
10290000.0 -2.222430000e-01 -1.278254000e+00
10560000.0 -2.195980000e-01 -1.279658000e+00
10830000.0 -2.190110000e-01 -1.283038000e+00
11100000.0 -2.166110000e-01 -1.287109000e+00
11370000.0 -2.147850000e-01 -1.288955000e+00
11640000.0 -2.136660000e-01 -1.292160000e+00
11910000.0 -1.901030000e-01 -1.299549000e+00
12180000.0 -2.101890000e-01 -1.298274000e+00
12450000.0 -2.090740000e-01 -1.301028000e+00
12720000.0 -2.054010000e-01 -1.304259000e+00
12990000.0 -2.038030000e-01 -1.308428000e+00
13260000.0 -2.038710000e-01 -1.310441000e+00
13530000.0 -2.008000000e-01 -1.314977000e+00
13800000.0 -1.991350000e-01 -1.317482000e+00
14070000.0 -1.969140000e-01 -1.320588000e+00
14340000.0 -1.948630000e-01 -1.323498000e+00
14610000.0 -1.935290000e-01 -1.325992000e+00
14880000.0 -1.916760000e-01 -1.330572000e+00
15150000.0 -1.894800000e-01 -1.333734000e+00
15420000.0 -1.876490000e-01 -1.337180000e+00
15690000.0 -1.858490000e-01 -1.341140000e+00
15960000.0 -1.844670000e-01 -1.342788000e+00
16230000.0 -1.822530000e-01 -1.347432000e+00
16500000.0 -1.810240000e-01 -1.350589000e+00
16770000.0 -1.788120000e-01 -1.354463000e+00
17040000.0 -1.767470000e-01 -1.359649000e+00
17310000.0 -1.744630000e-01 -1.361237000e+00
17580000.0 -1.712930000e-01 -1.365348000e+00
17850000.0 -1.706880000e-01 -1.369010000e+00
18120000.0 -1.678440000e-01 -1.372209000e+00
18390000.0 -1.662460000e-01 -1.375118000e+00
18660000.0 -1.636400000e-01 -1.379937000e+00
18930000.0 -1.620520000e-01 -1.383598000e+00
19200000.0 -1.577870000e-01 -1.387711000e+00
19470000.0 -1.559550000e-01 -1.391526000e+00
19740000.0 -1.551210000e-01 -1.395209000e+00
20010000.0 -1.519150000e-01 -1.398709000e+00
20280000.0 -1.491810000e-01 -1.402241000e+00
20550000.0 -1.467010000e-01 -1.405864000e+00
20820000.0 -1.451700000e-01 -1.410554000e+00
21090000.0 -1.420960000e-01 -1.414866000e+00
21360000.0 -1.399830000e-01 -1.417895000e+00
21630000.0 -1.380130000e-01 -1.421827000e+00
21900000.0 -1.345960000e-01 -1.425506000e+00
22170000.0 -1.323120000e-01 -1.431003000e+00
22440000.0 -1.297950000e-01 -1.434096000e+00
22710000.0 -1.256290000e-01 -1.438230000e+00
22980000.0 -1.231680000e-01 -1.441740000e+00
23250000.0 -1.202200000e-01 -1.445612000e+00
23520000.0 -1.178660000e-01 -1.449711000e+00
23790000.0 -1.160440000e-01 -1.454206000e+00
24060000.0 -1.124380000e-01 -1.457279000e+00
24330000.0 -1.100380000e-01 -1.462026000e+00
24600000.0 -1.072010000e-01 -1.466401000e+00
24870000.0 -1.019780000e-01 -1.469476000e+00
25140000.0 -1.004090000e-01 -1.474685000e+00
25410000.0 -9.723000000e-02 -1.478361000e+00
25680000.0 -9.423500000e-02 -1.482641000e+00
25950000.0 -9.097900000e-02 -1.486699000e+00
26220000.0 -8.752400000e-02 -1.490716000e+00
26490000.0 -8.335800000e-02 -1.493962000e+00
26760000.0 -7.995000000e-02 -1.497168000e+00
27030000.0 -7.623600000e-02 -1.504395000e+00
27300000.0 -7.200500000e-02 -1.507083000e+00
27570000.0 -7.058600000e-02 -1.512206000e+00
27840000.0 -6.575500000e-02 -1.515289000e+00
28110000.0 -6.287000000e-02 -1.520311000e+00
28380000.0 -5.809200000e-02 -1.525294000e+00
28650000.0 -5.478600000e-02 -1.528267000e+00
28920000.0 -5.085700000e-02 -1.533435000e+00
29190000.0 -4.701100000e-02 -1.537151000e+00
29460000.0 -4.318400000e-02 -1.542096000e+00
29730000.0 -4.010500000e-02 -1.547053000e+00
30000000.0 -3.581000000e-02 -1.550421000e+00
32700000.0 6.362000000e-03 -1.594470000e+00
35400000.0 5.530000000e-02 -1.639180000e+00
38100000.0 1.096650000e-01 -1.683170000e+00
40800000.0 1.708160000e-01 -1.724826000e+00
43500000.0 2.389770000e-01 -1.764668000e+00
46200000.0 3.178690000e-01 -1.804400000e+00
48900000.0 4.031280000e-01 -1.834758000e+00
51600000.0 4.971800000e-01 -1.860369000e+00
54300000.0 5.977080000e-01 -1.879159000e+00
57000000.0 7.055670000e-01 -1.885678000e+00
59700000.0 8.175920000e-01 -1.879955000e+00
62400000.0 9.348650000e-01 -1.859273000e+00
65100000.0 1.052284000e+00 -1.822282000e+00
67800000.0 1.168648000e+00 -1.771127000e+00
70500000.0 1.276692000e+00 -1.704234000e+00
73200000.0 1.375519000e+00 -1.621322000e+00
75900000.0 1.461524000e+00 -1.526264000e+00
78600000.0 1.530356000e+00 -1.423330000e+00
81300000.0 1.587893000e+00 -1.310367000e+00
84000000.0 1.627378000e+00 -1.202543000e+00
86700000.0 1.653232000e+00 -1.090267000e+00
89400000.0 1.664030000e+00 -9.836730000e-01
92100000.0 1.663952000e+00 -8.794210000e-01
94800000.0 1.653276000e+00 -7.849870000e-01
97500000.0 1.633849000e+00 -6.959450000e-01
100200000.0 1.609515000e+00 -6.136000000e-01
102900000.0 1.576903000e+00 -5.416890000e-01
105600000.0 1.544293000e+00 -4.712560000e-01
108300000.0 1.510471000e+00 -4.143320000e-01
111000000.0 1.473875000e+00 -3.609420000e-01
113700000.0 1.437628000e+00 -3.102470000e-01
116400000.0 1.398452000e+00 -2.672710000e-01
119100000.0 1.362267000e+00 -2.287320000e-01
121800000.0 1.326757000e+00 -1.942420000e-01
124500000.0 1.289174000e+00 -1.640110000e-01
127200000.0 1.253950000e+00 -1.361170000e-01
129900000.0 1.219756000e+00 -1.116980000e-01
132600000.0 1.189217000e+00 -9.063500000e-02
135300000.0 1.155153000e+00 -7.350100000e-02
138000000.0 1.124958000e+00 -5.584600000e-02
140700000.0 1.093746000e+00 -4.039900000e-02
143400000.0 1.065581000e+00 -2.718400000e-02
146100000.0 1.037878000e+00 -1.526500000e-02
148800000.0 1.011910000e+00 -4.597000000e-03
151500000.0 1.000183000e+00 7.190000000e-04
154200000.0 9.995910000e-01 2.900000000e-04
156900000.0 1.000707000e+00 2.350000000e-04
159600000.0 1.001484000e+00 1.830000000e-04
162300000.0 1.002503000e+00 8.650000000e-04
165000000.0 1.002322000e+00 1.440000000e-04
167700000.0 1.000758000e+00 1.590000000e-04
170400000.0 1.002832000e+00 -6.270000000e-04
173100000.0 1.002894000e+00 -5.710000000e-04
175800000.0 1.001972000e+00 1.000000000e-04
178500000.0 1.003767000e+00 -1.923000000e-03
181200000.0 1.002622000e+00 -1.155000000e-03
183900000.0 1.004447000e+00 -9.290000000e-04
186600000.0 1.003808000e+00 -1.201000000e-03
189300000.0 1.004695000e+00 -1.890000000e-03
192000000.0 1.005406000e+00 -1.765000000e-03
194700000.0 1.004037000e+00 -8.740000000e-04
197400000.0 1.005126000e+00 -2.013000000e-03
200100000.0 1.005073000e+00 -1.314000000e-03
202800000.0 1.004783000e+00 2.500000000e-04
205500000.0 1.004938000e+00 -1.850000000e-04
208200000.0 1.004393000e+00 -3.370000000e-04
210900000.0 1.005629000e+00 -1.950000000e-03
213600000.0 1.005491000e+00 -2.225000000e-03
216300000.0 1.004637000e+00 -1.090000000e-04
219000000.0 1.005891000e+00 -1.067000000e-03
221700000.0 1.005087000e+00 -1.317000000e-03
224400000.0 1.007260000e+00 -7.120000000e-04
227100000.0 1.006405000e+00 -3.440000000e-04
229800000.0 1.006796000e+00 -6.050000000e-04
232500000.0 1.006209000e+00 -1.056000000e-03
235200000.0 1.007055000e+00 -2.908000000e-03
237900000.0 1.006632000e+00 -1.331000000e-03
240600000.0 1.005708000e+00 -1.405000000e-03
243300000.0 1.006129000e+00 -1.941000000e-03
246000000.0 1.006115000e+00 -1.037000000e-03
248700000.0 1.005089000e+00 -2.341000000e-03
251400000.0 1.005668000e+00 -1.509000000e-03
254100000.0 1.005640000e+00 -9.850000000e-04
256800000.0 1.004736000e+00 7.150000000e-04
259500000.0 1.005818000e+00 -1.400000000e-05
262200000.0 1.004358000e+00 -2.151000000e-03
264900000.0 1.005101000e+00 -4.460000000e-04
267600000.0 1.004194000e+00 -1.438000000e-03
270300000.0 1.005720000e+00 -1.590000000e-03
273000000.0 1.004902000e+00 1.840000000e-04
275700000.0 1.005026000e+00 2.490000000e-04
278400000.0 9.999050000e-01 -1.410000000e-04
281100000.0 1.004136000e+00 -8.500000000e-04
283800000.0 1.003879000e+00 -7.820000000e-04
286500000.0 1.003708000e+00 -6.850000000e-04
289200000.0 1.001778000e+00 1.990000000e-04
291900000.0 1.003701000e+00 -2.610000000e-04
294600000.0 1.001326000e+00 -1.439000000e-03
297300000.0 1.001324000e+00 -1.501000000e-03
300000000.0 1.001344000e+00 -2.890000000e-04
311500000.0 1.003483000e+00 4.320000000e-04
323000000.0 1.004014000e+00 -3.970000000e-04
334500000.0 1.004836000e+00 1.680000000e-03
346000000.0 1.006848000e+00 1.438000000e-03
357500000.0 1.006438000e+00 3.600000000e-05
369000000.0 1.006186000e+00 -7.900000000e-05
380500000.0 1.008272000e+00 1.933300000e-02
392000000.0 1.005399000e+00 4.530000000e-04
403500000.0 1.004664000e+00 9.040000000e-04
415000000.0 1.004568000e+00 1.274000000e-03
426500000.0 1.004606000e+00 1.794900000e-02
438000000.0 1.001004000e+00 1.417000000e-03
449500000.0 9.985850000e-01 -1.744800000e-02
461000000.0 1.000603000e+00 4.787000000e-03
472500000.0 1.004972000e+00 2.036300000e-02
484000000.0 1.004612000e+00 3.469000000e-03
495500000.0 1.004731000e+00 -1.286300000e-02
507000000.0 1.007581000e+00 7.281000000e-03
518500000.0 1.009133000e+00 6.863000000e-03
530000000.0 1.009296000e+00 7.730000000e-03
541500000.0 1.009441000e+00 1.006600000e-02
553000000.0 1.009900000e+00 9.090000000e-03
564500000.0 1.006721000e+00 7.391000000e-03
576000000.0 1.005524000e+00 4.821000000e-03
587500000.0 1.005294000e+00 7.540000000e-03
599000000.0 1.001373000e+00 7.059000000e-03
610500000.0 1.003740000e+00 4.001000000e-03
622000000.0 1.000443000e+00 -2.704300000e-02
633500000.0 1.013157000e+00 7.798000000e-03
645000000.0 1.012195000e+00 -7.460000000e-03
656500000.0 1.005874000e+00 -2.856200000e-02
668000000.0 1.017810000e+00 8.749000000e-03
679500000.0 1.014665000e+00 7.546000000e-03
691000000.0 1.015127000e+00 6.029000000e-03
702500000.0 1.019812000e+00 5.794000000e-03
714000000.0 1.012423000e+00 -1.751400000e-02
725500000.0 1.009824000e+00 6.943000000e-03
737000000.0 1.005703000e+00 3.007000000e-03
748500000.0 1.003135000e+00 -5.600000000e-05
760000000.0 1.003216000e+00 -4.610000000e-04
771500000.0 1.010218000e+00 -2.471000000e-03
783000000.0 1.015001000e+00 -3.231000000e-03
794500000.0 1.013824000e+00 -4.628000000e-03
806000000.0 1.017127000e+00 -3.914000000e-03
817500000.0 1.018222000e+00 -8.070000000e-03
829000000.0 1.020154000e+00 -4.242000000e-03
840500000.0 1.018219000e+00 -7.556000000e-03
852000000.0 1.015522000e+00 -7.530000000e-04
863500000.0 1.015064000e+00 1.342000000e-03
875000000.0 1.010980000e+00 -1.401000000e-03
886500000.0 1.009241000e+00 4.858000000e-03
898000000.0 9.984530000e-01 2.984000000e-03
909500000.0 1.001679000e+00 -8.453000000e-03
921000000.0 1.005200000e+00 -4.523000000e-03
932500000.0 1.002779000e+00 -5.337000000e-03
944000000.0 1.004776000e+00 -6.998000000e-03
955500000.0 1.001774000e+00 -4.227000000e-03
967000000.0 1.003512000e+00 -4.963000000e-03
978500000.0 1.006976000e+00 -6.967000000e-03
990000000.0 1.004657000e+00 -8.935000000e-03
1001500000.0 1.004015000e+00 -1.018700000e-02
1013000000.0 1.004287000e+00 -5.795000000e-03
1024500000.0 1.004092000e+00 -6.090000000e-04
1036000000.0 1.002227000e+00 -7.470000000e-04
1047500000.0 1.001454000e+00 3.532000000e-03
1059000000.0 1.001001000e+00 3.206000000e-03
1070500000.0 9.986720000e-01 4.350000000e-04
1082000000.0 1.006719000e+00 -1.870000000e-03
1093500000.0 1.006530000e+00 2.577000000e-03
1105000000.0 1.000751000e+00 2.196000000e-03
1116500000.0 1.005960000e+00 -3.145000000e-03
1128000000.0 1.011709000e+00 -3.021300000e-02
1139500000.0 1.001634000e+00 -3.271000000e-03
1151000000.0 1.007606000e+00 -6.031000000e-03
1162500000.0 1.002168000e+00 -4.256000000e-03
1174000000.0 1.005170000e+00 -4.581000000e-03
1185500000.0 1.005774000e+00 -1.225600000e-02
1197000000.0 1.002663000e+00 -5.893000000e-03
1208500000.0 1.006944000e+00 3.009000000e-03
1220000000.0 1.003530000e+00 -2.734000000e-03
1231500000.0 1.005624000e+00 -7.795000000e-03
1243000000.0 1.003733000e+00 -1.574000000e-03
1254500000.0 1.005599000e+00 -3.826000000e-03
1266000000.0 9.989620000e-01 3.088000000e-03
1277500000.0 1.007268000e+00 8.620000000e-04
1289000000.0 1.005963000e+00 6.333000000e-03
1300500000.0 1.008147000e+00 4.157000000e-03
1312000000.0 1.002808000e+00 4.343000000e-03
1323500000.0 1.000349000e+00 4.478000000e-03
1335000000.0 1.006916000e+00 6.980000000e-04
1346500000.0 1.003097000e+00 4.613000000e-03
1358000000.0 1.002954000e+00 1.011000000e-03
1369500000.0 1.002736000e+00 -8.100000000e-04
1381000000.0 9.987320000e-01 7.037000000e-03
1392500000.0 1.001632000e+00 1.703600000e-02
1404000000.0 1.001588000e+00 3.423700000e-02
1415500000.0 1.002441000e+00 1.768700000e-02
1427000000.0 1.001889000e+00 1.555700000e-02
1438500000.0 1.002883000e+00 1.575700000e-02
1450000000.0 1.001907000e+00 1.625600000e-02
