! piloto_saltos / abierto_pausado / r09
# HZ S RI R 50
50000.0 1.006504000e+00 -7.003900000e-02
59500.0 1.005720000e+00 -5.662600000e-02
69000.0 1.003753000e+00 -4.103800000e-02
78500.0 1.002358000e+00 -2.970200000e-02
88000.0 1.002320000e+00 -1.674400000e-02
97500.0 1.000966000e+00 -4.202000000e-03
107000.0 9.991850000e-01 7.692000000e-03
116500.0 1.000645000e+00 2.037900000e-02
126000.0 9.983660000e-01 3.259200000e-02
135500.0 1.000588000e+00 4.557400000e-02
145000.0 1.001245000e+00 5.671300000e-02
154500.0 1.002005000e+00 6.964600000e-02
164000.0 1.002092000e+00 8.171200000e-02
173500.0 1.002993000e+00 9.331200000e-02
183000.0 1.002997000e+00 1.043300000e-01
192500.0 1.002903000e+00 1.162840000e-01
202000.0 1.003712000e+00 1.292730000e-01
211500.0 1.003373000e+00 1.405870000e-01
221000.0 1.003871000e+00 1.509320000e-01
230500.0 1.004053000e+00 1.628750000e-01
240000.0 1.004336000e+00 1.743960000e-01
249500.0 1.005263000e+00 1.855100000e-01
259000.0 1.005094000e+00 1.965780000e-01
268500.0 1.004838000e+00 2.075500000e-01
278000.0 1.005574000e+00 2.190500000e-01
287500.0 1.005838000e+00 2.297680000e-01
297000.0 1.006908000e+00 2.409110000e-01
306500.0 1.006341000e+00 2.519240000e-01
316000.0 1.007831000e+00 2.636520000e-01
325500.0 1.006353000e+00 2.737600000e-01
335000.0 1.007340000e+00 2.836760000e-01
344500.0 1.007437000e+00 2.947580000e-01
354000.0 1.006688000e+00 3.059520000e-01
363500.0 1.008327000e+00 3.164080000e-01
373000.0 1.007634000e+00 3.265420000e-01
382500.0 1.007847000e+00 3.371480000e-01
392000.0 1.008101000e+00 3.478820000e-01
401500.0 1.008538000e+00 3.586430000e-01
411000.0 1.008462000e+00 3.689010000e-01
420500.0 1.009430000e+00 3.790720000e-01
430000.0 1.009288000e+00 3.892350000e-01
439500.0 1.009124000e+00 3.992360000e-01
449000.0 1.009395000e+00 4.104740000e-01
458500.0 1.010331000e+00 4.199230000e-01
468000.0 1.010209000e+00 4.303740000e-01
477500.0 1.011097000e+00 4.403260000e-01
487000.0 1.010666000e+00 4.505440000e-01
496500.0 1.011086000e+00 4.608980000e-01
506000.0 1.011697000e+00 4.704460000e-01
515500.0 1.012297000e+00 4.802470000e-01
525000.0 1.012424000e+00 4.903550000e-01
534500.0 1.013119000e+00 5.008880000e-01
544000.0 1.013258000e+00 5.109690000e-01
553500.0 1.014628000e+00 5.198740000e-01
563000.0 1.013558000e+00 5.296160000e-01
572500.0 1.014805000e+00 5.390650000e-01
582000.0 1.014193000e+00 5.499110000e-01
591500.0 1.016268000e+00 5.589540000e-01
601000.0 1.016656000e+00 5.693110000e-01
610500.0 1.016129000e+00 5.786700000e-01
620000.0 1.017150000e+00 5.884650000e-01
629500.0 1.016627000e+00 5.979220000e-01
639000.0 1.018756000e+00 6.081880000e-01
648500.0 1.018414000e+00 6.174000000e-01
658000.0 1.017216000e+00 5.943230000e-01
667500.0 1.020547000e+00 6.369460000e-01
677000.0 1.021089000e+00 6.459190000e-01
686500.0 1.022174000e+00 6.545360000e-01
696000.0 1.022126000e+00 6.644040000e-01
705500.0 1.024534000e+00 6.739430000e-01
715000.0 1.025186000e+00 6.838180000e-01
724500.0 1.026515000e+00 6.934850000e-01
734000.0 1.027674000e+00 7.025560000e-01
743500.0 1.028052000e+00 7.116340000e-01
753000.0 1.030605000e+00 7.214470000e-01
762500.0 1.029758000e+00 7.304440000e-01
772000.0 1.031237000e+00 7.400870000e-01
781500.0 1.033696000e+00 7.480260000e-01
791000.0 1.034357000e+00 7.579990000e-01
800500.0 1.036521000e+00 7.684460000e-01
810000.0 1.036876000e+00 7.776510000e-01
819500.0 1.037458000e+00 7.863400000e-01
829000.0 1.039288000e+00 7.947160000e-01
838500.0 1.041603000e+00 8.045340000e-01
848000.0 1.042458000e+00 8.140770000e-01
857500.0 1.045087000e+00 8.222450000e-01
867000.0 1.046901000e+00 8.316520000e-01
876500.0 1.046781000e+00 8.399710000e-01
886000.0 1.049618000e+00 8.503870000e-01
895500.0 1.052966000e+00 8.583450000e-01
905000.0 1.055266000e+00 8.677470000e-01
914500.0 1.056908000e+00 8.759330000e-01
924000.0 1.058574000e+00 8.861580000e-01
933500.0 1.060468000e+00 8.942490000e-01
943000.0 1.062988000e+00 9.036630000e-01
952500.0 1.066683000e+00 9.116050000e-01
962000.0 1.067493000e+00 9.214070000e-01
971500.0 1.070712000e+00 9.293810000e-01
981000.0 1.073943000e+00 9.376350000e-01
990500.0 1.075710000e+00 9.467480000e-01
1000000.0 1.078199000e+00 9.559670000e-01
1090000.0 1.105631000e+00 1.035845000e+00
1180000.0 1.146976000e+00 1.112721000e+00
1270000.0 1.196328000e+00 1.183269000e+00
1360000.0 1.254941000e+00 1.244122000e+00
1450000.0 1.323311000e+00 1.295154000e+00
1540000.0 1.402454000e+00 1.332611000e+00
1630000.0 1.489363000e+00 1.352369000e+00
1720000.0 1.578577000e+00 1.354768000e+00
1810000.0 1.669881000e+00 1.335270000e+00
1900000.0 1.756117000e+00 1.298128000e+00
1990000.0 1.826884000e+00 1.239828000e+00
2080000.0 1.890112000e+00 1.165233000e+00
2170000.0 1.931813000e+00 1.081201000e+00
2260000.0 1.958950000e+00 9.921880000e-01
2350000.0 1.967632000e+00 9.027330000e-01
2440000.0 1.959759000e+00 8.158430000e-01
2530000.0 1.941325000e+00 7.332140000e-01
2620000.0 1.913737000e+00 6.618360000e-01
2710000.0 1.881859000e+00 5.976720000e-01
2800000.0 1.843398000e+00 5.418850000e-01
2890000.0 1.805893000e+00 4.929060000e-01
2980000.0 1.766297000e+00 4.467250000e-01
3070000.0 1.728236000e+00 4.101940000e-01
3160000.0 1.690744000e+00 3.757480000e-01
3250000.0 1.654934000e+00 3.463490000e-01
3340000.0 1.620497000e+00 3.177880000e-01
3430000.0 1.587192000e+00 2.946150000e-01
3520000.0 1.556935000e+00 2.717710000e-01
3610000.0 1.528962000e+00 2.507610000e-01
3700000.0 1.502539000e+00 2.329080000e-01
3790000.0 1.477899000e+00 2.151800000e-01
3880000.0 1.455283000e+00 1.990340000e-01
3970000.0 1.434065000e+00 1.811460000e-01
4060000.0 1.414294000e+00 1.652880000e-01
4150000.0 1.397800000e+00 1.516160000e-01
4240000.0 1.380565000e+00 1.367560000e-01
4330000.0 1.365940000e+00 1.232280000e-01
4420000.0 1.351902000e+00 1.066200000e-01
4510000.0 1.338169000e+00 9.636500000e-02
4600000.0 1.326529000e+00 8.064100000e-02
4690000.0 1.315628000e+00 6.879900000e-02
4780000.0 1.307683000e+00 5.514500000e-02
4870000.0 1.298355000e+00 4.388900000e-02
4960000.0 1.291739000e+00 2.919600000e-02
5050000.0 1.276551000e+00 1.652100000e-02
5140000.0 1.272783000e+00 5.072000000e-03
5230000.0 1.266465000e+00 -7.719000000e-03
5320000.0 1.261808000e+00 -1.932200000e-02
5410000.0 1.259537000e+00 -3.098600000e-02
5500000.0 1.255634000e+00 -4.316900000e-02
5590000.0 1.250869000e+00 -5.294100000e-02
5680000.0 1.247981000e+00 -6.586000000e-02
5770000.0 1.245383000e+00 -7.639800000e-02
5860000.0 1.241440000e+00 -8.704000000e-02
5950000.0 1.238519000e+00 -9.802800000e-02
6040000.0 1.237034000e+00 -1.085210000e-01
6130000.0 1.234647000e+00 -1.176260000e-01
6220000.0 1.232988000e+00 -1.270070000e-01
6310000.0 1.230949000e+00 -1.359910000e-01
6400000.0 1.228412000e+00 -1.452390000e-01
6490000.0 1.227449000e+00 -1.517840000e-01
6580000.0 1.225911000e+00 -1.590640000e-01
6670000.0 1.222844000e+00 -1.656860000e-01
6760000.0 1.223072000e+00 -1.715820000e-01
6850000.0 1.222030000e+00 -1.770560000e-01
6940000.0 1.220543000e+00 -1.816940000e-01
7030000.0 1.220664000e+00 -1.857160000e-01
7120000.0 1.219668000e+00 -1.889340000e-01
7210000.0 1.218184000e+00 -1.924280000e-01
7300000.0 1.218965000e+00 -1.928780000e-01
7390000.0 1.219712000e+00 -1.942540000e-01
7480000.0 1.219635000e+00 -1.928170000e-01
7570000.0 -2.440340000e-01 -1.258972000e+00
7660000.0 -2.427120000e-01 -1.259001000e+00
7750000.0 -2.410490000e-01 -1.259432000e+00
7840000.0 -2.398890000e-01 -1.259543000e+00
7930000.0 -2.402580000e-01 -1.259537000e+00
8020000.0 -2.406520000e-01 -1.261658000e+00
8110000.0 -2.374300000e-01 -1.262261000e+00
8200000.0 -2.367490000e-01 -1.261446000e+00
8290000.0 -2.376190000e-01 -1.262755000e+00
8380000.0 -2.363250000e-01 -1.263508000e+00
8470000.0 -2.353100000e-01 -1.264270000e+00
8560000.0 -2.348770000e-01 -1.264805000e+00
8650000.0 -2.337810000e-01 -1.265189000e+00
8740000.0 -2.339280000e-01 -1.264644000e+00
8830000.0 -2.329930000e-01 -1.265741000e+00
8920000.0 -2.308950000e-01 -1.266329000e+00
9010000.0 -2.312680000e-01 -1.267762000e+00
9100000.0 -2.301440000e-01 -1.269165000e+00
9190000.0 -2.293890000e-01 -1.268898000e+00
9280000.0 -2.296400000e-01 -1.268795000e+00
9370000.0 -2.285300000e-01 -1.269935000e+00
9460000.0 -2.281890000e-01 -1.270195000e+00
9550000.0 -2.287550000e-01 -1.269807000e+00
9640000.0 -2.267150000e-01 -1.272045000e+00
9730000.0 -2.263870000e-01 -1.272276000e+00
9820000.0 -2.251980000e-01 -1.274304000e+00
9910000.0 -2.239690000e-01 -1.275002000e+00
10000000.0 -2.250170000e-01 -1.274024000e+00
10900000.0 -2.185230000e-01 -1.284369000e+00
11800000.0 -2.142380000e-01 -1.295216000e+00
12700000.0 -2.064860000e-01 -1.305168000e+00
13600000.0 -2.004180000e-01 -1.316057000e+00
14500000.0 -1.943300000e-01 -1.326385000e+00
15400000.0 -1.888520000e-01 -1.337435000e+00
16300000.0 -1.814210000e-01 -1.349989000e+00
17200000.0 -1.747380000e-01 -1.361307000e+00
18100000.0 -1.677070000e-01 -1.372830000e+00
19000000.0 -1.603060000e-01 -1.385683000e+00
19900000.0 -1.535970000e-01 -1.398517000e+00
20800000.0 -1.458820000e-01 -1.410748000e+00
21700000.0 -1.365390000e-01 -1.423172000e+00
22600000.0 -1.278030000e-01 -1.436134000e+00
23500000.0 -1.185540000e-01 -1.449173000e+00
24400000.0 -1.088830000e-01 -1.461838000e+00
25300000.0 -9.855800000e-02 -1.476771000e+00
26200000.0 -8.738000000e-02 -1.491227000e+00
27100000.0 -7.471500000e-02 -1.505062000e+00
28000000.0 -6.447300000e-02 -1.518664000e+00
28900000.0 -5.244100000e-02 -1.533092000e+00
29800000.0 1.566800000e-02 -1.560961000e+00
30700000.0 -2.429400000e-02 -1.562653000e+00
31600000.0 -1.209900000e-02 -1.575448000e+00
32500000.0 3.239000000e-03 -1.592967000e+00
33400000.0 1.863700000e-02 -1.605869000e+00
34300000.0 3.596100000e-02 -1.622744000e+00
35200000.0 5.052600000e-02 -1.636096000e+00
36100000.0 6.937000000e-02 -1.649946000e+00
37000000.0 8.896500000e-02 -1.665717000e+00
37900000.0 1.058980000e-01 -1.679259000e+00
38800000.0 1.255390000e-01 -1.695668000e+00
39700000.0 1.447970000e-01 -1.708134000e+00
40600000.0 1.672660000e-01 -1.722833000e+00
41500000.0 1.891140000e-01 -1.736648000e+00
42400000.0 2.106750000e-01 -1.749727000e+00
43300000.0 2.355750000e-01 -1.763633000e+00
44200000.0 2.601800000e-01 -1.777319000e+00
45100000.0 2.870510000e-01 -1.788525000e+00
46000000.0 3.134210000e-01 -1.801051000e+00
46900000.0 3.404390000e-01 -1.812718000e+00
47800000.0 3.666740000e-01 -1.824883000e+00
48700000.0 3.956810000e-01 -1.834380000e+00
49600000.0 4.273810000e-01 -1.843607000e+00
50500000.0 4.563000000e-01 -1.851886000e+00
51400000.0 4.889640000e-01 -1.860361000e+00
52300000.0 5.232250000e-01 -1.867153000e+00
53200000.0 5.564140000e-01 -1.873289000e+00
54100000.0 5.894210000e-01 -1.878795000e+00
55000000.0 6.246480000e-01 -1.882411000e+00
55900000.0 6.603740000e-01 -1.884663000e+00
56800000.0 6.971820000e-01 -1.886270000e+00
57700000.0 7.352670000e-01 -1.887236000e+00
58600000.0 7.738370000e-01 -1.883728000e+00
59500000.0 8.115730000e-01 -1.883166000e+00
60400000.0 8.491150000e-01 -1.877241000e+00
61300000.0 8.893550000e-01 -1.871032000e+00
62200000.0 9.266770000e-01 -1.862061000e+00
63100000.0 9.669290000e-01 -1.852232000e+00
64000000.0 1.004281000e+00 -1.842122000e+00
64900000.0 1.044674000e+00 -1.826556000e+00
65800000.0 1.085691000e+00 -1.811147000e+00
66700000.0 1.120582000e+00 -1.796415000e+00
67600000.0 1.160870000e+00 -1.777818000e+00
68500000.0 1.197644000e+00 -1.756812000e+00
69400000.0 1.232986000e+00 -1.733783000e+00
70300000.0 1.267908000e+00 -1.709808000e+00
71200000.0 1.302467000e+00 -1.683363000e+00
72100000.0 1.336179000e+00 -1.657460000e+00
73000000.0 1.367999000e+00 -1.629111000e+00
73900000.0 1.397520000e+00 -1.600737000e+00
74800000.0 1.427195000e+00 -1.566574000e+00
75700000.0 1.454732000e+00 -1.534361000e+00
76600000.0 1.481262000e+00 -1.500644000e+00
77500000.0 1.506975000e+00 -1.467353000e+00
78400000.0 1.527950000e+00 -1.431603000e+00
79300000.0 1.547518000e+00 -1.396207000e+00
80200000.0 1.567703000e+00 -1.358413000e+00
81100000.0 1.584828000e+00 -1.321015000e+00
82000000.0 1.598789000e+00 -1.285356000e+00
82900000.0 1.612725000e+00 -1.246939000e+00
83800000.0 1.625676000e+00 -1.212012000e+00
84700000.0 1.635336000e+00 -1.171955000e+00
85600000.0 1.645047000e+00 -1.137576000e+00
86500000.0 1.651249000e+00 -1.099470000e+00
87400000.0 1.656025000e+00 -1.062611000e+00
88300000.0 1.660181000e+00 -1.026871000e+00
89200000.0 1.661984000e+00 -9.906320000e-01
90100000.0 1.664457000e+00 -9.552260000e-01
91000000.0 1.665148000e+00 -9.198440000e-01
91900000.0 1.663258000e+00 -8.879280000e-01
92800000.0 1.660613000e+00 -8.559550000e-01
93700000.0 1.656878000e+00 -8.241490000e-01
94600000.0 1.654142000e+00 -7.927530000e-01
95500000.0 1.646971000e+00 -7.617080000e-01
96400000.0 1.641062000e+00 -7.307830000e-01
97300000.0 1.636394000e+00 -7.008300000e-01
98200000.0 1.627116000e+00 -6.735120000e-01
99100000.0 1.618780000e+00 -6.460340000e-01
100000000.0 1.611323000e+00 -6.207450000e-01
109000000.0 1.502297000e+00 -3.998130000e-01
118000000.0 1.378145000e+00 -2.458380000e-01
127000000.0 1.256279000e+00 -1.378690000e-01
136000000.0 1.147702000e+00 -6.931800000e-02
145000000.0 1.049818000e+00 -1.957200000e-02
154000000.0 1.000816000e+00 4.670000000e-04
163000000.0 1.000977000e+00 1.220000000e-04
172000000.0 1.002071000e+00 -1.311000000e-03
181000000.0 1.003687000e+00 -6.160000000e-04
190000000.0 1.004700000e+00 -1.366000000e-03
199000000.0 1.005453000e+00 -1.049000000e-03
208000000.0 1.004969000e+00 -1.101000000e-03
217000000.0 1.006012000e+00 -2.202000000e-03
226000000.0 1.005830000e+00 -1.548000000e-03
235000000.0 1.006841000e+00 -1.252000000e-03
244000000.0 1.006431000e+00 -1.528000000e-03
253000000.0 1.005859000e+00 -6.030000000e-04
262000000.0 1.006951000e+00 -1.348000000e-03
271000000.0 1.004262000e+00 1.200000000e-04
280000000.0 1.004310000e+00 -8.500000000e-04
289000000.0 1.002198000e+00 -1.547000000e-03
298000000.0 1.001343000e+00 7.230000000e-04
307000000.0 1.002580000e+00 7.480000000e-04
316000000.0 1.003944000e+00 -1.005000000e-03
325000000.0 1.004825000e+00 -1.050000000e-04
334000000.0 1.004796000e+00 2.240000000e-04
343000000.0 1.005318000e+00 -1.530000000e-04
352000000.0 1.005793000e+00 2.414000000e-03
361000000.0 1.007344000e+00 8.620000000e-04
370000000.0 1.007405000e+00 1.668000000e-03
379000000.0 1.013575000e+00 3.686900000e-02
388000000.0 1.006425000e+00 4.140000000e-04
397000000.0 1.006032000e+00 9.690000000e-04
406000000.0 1.004655000e+00 2.963000000e-03
415000000.0 1.004902000e+00 -2.400000000e-05
424000000.0 1.003921000e+00 2.567000000e-03
433000000.0 1.002047000e+00 4.390000000e-04
442000000.0 9.982800000e-01 1.990000000e-04
451000000.0 9.998680000e-01 -1.090000000e-03
460000000.0 1.001297000e+00 3.775000000e-03
469000000.0 1.003573000e+00 2.111000000e-03
478000000.0 1.003591000e+00 5.097000000e-03
487000000.0 1.005334000e+00 4.752000000e-03
496000000.0 1.006755000e+00 6.034000000e-03
505000000.0 1.007450000e+00 4.525000000e-03
514000000.0 1.008392000e+00 1.060900000e-02
523000000.0 1.008710000e+00 8.676000000e-03
532000000.0 1.008991000e+00 7.287000000e-03
541000000.0 1.008748000e+00 6.654000000e-03
550000000.0 1.007559000e+00 8.654000000e-03
559000000.0 1.008008000e+00 6.566000000e-03
568000000.0 1.006451000e+00 9.877000000e-03
577000000.0 1.008322000e+00 9.245000000e-03
586000000.0 1.003720000e+00 7.282000000e-03
595000000.0 1.003013000e+00 7.258000000e-03
604000000.0 1.003620000e+00 2.533700000e-02
613000000.0 1.004862000e+00 4.798000000e-03
622000000.0 1.009869000e+00 -1.229300000e-02
631000000.0 1.008816000e+00 6.387000000e-03
640000000.0 1.013680000e+00 2.786800000e-02
649000000.0 1.013576000e+00 4.372000000e-03
658000000.0 1.014699000e+00 -9.428000000e-03
667000000.0 1.014084000e+00 1.089500000e-02
676000000.0 1.019098000e+00 2.924700000e-02
685000000.0 1.015582000e+00 9.242000000e-03
694000000.0 1.013992000e+00 3.724000000e-03
703000000.0 1.019079000e+00 5.932000000e-03
712000000.0 1.006310000e+00 3.661000000e-03
721000000.0 1.008419000e+00 2.564000000e-03
730000000.0 1.007569000e+00 3.712000000e-03
739000000.0 1.003593000e+00 2.869000000e-03
748000000.0 1.001357000e+00 2.011000000e-03
757000000.0 1.002222000e+00 -2.864000000e-03
766000000.0 1.008142000e+00 -8.190000000e-04
775000000.0 1.007421000e+00 -4.150000000e-03
784000000.0 1.012290000e+00 -6.837000000e-03
793000000.0 1.013778000e+00 -6.523000000e-03
802000000.0 1.015803000e+00 -9.061000000e-03
811000000.0 1.020320000e+00 -6.346000000e-03
820000000.0 1.018809000e+00 -5.328000000e-03
829000000.0 1.017620000e+00 -9.313000000e-03
838000000.0 1.015741000e+00 -2.188000000e-03
847000000.0 1.018005000e+00 -7.890000000e-03
856000000.0 1.014594000e+00 -6.785000000e-03
865000000.0 1.013031000e+00 -5.800000000e-03
874000000.0 1.009166000e+00 -7.525000000e-03
883000000.0 1.005901000e+00 -3.350000000e-04
892000000.0 1.001774000e+00 -1.972000000e-03
901000000.0 9.976190000e-01 -4.127000000e-03
910000000.0 1.002196000e+00 -3.093000000e-03
919000000.0 1.003095000e+00 -7.656000000e-03
928000000.0 1.004161000e+00 -7.037000000e-03
937000000.0 1.008163000e+00 -8.034000000e-03
946000000.0 1.004197000e+00 -8.829000000e-03
955000000.0 1.005455000e+00 -1.242200000e-02
964000000.0 1.002904000e+00 -6.165000000e-03
973000000.0 1.005583000e+00 -5.089000000e-03
982000000.0 1.006627000e+00 -1.064000000e-02
991000000.0 1.007705000e+00 -7.611000000e-03
1000000000.0 1.004142000e+00 -7.374000000e-03
1004500000.0 1.004968000e+00 -5.508000000e-03
1009000000.0 1.004190000e+00 -7.265000000e-03
1013500000.0 1.000397000e+00 -2.250400000e-02
1018000000.0 1.003276000e+00 -3.283000000e-03
1022500000.0 1.001449000e+00 -7.132000000e-03
1027000000.0 1.002863000e+00 -5.686000000e-03
1031500000.0 1.001591000e+00 -5.685000000e-03
1036000000.0 9.987120000e-01 -2.310000000e-03
1040500000.0 9.995740000e-01 -4.890000000e-04
1045000000.0 1.000536000e+00 -2.400000000e-04
1049500000.0 9.998690000e-01 7.340000000e-04
1054000000.0 1.000471000e+00 -4.121000000e-03
1058500000.0 1.003524000e+00 -3.376000000e-03
1063000000.0 1.002543000e+00 -4.920000000e-04
1067500000.0 1.002419000e+00 -7.695000000e-03
1072000000.0 9.982610000e-01 -3.281000000e-03
1076500000.0 9.977330000e-01 -4.826000000e-03
1081000000.0 1.004559000e+00 -3.386000000e-03
1085500000.0 1.002051000e+00 1.361000000e-03
1090000000.0 1.006723000e+00 -7.418000000e-03
1094500000.0 1.006378000e+00 -3.772000000e-03
1099000000.0 1.004831000e+00 3.000000000e-03
1103500000.0 1.002850000e+00 -6.434000000e-03
1108000000.0 1.006185000e+00 4.255000000e-03
1112500000.0 1.003899000e+00 -5.501000000e-03
1117000000.0 1.003463000e+00 -9.500000000e-04
1121500000.0 1.002616000e+00 -7.422000000e-03
1126000000.0 1.005693000e+00 1.979900000e-02
1130500000.0 1.000065000e+00 -8.790000000e-03
1135000000.0 1.009570000e+00 -5.341000000e-03
1139500000.0 1.004930000e+00 -3.150000000e-03
1144000000.0 1.013079000e+00 3.130800000e-02
1148500000.0 1.014049000e+00 3.067100000e-02
1153000000.0 1.005692000e+00 -1.724800000e-02
1157500000.0 1.002570000e+00 -4.008600000e-02
1162000000.0 9.988140000e-01 -2.551200000e-02
1166500000.0 1.010233000e+00 -4.620000000e-04
1171000000.0 1.002885000e+00 -4.132000000e-03
1175500000.0 9.996240000e-01 -5.071000000e-03
1180000000.0 1.006532000e+00 -1.222000000e-03
1184500000.0 1.008534000e+00 -1.345000000e-03
1189000000.0 1.008537000e+00 -5.100000000e-04
1193500000.0 1.002915000e+00 -8.170000000e-04
1198000000.0 1.003586000e+00 1.008000000e-03
1202500000.0 1.006809000e+00 2.499000000e-03
1207000000.0 1.004473000e+00 -7.444000000e-03
1211500000.0 1.003268000e+00 -6.525000000e-03
1216000000.0 1.007860000e+00 -4.664000000e-03
1220500000.0 1.008974000e+00 -7.841000000e-03
1225000000.0 9.980250000e-01 -1.562000000e-03
1229500000.0 1.004111000e+00 -5.652000000e-03
1234000000.0 1.002201000e+00 -1.079000000e-03
1238500000.0 9.985590000e-01 -4.921000000e-03
1243000000.0 1.007067000e+00 -1.216000000e-03
1247500000.0 1.006068000e+00 -1.429000000e-03
1252000000.0 1.001445000e+00 2.479000000e-03
1256500000.0 1.003713000e+00 -2.974000000e-03
1261000000.0 9.989270000e-01 -6.117000000e-03
1265500000.0 1.009162000e+00 -4.892000000e-03
1270000000.0 1.000957000e+00 1.600000000e-05
1274500000.0 1.003215000e+00 3.054000000e-03
1279000000.0 1.004817000e+00 7.249000000e-03
1283500000.0 1.004918000e+00 -5.852000000e-03
1288000000.0 1.002137000e+00 -5.340000000e-04
1292500000.0 9.999050000e-01 3.737000000e-03
1297000000.0 1.009413000e+00 -2.492000000e-03
1301500000.0 1.004931000e+00 1.353000000e-03
1306000000.0 1.009252000e+00 2.187000000e-02
1310500000.0 1.005654000e+00 -4.870000000e-03
1315000000.0 9.952470000e-01 6.986000000e-03
1319500000.0 1.004783000e+00 3.075000000e-03
1324000000.0 1.003373000e+00 1.025000000e-03
1328500000.0 9.999050000e-01 5.475000000e-03
1333000000.0 9.960090000e-01 -2.208000000e-03
1337500000.0 1.007282000e+00 2.435000000e-03
1342000000.0 1.005743000e+00 8.785000000e-03
1346500000.0 1.003383000e+00 1.528900000e-02
1351000000.0 9.995370000e-01 -2.363000000e-03
1355500000.0 1.003094000e+00 -2.200000000e-04
1360000000.0 1.007635000e+00 2.332000000e-03
1364500000.0 1.001283000e+00 -5.170000000e-03
1369000000.0 1.003022000e+00 1.150100000e-02
1373500000.0 1.004254000e+00 5.537000000e-03
1378000000.0 1.003003000e+00 4.533000000e-03
1382500000.0 1.007162000e+00 -6.950000000e-04
1387000000.0 9.953130000e-01 9.393000000e-03
1391500000.0 1.002874000e+00 6.508000000e-03
1396000000.0 1.008911000e+00 8.630000000e-03
1400500000.0 1.004128000e+00 1.505500000e-02
1405000000.0 1.000020000e+00 2.421000000e-02
1409500000.0 1.006873000e+00 7.576000000e-03
1414000000.0 1.005800000e+00 1.326100000e-02
1418500000.0 1.005116000e+00 1.577700000e-02
1423000000.0 9.978790000e-01 8.913000000e-03
1427500000.0 1.008101000e+00 2.031800000e-02
1432000000.0 1.003873000e+00 1.764300000e-02
1436500000.0 1.001162000e+00 1.208600000e-02
1441000000.0 1.001252000e+00 1.145700000e-02
1445500000.0 1.003938000e+00 1.128400000e-02
1450000000.0 1.002960000e+00 1.191400000e-02
