! piloto_saltos / abierto_continuo / r01
# HZ S RI R 50
50000.0 1.005424000e+00 -6.987500000e-02
59500.0 1.003603000e+00 -5.621200000e-02
69000.0 1.002625000e+00 -4.130400000e-02
78500.0 1.002759000e+00 -3.027100000e-02
88000.0 1.000597000e+00 -1.704300000e-02
97500.0 1.000069000e+00 -4.550000000e-03
107000.0 9.996570000e-01 8.129000000e-03
116500.0 1.000472000e+00 2.065200000e-02
126000.0 1.001631000e+00 3.440900000e-02
135500.0 1.001098000e+00 4.539600000e-02
145000.0 1.001495000e+00 5.717200000e-02
154500.0 1.001264000e+00 6.954500000e-02
164000.0 1.002673000e+00 8.144200000e-02
173500.0 1.002087000e+00 9.352000000e-02
183000.0 1.002641000e+00 1.045970000e-01
192500.0 1.003328000e+00 1.169500000e-01
202000.0 1.003325000e+00 1.280860000e-01
211500.0 1.003365000e+00 1.404790000e-01
221000.0 1.003593000e+00 1.520290000e-01
230500.0 1.003571000e+00 1.628310000e-01
240000.0 1.004427000e+00 1.748130000e-01
249500.0 1.004983000e+00 1.858620000e-01
259000.0 1.004654000e+00 1.970160000e-01
268500.0 1.005690000e+00 2.079040000e-01
278000.0 1.005679000e+00 2.192050000e-01
287500.0 1.006161000e+00 2.294080000e-01
297000.0 1.005911000e+00 2.418200000e-01
306500.0 1.006030000e+00 2.518310000e-01
316000.0 1.006803000e+00 2.627010000e-01
325500.0 1.007470000e+00 2.734380000e-01
335000.0 1.006551000e+00 2.844950000e-01
344500.0 1.007137000e+00 2.952460000e-01
354000.0 1.007264000e+00 3.055990000e-01
363500.0 1.007972000e+00 3.173570000e-01
373000.0 1.008126000e+00 3.274840000e-01
382500.0 1.008008000e+00 3.372090000e-01
392000.0 1.009235000e+00 3.486980000e-01
401500.0 1.008414000e+00 3.591550000e-01
411000.0 1.008479000e+00 3.690400000e-01
420500.0 1.009934000e+00 3.789960000e-01
430000.0 1.008722000e+00 3.892320000e-01
439500.0 1.009125000e+00 3.998050000e-01
449000.0 1.010046000e+00 4.095870000e-01
458500.0 1.010076000e+00 4.203610000e-01
468000.0 1.010927000e+00 4.304450000e-01
477500.0 1.011124000e+00 4.407120000e-01
487000.0 1.011124000e+00 4.503960000e-01
496500.0 1.011624000e+00 4.603200000e-01
506000.0 1.011631000e+00 4.703110000e-01
515500.0 1.013463000e+00 4.810920000e-01
525000.0 1.012681000e+00 4.904480000e-01
534500.0 1.012462000e+00 5.005650000e-01
544000.0 1.013147000e+00 5.104260000e-01
553500.0 1.013846000e+00 5.205930000e-01
563000.0 1.014948000e+00 5.299630000e-01
572500.0 1.015447000e+00 5.403670000e-01
582000.0 1.014679000e+00 5.501540000e-01
591500.0 1.015727000e+00 5.589500000e-01
601000.0 1.015673000e+00 5.682450000e-01
610500.0 1.016709000e+00 5.787720000e-01
620000.0 1.017728000e+00 5.885340000e-01
629500.0 1.017815000e+00 5.990380000e-01
639000.0 1.018720000e+00 6.078450000e-01
648500.0 1.019113000e+00 6.171350000e-01
658000.0 1.019856000e+00 6.262570000e-01
667500.0 1.021091000e+00 6.367570000e-01
677000.0 1.021643000e+00 6.463240000e-01
686500.0 1.023546000e+00 6.556670000e-01
696000.0 1.024223000e+00 6.642330000e-01
705500.0 1.023826000e+00 6.754470000e-01
715000.0 1.025098000e+00 6.839960000e-01
724500.0 1.027849000e+00 6.932320000e-01
734000.0 1.027102000e+00 7.030930000e-01
743500.0 1.028092000e+00 7.121260000e-01
753000.0 1.029344000e+00 7.220400000e-01
762500.0 1.031137000e+00 7.307040000e-01
772000.0 1.032490000e+00 7.396860000e-01
781500.0 1.032492000e+00 7.500990000e-01
791000.0 1.034055000e+00 7.593570000e-01
800500.0 1.036555000e+00 7.668840000e-01
810000.0 1.037775000e+00 7.780700000e-01
819500.0 1.038100000e+00 7.863200000e-01
829000.0 1.039730000e+00 7.951870000e-01
838500.0 1.041818000e+00 8.045010000e-01
848000.0 1.042382000e+00 8.139870000e-01
857500.0 1.046096000e+00 8.241300000e-01
867000.0 1.046954000e+00 8.314440000e-01
876500.0 1.049782000e+00 8.405650000e-01
886000.0 1.050424000e+00 8.492410000e-01
895500.0 1.053180000e+00 8.589920000e-01
905000.0 1.054008000e+00 8.676770000e-01
914500.0 1.057280000e+00 8.771290000e-01
924000.0 1.059848000e+00 8.861990000e-01
933500.0 1.061363000e+00 8.943490000e-01
943000.0 1.063177000e+00 9.028010000e-01
952500.0 1.066734000e+00 9.125870000e-01
962000.0 1.068109000e+00 9.210440000e-01
971500.0 1.070587000e+00 9.296500000e-01
981000.0 1.073756000e+00 9.381240000e-01
990500.0 1.073790000e+00 9.466660000e-01
1000000.0 1.079051000e+00 9.555560000e-01
1090000.0 1.104872000e+00 1.036204000e+00
1180000.0 1.147241000e+00 1.111620000e+00
1270000.0 1.195043000e+00 1.181509000e+00
1360000.0 1.254002000e+00 1.244571000e+00
1450000.0 1.324422000e+00 1.293748000e+00
1540000.0 1.404176000e+00 1.333335000e+00
1630000.0 1.491411000e+00 1.352923000e+00
1720000.0 1.579895000e+00 1.354502000e+00
1810000.0 1.671906000e+00 1.335083000e+00
1900000.0 1.756814000e+00 1.296851000e+00
1990000.0 1.830434000e+00 1.238824000e+00
2080000.0 1.889891000e+00 1.165303000e+00
2170000.0 1.936580000e+00 1.080372000e+00
2260000.0 1.959497000e+00 9.901100000e-01
2350000.0 1.967321000e+00 9.014110000e-01
2440000.0 1.960820000e+00 8.168930000e-01
2530000.0 1.941241000e+00 7.380200000e-01
2620000.0 1.914646000e+00 6.648970000e-01
2710000.0 1.881292000e+00 5.979520000e-01
2800000.0 1.843943000e+00 5.412400000e-01
2890000.0 1.802453000e+00 4.930650000e-01
2980000.0 1.766065000e+00 4.474350000e-01
3070000.0 1.726331000e+00 4.096500000e-01
3160000.0 1.690228000e+00 3.758710000e-01
3250000.0 1.652963000e+00 3.453230000e-01
3340000.0 1.618870000e+00 3.182800000e-01
3430000.0 1.588248000e+00 2.936900000e-01
3520000.0 1.556000000e+00 2.722960000e-01
3610000.0 1.530463000e+00 2.532520000e-01
3700000.0 1.502897000e+00 2.321030000e-01
3790000.0 1.477939000e+00 2.144530000e-01
3880000.0 1.453141000e+00 1.983530000e-01
3970000.0 1.433789000e+00 1.804210000e-01
4060000.0 1.414396000e+00 1.661000000e-01
4150000.0 1.397300000e+00 1.509240000e-01
4240000.0 1.379341000e+00 1.365290000e-01
4330000.0 1.364214000e+00 1.229820000e-01
4420000.0 1.351025000e+00 1.092090000e-01
4510000.0 1.338522000e+00 9.463300000e-02
4600000.0 1.326692000e+00 8.196600000e-02
4690000.0 1.317430000e+00 6.895600000e-02
4780000.0 1.307136000e+00 5.627900000e-02
4870000.0 1.298575000e+00 4.223300000e-02
4960000.0 1.291607000e+00 2.932100000e-02
5050000.0 1.278298000e+00 1.746200000e-02
5140000.0 1.271891000e+00 5.065000000e-03
5230000.0 1.267630000e+00 -7.701000000e-03
5320000.0 1.263419000e+00 -1.884700000e-02
5410000.0 1.257854000e+00 -3.128300000e-02
5500000.0 1.256282000e+00 -4.322500000e-02
5590000.0 1.251044000e+00 -5.413400000e-02
5680000.0 1.248000000e+00 -6.539600000e-02
5770000.0 1.245329000e+00 -7.627400000e-02
5860000.0 1.241465000e+00 -8.738700000e-02
5950000.0 1.240225000e+00 -9.856200000e-02
6040000.0 1.237202000e+00 -1.076000000e-01
6130000.0 1.234628000e+00 -1.161780000e-01
6220000.0 1.232104000e+00 -1.267850000e-01
6310000.0 1.230847000e+00 -1.353680000e-01
6400000.0 1.228058000e+00 -1.435480000e-01
6490000.0 1.227149000e+00 -1.510900000e-01
6580000.0 1.225327000e+00 -1.595270000e-01
6670000.0 1.224584000e+00 -1.643920000e-01
6760000.0 1.221615000e+00 -1.712130000e-01
6850000.0 1.222389000e+00 -1.768130000e-01
6940000.0 1.220603000e+00 -1.826700000e-01
7030000.0 1.219332000e+00 -1.852280000e-01
7120000.0 1.219535000e+00 -1.895880000e-01
7210000.0 1.220453000e+00 -1.909900000e-01
7300000.0 1.219199000e+00 -1.927270000e-01
7390000.0 1.219139000e+00 -1.931820000e-01
7480000.0 1.220538000e+00 -1.937990000e-01
7570000.0 -2.432280000e-01 -1.259044000e+00
7660000.0 -2.429070000e-01 -1.259453000e+00
7750000.0 -2.419090000e-01 -1.261118000e+00
7840000.0 -2.409050000e-01 -1.261047000e+00
7930000.0 -2.397670000e-01 -1.259451000e+00
8020000.0 -2.390560000e-01 -1.261598000e+00
8110000.0 -2.389190000e-01 -1.261964000e+00
8200000.0 -2.370120000e-01 -1.263128000e+00
8290000.0 -2.384390000e-01 -1.261974000e+00
8380000.0 -2.376630000e-01 -1.262588000e+00
8470000.0 -2.353050000e-01 -1.263368000e+00
8560000.0 -2.349950000e-01 -1.264297000e+00
8650000.0 -2.344040000e-01 -1.264537000e+00
8740000.0 -2.330630000e-01 -1.265038000e+00
8830000.0 -2.316320000e-01 -1.266742000e+00
8920000.0 -2.324640000e-01 -1.266689000e+00
9010000.0 -2.317010000e-01 -1.267173000e+00
9100000.0 -2.305620000e-01 -1.268910000e+00
9190000.0 -2.305960000e-01 -1.268508000e+00
9280000.0 -2.296130000e-01 -1.269985000e+00
9370000.0 -2.292700000e-01 -1.271101000e+00
9460000.0 -2.278620000e-01 -1.271215000e+00
9550000.0 -2.276120000e-01 -1.272573000e+00
9640000.0 -2.271490000e-01 -1.272457000e+00
9730000.0 -2.258280000e-01 -1.273621000e+00
9820000.0 -2.268680000e-01 -1.274435000e+00
9910000.0 -2.248950000e-01 -1.274977000e+00
10000000.0 -2.256200000e-01 -1.274824000e+00
10900000.0 -2.188190000e-01 -1.284425000e+00
11800000.0 -2.119540000e-01 -1.294557000e+00
12700000.0 -2.067540000e-01 -1.303295000e+00
13600000.0 -2.005560000e-01 -1.315241000e+00
14500000.0 -1.941180000e-01 -1.325703000e+00
15400000.0 -1.890380000e-01 -1.336322000e+00
16300000.0 -1.827210000e-01 -1.348002000e+00
17200000.0 -1.743820000e-01 -1.360714000e+00
18100000.0 -1.685350000e-01 -1.373154000e+00
19000000.0 -1.605710000e-01 -1.385599000e+00
19900000.0 -1.531780000e-01 -1.397407000e+00
20800000.0 -1.447690000e-01 -1.410207000e+00
21700000.0 -1.363350000e-01 -1.422184000e+00
22600000.0 -1.276840000e-01 -1.435881000e+00
23500000.0 -1.199580000e-01 -1.449751000e+00
24400000.0 -1.086100000e-01 -1.463666000e+00
25300000.0 -9.842300000e-02 -1.476474000e+00
26200000.0 -8.717400000e-02 -1.489649000e+00
27100000.0 -7.636200000e-02 -1.504216000e+00
28000000.0 -6.375000000e-02 -1.518785000e+00
28900000.0 -5.210000000e-02 -1.532430000e+00
29800000.0 -3.913600000e-02 -1.547326000e+00
30700000.0 -2.478600000e-02 -1.562189000e+00
31600000.0 -1.120300000e-02 -1.575772000e+00
32500000.0 2.085000000e-03 -1.591534000e+00
33400000.0 1.692000000e-02 -1.606414000e+00
34300000.0 3.563400000e-02 -1.620538000e+00
35200000.0 5.157200000e-02 -1.635045000e+00
36100000.0 7.001100000e-02 -1.651361000e+00
37000000.0 8.635000000e-02 -1.664216000e+00
37900000.0 1.060430000e-01 -1.680300000e+00
38800000.0 1.250040000e-01 -1.693113000e+00
39700000.0 1.465570000e-01 -1.707985000e+00
40600000.0 1.677950000e-01 -1.722825000e+00
41500000.0 1.880390000e-01 -1.736490000e+00
42400000.0 2.126980000e-01 -1.750884000e+00
43300000.0 2.351130000e-01 -1.763545000e+00
44200000.0 2.596390000e-01 -1.776733000e+00
45100000.0 2.845290000e-01 -1.789372000e+00
46000000.0 3.115120000e-01 -1.799697000e+00
46900000.0 3.378730000e-01 -1.811133000e+00
47800000.0 3.678110000e-01 -1.825024000e+00
48700000.0 3.967170000e-01 -1.834409000e+00
49600000.0 4.257510000e-01 -1.843071000e+00
50500000.0 4.588260000e-01 -1.850849000e+00
51400000.0 4.879900000e-01 -1.859846000e+00
52300000.0 5.220470000e-01 -1.866517000e+00
53200000.0 5.551560000e-01 -1.872936000e+00
54100000.0 5.899870000e-01 -1.878196000e+00
55000000.0 6.239870000e-01 -1.882175000e+00
55900000.0 6.607920000e-01 -1.884800000e+00
56800000.0 6.977820000e-01 -1.886326000e+00
57700000.0 7.350430000e-01 -1.885652000e+00
58600000.0 7.711870000e-01 -1.884037000e+00
59500000.0 8.116210000e-01 -1.881181000e+00
60400000.0 8.498090000e-01 -1.876361000e+00
61300000.0 8.876210000e-01 -1.871220000e+00
62200000.0 9.271430000e-01 -1.862806000e+00
63100000.0 9.688240000e-01 -1.850796000e+00
64000000.0 1.005632000e+00 -1.843575000e+00
64900000.0 1.044752000e+00 -1.827879000e+00
65800000.0 1.084300000e+00 -1.812752000e+00
66700000.0 1.120160000e+00 -1.794116000e+00
67600000.0 1.157244000e+00 -1.775063000e+00
68500000.0 1.199819000e+00 -1.757284000e+00
69400000.0 1.233996000e+00 -1.735109000e+00
70300000.0 1.270801000e+00 -1.709496000e+00
71200000.0 1.302130000e+00 -1.683830000e+00
72100000.0 1.336197000e+00 -1.656985000e+00
73000000.0 1.368623000e+00 -1.627752000e+00
73900000.0 1.398157000e+00 -1.600705000e+00
74800000.0 1.428319000e+00 -1.565808000e+00
75700000.0 1.455513000e+00 -1.532682000e+00
76600000.0 1.481009000e+00 -1.500282000e+00
77500000.0 1.505532000e+00 -1.466041000e+00
78400000.0 1.527907000e+00 -1.431830000e+00
79300000.0 1.549047000e+00 -1.397882000e+00
80200000.0 1.567065000e+00 -1.359698000e+00
81100000.0 1.583960000e+00 -1.322583000e+00
82000000.0 1.598167000e+00 -1.284173000e+00
82900000.0 1.615313000e+00 -1.247437000e+00
83800000.0 1.625610000e+00 -1.208838000e+00
84700000.0 1.633992000e+00 -1.174077000e+00
85600000.0 1.643220000e+00 -1.136585000e+00
86500000.0 1.650821000e+00 -1.099629000e+00
87400000.0 1.656148000e+00 -1.063455000e+00
88300000.0 1.659513000e+00 -1.027233000e+00
89200000.0 1.663366000e+00 -9.912750000e-01
90100000.0 1.663061000e+00 -9.565550000e-01
91000000.0 1.662914000e+00 -9.220990000e-01
91900000.0 1.662238000e+00 -8.887770000e-01
92800000.0 1.660323000e+00 -8.540180000e-01
93700000.0 1.657091000e+00 -8.241170000e-01
94600000.0 1.652579000e+00 -7.905700000e-01
95500000.0 1.647543000e+00 -7.620250000e-01
96400000.0 1.641107000e+00 -7.308880000e-01
97300000.0 1.634708000e+00 -7.037510000e-01
98200000.0 1.628462000e+00 -6.743250000e-01
99100000.0 1.617156000e+00 -6.463560000e-01
100000000.0 1.609637000e+00 -6.207500000e-01
109000000.0 1.501376000e+00 -3.992180000e-01
118000000.0 1.378320000e+00 -2.442920000e-01
127000000.0 1.257726000e+00 -1.378590000e-01
136000000.0 1.147549000e+00 -6.884800000e-02
145000000.0 1.049819000e+00 -1.940400000e-02
154000000.0 1.000412000e+00 -5.000000000e-05
163000000.0 1.001851000e+00 -2.050000000e-04
172000000.0 1.003357000e+00 5.510000000e-04
181000000.0 1.003828000e+00 -7.120000000e-04
190000000.0 1.004521000e+00 -5.820000000e-04
199000000.0 1.004970000e+00 -2.217000000e-03
208000000.0 1.005642000e+00 -1.104000000e-03
217000000.0 1.006301000e+00 -2.101000000e-03
226000000.0 1.005702000e+00 -1.525000000e-03
235000000.0 1.006373000e+00 -2.080000000e-04
244000000.0 1.005758000e+00 -1.160000000e-03
253000000.0 1.005865000e+00 -1.000000000e-03
262000000.0 1.005514000e+00 -7.180000000e-04
271000000.0 1.005594000e+00 -7.500000000e-05
280000000.0 1.002626000e+00 -9.940000000e-04
289000000.0 1.001730000e+00 -1.130000000e-03
298000000.0 1.002490000e+00 9.600000000e-05
307000000.0 1.001535000e+00 8.550000000e-04
316000000.0 1.003349000e+00 -1.495000000e-03
325000000.0 1.004010000e+00 -9.900000000e-05
334000000.0 1.004650000e+00 -5.430000000e-04
343000000.0 1.005242000e+00 7.640000000e-04
352000000.0 1.005555000e+00 -3.010000000e-04
361000000.0 1.072985000e+00 1.272450000e-01
370000000.0 1.006593000e+00 -3.520000000e-04
379000000.0 1.006290000e+00 7.860000000e-04
388000000.0 1.005858000e+00 6.400000000e-05
397000000.0 1.005482000e+00 -5.400000000e-04
406000000.0 9.967220000e-01 -3.474500000e-02
415000000.0 1.003441000e+00 2.597000000e-03
424000000.0 9.954170000e-01 -3.448900000e-02
433000000.0 1.001307000e+00 3.383000000e-03
442000000.0 1.001771000e+00 2.141000000e-03
451000000.0 9.992370000e-01 1.482000000e-03
460000000.0 1.000986000e+00 4.425000000e-03
469000000.0 1.002434000e+00 1.579000000e-03
478000000.0 1.004017000e+00 2.857000000e-03
487000000.0 1.005767000e+00 4.667000000e-03
496000000.0 1.006041000e+00 5.821000000e-03
505000000.0 1.006941000e+00 6.055000000e-03
514000000.0 1.007507000e+00 6.827000000e-03
523000000.0 1.009428000e+00 9.293000000e-03
532000000.0 1.008590000e+00 7.595000000e-03
541000000.0 1.008786000e+00 7.525000000e-03
550000000.0 1.010482000e+00 9.096000000e-03
559000000.0 1.008189000e+00 5.366000000e-03
568000000.0 1.009904000e+00 7.003000000e-03
577000000.0 1.007654000e+00 8.697000000e-03
586000000.0 1.004484000e+00 7.865000000e-03
595000000.0 1.004361000e+00 5.371000000e-03
604000000.0 1.003564000e+00 7.235000000e-03
613000000.0 1.007706000e+00 8.010000000e-03
622000000.0 1.009566000e+00 5.071000000e-03
631000000.0 1.015585000e+00 7.388000000e-03
640000000.0 1.012433000e+00 8.003000000e-03
649000000.0 1.017454000e+00 9.655000000e-03
658000000.0 1.018509000e+00 1.018400000e-02
667000000.0 1.012894000e+00 6.832000000e-03
676000000.0 1.018885000e+00 1.254600000e-02
685000000.0 1.016721000e+00 6.461000000e-03
694000000.0 1.016573000e+00 3.485000000e-03
703000000.0 1.017165000e+00 9.215000000e-03
712000000.0 1.014068000e+00 5.528000000e-03
721000000.0 1.010046000e+00 8.464000000e-03
730000000.0 1.007467000e+00 3.664000000e-03
739000000.0 1.004184000e+00 4.582000000e-03
748000000.0 1.002204000e+00 1.804000000e-03
757000000.0 1.005364000e+00 -8.690000000e-04
766000000.0 1.005740000e+00 -2.057000000e-03
775000000.0 1.007894000e+00 -2.382000000e-03
784000000.0 1.014597000e+00 -2.121000000e-03
793000000.0 1.012493000e+00 -5.877000000e-03
802000000.0 1.016060000e+00 -4.831000000e-03
811000000.0 1.015155000e+00 -3.709000000e-03
820000000.0 1.019001000e+00 -6.036000000e-03
829000000.0 1.017318000e+00 -5.611000000e-03
838000000.0 1.015470000e+00 -6.039000000e-03
847000000.0 1.013790000e+00 -5.257000000e-03
856000000.0 1.012088000e+00 -3.866000000e-03
865000000.0 1.015968000e+00 1.149000000e-03
874000000.0 1.011276000e+00 -8.789000000e-03
883000000.0 1.008389000e+00 -1.417000000e-03
892000000.0 1.004834000e+00 -6.120000000e-03
901000000.0 9.976570000e-01 3.000000000e-05
910000000.0 1.002835000e+00 4.370000000e-04
919000000.0 1.003814000e+00 -5.406000000e-03
928000000.0 1.003817000e+00 -6.142000000e-03
937000000.0 1.006121000e+00 -1.018100000e-02
946000000.0 1.006924000e+00 -8.446000000e-03
955000000.0 1.002875000e+00 -7.066000000e-03
964000000.0 1.005305000e+00 -1.118300000e-02
973000000.0 1.005157000e+00 -1.208800000e-02
982000000.0 1.003415000e+00 -8.830000000e-03
991000000.0 1.003997000e+00 -8.947000000e-03
1000000000.0 1.005721000e+00 -8.703000000e-03
1004500000.0 1.005216000e+00 -6.843000000e-03
1009000000.0 1.002476000e+00 -7.661000000e-03
1013500000.0 1.004133000e+00 -7.820000000e-03
1018000000.0 1.004469000e+00 -4.992000000e-03
1022500000.0 1.002825000e+00 -9.096000000e-03
1027000000.0 1.000610000e+00 -5.798000000e-03
1031500000.0 1.001526000e+00 -6.047000000e-03
1036000000.0 9.992250000e-01 -8.214000000e-03
1040500000.0 1.000819000e+00 -3.587000000e-03
1045000000.0 1.000912000e+00 -2.015000000e-03
1049500000.0 9.999730000e-01 2.184000000e-03
1054000000.0 1.000248000e+00 -1.550000000e-04
1058500000.0 9.997540000e-01 -4.744000000e-03
1063000000.0 1.002769000e+00 -9.450000000e-04
1067500000.0 1.001451000e+00 -4.465000000e-03
1072000000.0 1.004576000e+00 1.333000000e-03
1076500000.0 1.003037000e+00 -4.100000000e-05
1081000000.0 1.000094000e+00 -1.169000000e-03
1085500000.0 1.004681000e+00 -2.347000000e-03
1090000000.0 1.006023000e+00 -2.360000000e-03
1094500000.0 1.005480000e+00 -9.156000000e-03
1099000000.0 1.005339000e+00 -3.391000000e-03
1103500000.0 1.001023000e+00 3.238000000e-03
1108000000.0 1.003586000e+00 -4.631000000e-03
1112500000.0 1.003823000e+00 -5.519000000e-03
1117000000.0 1.000278000e+00 -1.809000000e-03
1121500000.0 1.003852000e+00 -8.545000000e-03
1126000000.0 1.007269000e+00 -1.500000000e-05
1130500000.0 1.001220000e+00 -3.917000000e-03
1135000000.0 1.021518000e+00 5.466400000e-02
1139500000.0 1.001823000e+00 -7.275000000e-03
1144000000.0 1.011138000e+00 3.010000000e-02
1148500000.0 1.014068000e+00 4.371000000e-02
1153000000.0 1.008915000e+00 -1.527400000e-02
1157500000.0 1.006439000e+00 8.650000000e-04
1162000000.0 1.005653000e+00 7.612000000e-03
1166500000.0 1.008651000e+00 -1.263300000e-02
1171000000.0 1.003109000e+00 -1.001800000e-02
1175500000.0 1.003564000e+00 -6.853000000e-03
1180000000.0 1.005595000e+00 -4.167000000e-03
1184500000.0 1.001924000e+00 -5.165000000e-03
1189000000.0 1.008109000e+00 -2.023000000e-03
1193500000.0 1.006340000e+00 2.310000000e-04
1198000000.0 1.001589000e+00 -2.688000000e-03
1202500000.0 1.003784000e+00 -1.043000000e-03
1207000000.0 1.002563000e+00 2.033000000e-03
1211500000.0 1.002078000e+00 -4.090000000e-03
1216000000.0 1.000962000e+00 -5.475000000e-03
1220500000.0 1.004498000e+00 -6.300000000e-04
1225000000.0 1.006992000e+00 -6.119000000e-03
1229500000.0 1.008471000e+00 -3.086000000e-03
1234000000.0 1.003232000e+00 -4.214000000e-03
1238500000.0 1.003128000e+00 -6.805000000e-03
1243000000.0 1.001972000e+00 -4.224000000e-03
1247500000.0 1.011348000e+00 -4.569000000e-03
1252000000.0 1.005634000e+00 3.730000000e-04
1256500000.0 1.000909000e+00 -1.221000000e-02
1261000000.0 1.008096000e+00 2.416600000e-02
1265500000.0 1.005326000e+00 3.900000000e-04
1270000000.0 1.005188000e+00 7.220000000e-04
1274500000.0 1.007520000e+00 1.781000000e-03
1279000000.0 1.002924000e+00 2.397600000e-02
1283500000.0 1.002484000e+00 -3.359000000e-03
1288000000.0 1.000604000e+00 -2.122700000e-02
1292500000.0 9.968080000e-01 -2.375000000e-03
1297000000.0 1.008898000e+00 1.468600000e-02
1301500000.0 1.006495000e+00 4.634000000e-03
1306000000.0 1.000186000e+00 -2.443700000e-02
1310500000.0 1.000014000e+00 -1.947000000e-03
1315000000.0 1.002770000e+00 6.343000000e-03
1319500000.0 1.004195000e+00 4.951000000e-03
1324000000.0 1.001156000e+00 8.123000000e-03
1328500000.0 1.006221000e+00 7.670000000e-03
1333000000.0 1.002811000e+00 1.418500000e-02
1337500000.0 1.007604000e+00 5.893000000e-03
1342000000.0 1.004621000e+00 2.918000000e-03
1346500000.0 1.003209000e+00 1.372000000e-03
1351000000.0 1.001179000e+00 1.598000000e-03
1355500000.0 9.993780000e-01 -1.246000000e-03
1360000000.0 9.989690000e-01 3.040000000e-04
1364500000.0 1.002919000e+00 4.316000000e-03
1369000000.0 1.004786000e+00 3.961000000e-03
1373500000.0 1.000333000e+00 2.968000000e-03
1378000000.0 1.002584000e+00 9.926000000e-03
1382500000.0 1.013147000e+00 8.629000000e-03
1387000000.0 1.001407000e+00 6.282000000e-03
1391500000.0 1.008114000e+00 1.975800000e-02
1396000000.0 1.004541000e+00 1.041100000e-02
1400500000.0 9.997360000e-01 1.015200000e-02
1405000000.0 1.007485000e+00 1.896400000e-02
1409500000.0 1.002100000e+00 1.356800000e-02
1414000000.0 1.008511000e+00 1.415700000e-02
1418500000.0 1.002294000e+00 9.897000000e-03
1423000000.0 1.007603000e+00 4.826000000e-03
1427500000.0 1.004853000e+00 2.199600000e-02
1432000000.0 1.004063000e+00 1.485700000e-02
1436500000.0 1.001238000e+00 1.136500000e-02
1441000000.0 1.000689000e+00 1.106800000e-02
1445500000.0 1.005678000e+00 7.345000000e-03
1450000000.0 1.003055000e+00 1.517300000e-02
