! piloto_saltos / abierto_tramosB / r05
# HZ S RI R 50
50000.0 1.008140000e+00 -6.898300000e-02
52500.0 1.006514000e+00 -6.599200000e-02
55000.0 1.006282000e+00 -6.159900000e-02
57500.0 1.004840000e+00 -5.907900000e-02
60000.0 1.002433000e+00 -5.212700000e-02
62500.0 1.006082000e+00 -5.113800000e-02
65000.0 1.005620000e+00 -4.793200000e-02
67500.0 1.004981000e+00 -4.329900000e-02
70000.0 1.004989000e+00 -4.109000000e-02
72500.0 1.005791000e+00 -3.697700000e-02
75000.0 1.003720000e+00 -3.245100000e-02
77500.0 1.002553000e+00 -2.921600000e-02
80000.0 1.002778000e+00 -2.654000000e-02
82500.0 1.002518000e+00 -2.288300000e-02
85000.0 1.002313000e+00 -1.928400000e-02
87500.0 1.001469000e+00 -1.572200000e-02
90000.0 1.000595000e+00 -1.318900000e-02
92500.0 1.001561000e+00 -9.964000000e-03
95000.0 1.001010000e+00 -6.938000000e-03
97500.0 1.001086000e+00 -3.479000000e-03
100000.0 1.001018000e+00 5.100000000e-05
102500.0 1.000052000e+00 3.232000000e-03
105000.0 1.001153000e+00 6.362000000e-03
107500.0 1.001930000e+00 9.760000000e-03
110000.0 1.001010000e+00 1.274900000e-02
112500.0 1.000509000e+00 1.652100000e-02
115000.0 1.000785000e+00 1.965900000e-02
117500.0 1.001023000e+00 2.330300000e-02
120000.0 9.993980000e-01 2.618100000e-02
122500.0 1.000293000e+00 2.863200000e-02
125000.0 1.000272000e+00 3.304100000e-02
127500.0 1.000614000e+00 3.678400000e-02
130000.0 1.001357000e+00 3.913000000e-02
132500.0 1.001274000e+00 4.270700000e-02
135000.0 1.000914000e+00 4.483200000e-02
137500.0 9.992040000e-01 4.705700000e-02
140000.0 1.001021000e+00 5.245100000e-02
142500.0 1.001951000e+00 5.576100000e-02
145000.0 1.001257000e+00 5.837100000e-02
147500.0 1.002291000e+00 6.104700000e-02
150000.0 1.001180000e+00 6.599600000e-02
152500.0 1.001529000e+00 6.762800000e-02
155000.0 1.002201000e+00 7.093400000e-02
157500.0 1.002151000e+00 7.438300000e-02
160000.0 1.003101000e+00 7.786900000e-02
162500.0 1.001724000e+00 8.030600000e-02
165000.0 1.002699000e+00 8.411400000e-02
167500.0 1.002277000e+00 8.689700000e-02
170000.0 1.002612000e+00 8.952200000e-02
172500.0 1.003087000e+00 9.330200000e-02
175000.0 1.002280000e+00 9.664700000e-02
177500.0 1.002889000e+00 9.915700000e-02
180000.0 1.004599000e+00 1.030120000e-01
182500.0 1.002777000e+00 1.046400000e-01
185000.0 1.003678000e+00 1.090530000e-01
187500.0 1.003381000e+00 1.114150000e-01
190000.0 1.003950000e+00 1.143700000e-01
192500.0 1.004272000e+00 1.184720000e-01
195000.0 1.003713000e+00 1.215710000e-01
197500.0 1.003937000e+00 1.242360000e-01
200000.0 1.003401000e+00 1.272230000e-01
202500.0 1.003865000e+00 1.298050000e-01
205000.0 1.004225000e+00 1.328930000e-01
207500.0 1.003851000e+00 1.365850000e-01
210000.0 1.004681000e+00 1.399240000e-01
212500.0 1.004083000e+00 1.422910000e-01
215000.0 1.003793000e+00 1.451540000e-01
217500.0 1.003827000e+00 1.486430000e-01
220000.0 1.004390000e+00 1.521260000e-01
222500.0 1.004714000e+00 1.536570000e-01
225000.0 1.004944000e+00 1.579570000e-01
227500.0 1.004641000e+00 1.607060000e-01
230000.0 1.004121000e+00 1.636860000e-01
232500.0 1.005035000e+00 1.669350000e-01
235000.0 1.004964000e+00 1.694190000e-01
237500.0 1.004908000e+00 1.728030000e-01
240000.0 1.005718000e+00 1.761840000e-01
242500.0 1.004973000e+00 1.791450000e-01
245000.0 1.005688000e+00 1.817410000e-01
247500.0 1.005460000e+00 1.848660000e-01
250000.0 1.005675000e+00 1.873920000e-01
252500.0 1.005826000e+00 1.904340000e-01
255000.0 1.006627000e+00 1.940590000e-01
257500.0 1.005623000e+00 1.967340000e-01
260000.0 1.005175000e+00 1.998260000e-01
262500.0 1.005804000e+00 2.027200000e-01
265000.0 1.005968000e+00 2.058400000e-01
267500.0 1.006034000e+00 2.084380000e-01
270000.0 1.006258000e+00 2.111150000e-01
272500.0 1.005730000e+00 2.145190000e-01
275000.0 1.005846000e+00 2.176050000e-01
277500.0 1.006950000e+00 2.205570000e-01
280000.0 1.006543000e+00 2.232510000e-01
282500.0 1.006541000e+00 2.252980000e-01
285000.0 1.006378000e+00 2.284490000e-01
287500.0 1.006745000e+00 2.319930000e-01
290000.0 1.006567000e+00 2.348300000e-01
292500.0 1.007138000e+00 2.377940000e-01
295000.0 1.006265000e+00 2.402560000e-01
297500.0 1.006376000e+00 2.436650000e-01
300000.0 1.006054000e+00 2.460750000e-01
327000.0 1.005842000e+00 2.751300000e-01
354000.0 1.006591000e+00 3.066100000e-01
381000.0 1.007841000e+00 3.360790000e-01
408000.0 1.008569000e+00 3.674330000e-01
435000.0 1.010044000e+00 3.975480000e-01
462000.0 1.009878000e+00 4.264040000e-01
489000.0 1.011428000e+00 4.552280000e-01
516000.0 1.012383000e+00 4.839780000e-01
543000.0 1.013984000e+00 5.113760000e-01
570000.0 1.016451000e+00 5.406440000e-01
597000.0 1.017860000e+00 5.681970000e-01
624000.0 1.018497000e+00 5.951520000e-01
651000.0 1.019868000e+00 6.222900000e-01
678000.0 1.023263000e+00 6.509560000e-01
705000.0 1.025423000e+00 6.776400000e-01
732000.0 1.027886000e+00 7.046030000e-01
759000.0 1.030962000e+00 7.296720000e-01
786000.0 1.034852000e+00 7.577210000e-01
813000.0 1.039965000e+00 7.842150000e-01
840000.0 1.044407000e+00 8.099680000e-01
867000.0 1.062841000e+00 8.476190000e-01
894000.0 1.055496000e+00 8.630490000e-01
921000.0 1.061681000e+00 8.859180000e-01
948000.0 1.067754000e+00 9.125950000e-01
975000.0 1.075662000e+00 9.376130000e-01
1002000.0 1.082790000e+00 9.627970000e-01
1029000.0 1.090633000e+00 9.877640000e-01
1056000.0 1.101019000e+00 1.010052000e+00
1083000.0 1.111729000e+00 1.036526000e+00
1110000.0 1.120842000e+00 1.059221000e+00
1137000.0 1.133840000e+00 1.082716000e+00
1164000.0 1.145579000e+00 1.103648000e+00
1191000.0 1.159780000e+00 1.127585000e+00
1218000.0 1.174170000e+00 1.148791000e+00
1245000.0 1.189424000e+00 1.169744000e+00
1272000.0 1.206589000e+00 1.189974000e+00
1299000.0 1.223112000e+00 1.207636000e+00
1326000.0 1.241861000e+00 1.226679000e+00
1353000.0 1.260632000e+00 1.244922000e+00
1380000.0 1.281213000e+00 1.260383000e+00
1407000.0 1.301323000e+00 1.277361000e+00
1434000.0 1.324733000e+00 1.290592000e+00
1461000.0 1.347280000e+00 1.306122000e+00
1488000.0 1.371018000e+00 1.316528000e+00
1515000.0 1.394213000e+00 1.327737000e+00
1542000.0 1.419305000e+00 1.335096000e+00
1569000.0 1.443861000e+00 1.342085000e+00
1596000.0 1.469880000e+00 1.348596000e+00
1623000.0 1.495818000e+00 1.351518000e+00
1650000.0 1.523064000e+00 1.355484000e+00
1677000.0 1.551591000e+00 1.354393000e+00
1704000.0 1.580695000e+00 1.354228000e+00
1731000.0 1.607514000e+00 1.350715000e+00
1758000.0 1.635434000e+00 1.346686000e+00
1785000.0 1.662537000e+00 1.339981000e+00
1812000.0 1.689436000e+00 1.331560000e+00
1839000.0 1.714653000e+00 1.319335000e+00
1866000.0 1.738747000e+00 1.306593000e+00
1893000.0 1.762085000e+00 1.288844000e+00
1920000.0 1.786789000e+00 1.275724000e+00
1947000.0 1.811377000e+00 1.259658000e+00
1974000.0 1.830953000e+00 1.237943000e+00
2001000.0 1.849552000e+00 1.219174000e+00
2028000.0 1.872511000e+00 1.197601000e+00
2055000.0 1.887597000e+00 1.174500000e+00
2082000.0 1.900593000e+00 1.152408000e+00
2109000.0 1.916032000e+00 1.123914000e+00
2136000.0 1.926921000e+00 1.098838000e+00
2163000.0 1.936303000e+00 1.075113000e+00
2190000.0 1.947827000e+00 1.047549000e+00
2217000.0 1.953878000e+00 1.020139000e+00
2244000.0 1.962040000e+00 9.929370000e-01
2271000.0 1.963591000e+00 9.660430000e-01
2298000.0 1.966318000e+00 9.368500000e-01
2325000.0 1.965267000e+00 9.088940000e-01
2352000.0 1.967653000e+00 8.854060000e-01
2379000.0 1.965346000e+00 8.599540000e-01
2406000.0 1.964724000e+00 8.302860000e-01
2433000.0 1.960336000e+00 8.125450000e-01
2460000.0 1.954548000e+00 7.846360000e-01
2487000.0 1.949654000e+00 7.620920000e-01
2514000.0 1.943331000e+00 7.382360000e-01
2541000.0 1.935980000e+00 7.157960000e-01
2568000.0 1.929013000e+00 6.918500000e-01
2595000.0 1.918422000e+00 6.721130000e-01
2622000.0 1.909394000e+00 6.511050000e-01
2649000.0 1.899520000e+00 6.291550000e-01
2676000.0 1.889461000e+00 6.131140000e-01
2703000.0 1.877241000e+00 5.930990000e-01
2730000.0 1.867492000e+00 5.777650000e-01
2757000.0 1.858795000e+00 5.582050000e-01
2784000.0 1.842521000e+00 5.448700000e-01
2811000.0 1.833312000e+00 5.256110000e-01
2838000.0 1.819966000e+00 5.120700000e-01
2865000.0 1.809048000e+00 4.983880000e-01
2892000.0 1.798276000e+00 4.840000000e-01
2919000.0 1.785137000e+00 4.724230000e-01
2946000.0 1.775208000e+00 4.582880000e-01
2973000.0 1.761309000e+00 4.473110000e-01
3000000.0 1.751349000e+00 4.347770000e-01
3270000.0 1.640497000e+00 3.338300000e-01
3540000.0 1.546036000e+00 2.652220000e-01
3810000.0 1.470571000e+00 2.094660000e-01
4080000.0 1.406115000e+00 1.618930000e-01
4350000.0 1.359415000e+00 1.189300000e-01
4620000.0 1.323350000e+00 7.895100000e-02
4890000.0 1.295423000e+00 4.055500000e-02
5160000.0 1.268255000e+00 1.250000000e-03
5430000.0 1.255227000e+00 -3.235000000e-02
5700000.0 1.246196000e+00 -6.730600000e-02
5970000.0 1.237969000e+00 -9.943900000e-02
6240000.0 1.231237000e+00 -1.283750000e-01
6510000.0 1.225207000e+00 -1.531350000e-01
6780000.0 1.221478000e+00 -1.724340000e-01
7050000.0 1.220298000e+00 -1.858500000e-01
7320000.0 1.219097000e+00 -1.925640000e-01
7590000.0 -2.422500000e-01 -1.258029000e+00
7860000.0 -2.404250000e-01 -1.260098000e+00
8130000.0 -2.377540000e-01 -1.262708000e+00
8400000.0 -2.351010000e-01 -1.262805000e+00
8670000.0 -2.329310000e-01 -1.263891000e+00
8940000.0 -2.319330000e-01 -1.266978000e+00
9210000.0 -2.308690000e-01 -1.268176000e+00
9480000.0 -2.267820000e-01 -1.270691000e+00
9750000.0 -2.258670000e-01 -1.273157000e+00
10020000.0 -2.241790000e-01 -1.276116000e+00
10290000.0 -2.225560000e-01 -1.277810000e+00
10560000.0 -2.213440000e-01 -1.281124000e+00
10830000.0 -2.184240000e-01 -1.282927000e+00
11100000.0 -2.167380000e-01 -1.286882000e+00
11370000.0 -2.147750000e-01 -1.289356000e+00
11640000.0 -2.132950000e-01 -1.291570000e+00
11910000.0 -2.116300000e-01 -1.296010000e+00
12180000.0 -2.097140000e-01 -1.297530000e+00
12450000.0 -2.087150000e-01 -1.301623000e+00
12720000.0 -2.058940000e-01 -1.303289000e+00
12990000.0 -2.057550000e-01 -1.307059000e+00
13260000.0 -2.025540000e-01 -1.310985000e+00
13530000.0 -2.010850000e-01 -1.313618000e+00
13800000.0 -1.992250000e-01 -1.317797000e+00
14070000.0 -1.976460000e-01 -1.319376000e+00
14340000.0 -1.969010000e-01 -1.323379000e+00
14610000.0 -1.936110000e-01 -1.326741000e+00
14880000.0 -1.917410000e-01 -1.331306000e+00
15150000.0 -1.902030000e-01 -1.332936000e+00
15420000.0 -1.893500000e-01 -1.337702000e+00
15690000.0 -1.866140000e-01 -1.341927000e+00
15960000.0 -1.837840000e-01 -1.343654000e+00
16230000.0 -1.829080000e-01 -1.347579000e+00
16500000.0 -1.806530000e-01 -1.350510000e+00
16770000.0 -1.803000000e-01 -1.354362000e+00
17040000.0 -1.760600000e-01 -1.357852000e+00
17310000.0 -1.747900000e-01 -1.362041000e+00
17580000.0 -1.729300000e-01 -1.365709000e+00
17850000.0 -1.710040000e-01 -1.368333000e+00
18120000.0 -1.682950000e-01 -1.371993000e+00
18390000.0 -1.659860000e-01 -1.376560000e+00
18660000.0 -1.630250000e-01 -1.380172000e+00
18930000.0 -1.610910000e-01 -1.382524000e+00
19200000.0 -1.595960000e-01 -1.386622000e+00
19470000.0 -1.562840000e-01 -1.391014000e+00
19740000.0 -1.546950000e-01 -1.393805000e+00
20010000.0 -1.523520000e-01 -1.398174000e+00
20280000.0 -1.497490000e-01 -1.402486000e+00
20550000.0 -1.471710000e-01 -1.405942000e+00
20820000.0 -1.444580000e-01 -1.411067000e+00
21090000.0 -1.416930000e-01 -1.414793000e+00
21360000.0 -1.404730000e-01 -1.418154000e+00
21630000.0 -1.371090000e-01 -1.420498000e+00
21900000.0 -1.342810000e-01 -1.425193000e+00
22170000.0 -1.316030000e-01 -1.429824000e+00
22440000.0 -1.293410000e-01 -1.433233000e+00
22710000.0 -1.269620000e-01 -1.436571000e+00
22980000.0 -1.242290000e-01 -1.441890000e+00
23250000.0 -1.200570000e-01 -1.446386000e+00
23520000.0 -1.175000000e-01 -1.448386000e+00
23790000.0 -1.150730000e-01 -1.454228000e+00
24060000.0 -1.122090000e-01 -1.457801000e+00
24330000.0 -1.077100000e-01 -1.462628000e+00
24600000.0 -1.061100000e-01 -1.467197000e+00
24870000.0 -1.025530000e-01 -1.469256000e+00
25140000.0 -1.003480000e-01 -1.474155000e+00
25410000.0 -9.643100000e-02 -1.479176000e+00
25680000.0 -9.204400000e-02 -1.482711000e+00
25950000.0 -9.042000000e-02 -1.484909000e+00
26220000.0 -8.760000000e-02 -1.489509000e+00
26490000.0 -8.464100000e-02 -1.495804000e+00
26760000.0 -7.990600000e-02 -1.499258000e+00
27030000.0 -7.651900000e-02 -1.502208000e+00
27300000.0 -7.266200000e-02 -1.508393000e+00
27570000.0 -6.939400000e-02 -1.512283000e+00
27840000.0 -6.610400000e-02 -1.516250000e+00
28110000.0 -6.218600000e-02 -1.520455000e+00
28380000.0 -5.664600000e-02 -1.525413000e+00
28650000.0 -5.575100000e-02 -1.529338000e+00
28920000.0 -5.075000000e-02 -1.533762000e+00
29190000.0 -4.853500000e-02 -1.536268000e+00
29460000.0 -4.382000000e-02 -1.540681000e+00
29730000.0 -4.021200000e-02 -1.546393000e+00
30000000.0 -3.720000000e-02 -1.549630000e+00
32700000.0 6.957000000e-03 -1.594793000e+00
35400000.0 5.557400000e-02 -1.638393000e+00
38100000.0 1.100930000e-01 -1.682139000e+00
40800000.0 1.722860000e-01 -1.725349000e+00
43500000.0 2.425930000e-01 -1.767600000e+00
46200000.0 3.170770000e-01 -1.803306000e+00
48900000.0 4.026270000e-01 -1.835694000e+00
51600000.0 4.956220000e-01 -1.860703000e+00
54300000.0 5.974550000e-01 -1.878853000e+00
57000000.0 7.062710000e-01 -1.885733000e+00
59700000.0 8.195330000e-01 -1.878437000e+00
62400000.0 9.364440000e-01 -1.858292000e+00
65100000.0 1.053153000e+00 -1.824694000e+00
67800000.0 1.168982000e+00 -1.772039000e+00
70500000.0 1.275731000e+00 -1.702579000e+00
73200000.0 1.375680000e+00 -1.623474000e+00
75900000.0 1.461073000e+00 -1.526435000e+00
78600000.0 1.530716000e+00 -1.425452000e+00
81300000.0 1.586473000e+00 -1.313241000e+00
84000000.0 1.626833000e+00 -1.198968000e+00
86700000.0 1.652792000e+00 -1.089689000e+00
89400000.0 1.665047000e+00 -9.825680000e-01
92100000.0 1.662784000e+00 -8.807260000e-01
94800000.0 1.650195000e+00 -7.853700000e-01
97500000.0 1.632885000e+00 -6.959560000e-01
100200000.0 1.609839000e+00 -6.157400000e-01
102900000.0 1.579015000e+00 -5.409660000e-01
105600000.0 1.545115000e+00 -4.759580000e-01
108300000.0 1.510068000e+00 -4.143550000e-01
111000000.0 1.474560000e+00 -3.596890000e-01
113700000.0 1.436463000e+00 -3.100340000e-01
116400000.0 1.399459000e+00 -2.675250000e-01
119100000.0 1.362102000e+00 -2.291830000e-01
121800000.0 1.325545000e+00 -1.940710000e-01
124500000.0 1.288901000e+00 -1.630060000e-01
127200000.0 1.253788000e+00 -1.361370000e-01
129900000.0 1.221191000e+00 -1.108970000e-01
132600000.0 1.186301000e+00 -8.984300000e-02
135300000.0 1.156921000e+00 -7.313700000e-02
138000000.0 1.127215000e+00 -3.631300000e-02
140700000.0 1.096359000e+00 -4.025800000e-02
143400000.0 1.065619000e+00 -4.504500000e-02
146100000.0 1.038095000e+00 -1.480300000e-02
148800000.0 1.014530000e+00 1.471900000e-02
151500000.0 9.998360000e-01 1.000000000e-04
154200000.0 9.983310000e-01 -1.778400000e-02
156900000.0 1.000001000e+00 4.930000000e-04
159600000.0 1.002422000e+00 1.783400000e-02
162300000.0 1.001129000e+00 1.664200000e-02
165000000.0 1.001601000e+00 2.430000000e-04
167700000.0 1.001533000e+00 -6.400000000e-04
170400000.0 1.003125000e+00 -1.135000000e-03
173100000.0 1.002842000e+00 -3.380000000e-04
175800000.0 1.002231000e+00 -7.690000000e-04
178500000.0 1.002871000e+00 -6.170000000e-04
181200000.0 1.004882000e+00 -3.760000000e-04
183900000.0 1.004141000e+00 -6.870000000e-04
186600000.0 1.004988000e+00 -4.580000000e-04
189300000.0 1.003212000e+00 -4.640000000e-04
192000000.0 1.004310000e+00 -1.546000000e-03
194700000.0 1.006086000e+00 -3.730000000e-04
197400000.0 1.004619000e+00 -1.266000000e-03
200100000.0 1.005642000e+00 -1.705000000e-03
202800000.0 1.005712000e+00 -1.820000000e-03
205500000.0 1.005713000e+00 -1.208000000e-03
208200000.0 1.005842000e+00 -7.150000000e-04
210900000.0 1.006072000e+00 -5.370000000e-04
213600000.0 1.005816000e+00 -2.876000000e-03
216300000.0 1.004420000e+00 -8.910000000e-04
219000000.0 1.006279000e+00 -1.375000000e-03
221700000.0 1.007213000e+00 -1.055000000e-03
224400000.0 1.005877000e+00 -6.920000000e-04
227100000.0 1.006077000e+00 -3.055000000e-03
229800000.0 1.008136000e+00 -2.589000000e-03
232500000.0 1.005972000e+00 -2.097000000e-03
235200000.0 1.007806000e+00 -7.040000000e-04
237900000.0 1.005826000e+00 -2.228000000e-03
240600000.0 1.005819000e+00 -1.871000000e-03
243300000.0 1.007117000e+00 -1.270000000e-03
246000000.0 1.006040000e+00 -1.728000000e-03
248700000.0 1.006739000e+00 -3.225000000e-03
251400000.0 1.005607000e+00 -5.720000000e-04
254100000.0 1.005804000e+00 -4.740000000e-04
256800000.0 1.006675000e+00 -6.670000000e-04
259500000.0 1.005388000e+00 -6.600000000e-05
262200000.0 1.004388000e+00 -7.110000000e-04
264900000.0 1.006083000e+00 -8.320000000e-04
267600000.0 1.004313000e+00 -8.390000000e-04
270300000.0 1.005583000e+00 8.910000000e-04
273000000.0 1.004511000e+00 1.400000000e-04
275700000.0 1.003595000e+00 4.180000000e-04
278400000.0 1.002815000e+00 -1.153000000e-03
281100000.0 1.004273000e+00 -5.730000000e-04
283800000.0 1.003333000e+00 -1.319000000e-03
286500000.0 1.002250000e+00 -1.467000000e-03
289200000.0 1.002717000e+00 1.940000000e-04
291900000.0 1.002570000e+00 1.163000000e-03
294600000.0 1.003324000e+00 2.962000000e-03
297300000.0 1.001904000e+00 4.250000000e-04
300000000.0 1.000774000e+00 5.470000000e-04
311500000.0 1.004539000e+00 -1.418000000e-03
323000000.0 1.003566000e+00 6.400000000e-04
334500000.0 1.007704000e+00 6.410000000e-04
346000000.0 1.006380000e+00 8.220000000e-04
357500000.0 1.006474000e+00 4.060000000e-04
369000000.0 1.006516000e+00 -5.220000000e-04
380500000.0 1.006860000e+00 -1.320000000e-04
392000000.0 1.005553000e+00 2.020000000e-03
403500000.0 1.005393000e+00 1.584000000e-03
415000000.0 1.004190000e+00 1.131000000e-03
426500000.0 1.002326000e+00 2.119000000e-03
438000000.0 1.000998000e+00 -1.320000000e-04
449500000.0 9.974240000e-01 -1.040000000e-03
461000000.0 1.001205000e+00 2.160000000e-03
472500000.0 1.003942000e+00 1.337000000e-03
484000000.0 1.004570000e+00 3.790000000e-03
495500000.0 1.007722000e+00 6.911000000e-03
507000000.0 1.006457000e+00 4.922000000e-03
518500000.0 1.009244000e+00 9.381000000e-03
530000000.0 1.008617000e+00 8.891000000e-03
541500000.0 1.009087000e+00 4.850000000e-03
553000000.0 1.008821000e+00 7.770000000e-03
564500000.0 1.005848000e+00 5.422000000e-03
576000000.0 1.005148000e+00 7.323000000e-03
587500000.0 1.005497000e+00 8.357000000e-03
599000000.0 1.004474000e+00 3.380000000e-03
610500000.0 1.005578000e+00 9.127000000e-03
622000000.0 1.015612000e+00 4.376800000e-02
633500000.0 1.004390000e+00 -2.743400000e-02
645000000.0 1.004952000e+00 -2.725100000e-02
656500000.0 1.018570000e+00 5.334000000e-03
668000000.0 1.021101000e+00 9.239000000e-03
679500000.0 1.018329000e+00 8.011000000e-03
691000000.0 1.013321000e+00 6.596000000e-03
702500000.0 1.012961000e+00 5.277000000e-03
714000000.0 1.008046000e+00 9.917000000e-03
725500000.0 1.008257000e+00 4.874000000e-03
737000000.0 1.006082000e+00 5.801000000e-03
748500000.0 1.002507000e+00 -2.825000000e-03
760000000.0 1.005278000e+00 -5.140000000e-04
771500000.0 1.008644000e+00 -2.910000000e-03
783000000.0 1.012615000e+00 -6.191000000e-03
794500000.0 1.015626000e+00 -8.115000000e-03
806000000.0 1.016466000e+00 -4.255000000e-03
817500000.0 1.016541000e+00 -9.087000000e-03
829000000.0 1.016998000e+00 -4.971000000e-03
840500000.0 1.016149000e+00 -7.368000000e-03
852000000.0 1.013679000e+00 -3.587000000e-03
863500000.0 1.014589000e+00 -9.060000000e-04
875000000.0 1.011400000e+00 -4.569000000e-03
886500000.0 1.007235000e+00 -3.030000000e-04
898000000.0 1.005061000e+00 -1.688000000e-03
909500000.0 1.003546000e+00 -5.060000000e-03
921000000.0 1.005192000e+00 -2.087000000e-03
932500000.0 1.002602000e+00 -6.498000000e-03
944000000.0 1.003948000e+00 -5.159000000e-03
955500000.0 1.005939000e+00 -1.287600000e-02
967000000.0 1.006302000e+00 -6.716000000e-03
978500000.0 1.004551000e+00 -6.511000000e-03
990000000.0 1.005064000e+00 -1.290900000e-02
1001500000.0 1.005554000e+00 -8.032000000e-03
1013000000.0 1.004733000e+00 -8.437000000e-03
1024500000.0 1.003538000e+00 -3.192000000e-03
1036000000.0 1.001830000e+00 -1.732000000e-03
1047500000.0 9.993090000e-01 3.338000000e-03
1059000000.0 9.980640000e-01 3.643000000e-03
1070500000.0 1.000649000e+00 -6.990000000e-04
1082000000.0 1.002957000e+00 -8.800000000e-05
1093500000.0 1.001825000e+00 1.660000000e-04
1105000000.0 1.001595000e+00 1.433000000e-03
1116500000.0 1.006215000e+00 -3.198000000e-03
1128000000.0 1.011258000e+00 -3.523200000e-02
1139500000.0 1.003851000e+00 -2.909000000e-03
1151000000.0 1.005165000e+00 -7.971000000e-03
1162500000.0 1.005658000e+00 -5.258000000e-03
1174000000.0 1.006068000e+00 -5.830000000e-04
1185500000.0 1.002701000e+00 1.220000000e-03
1197000000.0 1.002182000e+00 -4.910000000e-04
1208500000.0 1.001072000e+00 -2.088000000e-03
1220000000.0 1.005049000e+00 -7.867000000e-03
1231500000.0 1.000112000e+00 -9.160000000e-04
1243000000.0 1.004407000e+00 -5.987000000e-03
1254500000.0 1.003900000e+00 -2.467000000e-03
1266000000.0 9.990850000e-01 -2.492000000e-03
1277500000.0 1.009357000e+00 -2.816000000e-03
1289000000.0 1.004585000e+00 1.971000000e-03
1300500000.0 1.005617000e+00 4.791000000e-03
1312000000.0 1.003835000e+00 5.561000000e-03
1323500000.0 1.002656000e+00 8.541000000e-03
1335000000.0 1.002497000e+00 -1.793000000e-03
1346500000.0 9.983320000e-01 4.908000000e-03
1358000000.0 1.008121000e+00 -1.174000000e-03
1369500000.0 1.005148000e+00 1.068700000e-02
1381000000.0 1.004553000e+00 1.238100000e-02
1392500000.0 1.004146000e+00 1.254100000e-02
1404000000.0 1.002327000e+00 3.708900000e-02
1415500000.0 1.007290000e+00 8.326000000e-03
1427000000.0 9.988710000e-01 1.457600000e-02
1438500000.0 1.003748000e+00 1.336700000e-02
1450000000.0 1.002491000e+00 9.654000000e-03
