! piloto_saltos / abierto_101puntos / r11
# HZ S RI R 50
50000.0 1.004338000e+00 -6.939500000e-02
59500.0 1.003893000e+00 -5.634400000e-02
69000.0 1.004325000e+00 -4.185000000e-02
78500.0 1.003234000e+00 -2.964700000e-02
88000.0 1.000951000e+00 -1.642100000e-02
97500.0 1.000465000e+00 -4.382000000e-03
107000.0 1.000273000e+00 8.469000000e-03
116500.0 1.000696000e+00 2.182800000e-02
126000.0 9.995530000e-01 3.547800000e-02
135500.0 1.001547000e+00 4.618800000e-02
145000.0 1.001702000e+00 5.815400000e-02
154500.0 1.001656000e+00 7.007100000e-02
164000.0 1.002049000e+00 8.203500000e-02
173500.0 1.002458000e+00 9.369200000e-02
183000.0 1.002344000e+00 1.062300000e-01
192500.0 1.003062000e+00 1.175460000e-01
202000.0 1.004146000e+00 1.295180000e-01
211500.0 1.003795000e+00 1.409500000e-01
221000.0 1.004644000e+00 1.522340000e-01
230500.0 1.005020000e+00 1.636380000e-01
240000.0 1.004969000e+00 1.748770000e-01
249500.0 1.004764000e+00 1.869650000e-01
259000.0 1.005320000e+00 1.979330000e-01
268500.0 1.005499000e+00 2.093170000e-01
278000.0 1.006516000e+00 2.201280000e-01
287500.0 1.006407000e+00 2.319340000e-01
297000.0 1.006235000e+00 2.427660000e-01
306500.0 1.006927000e+00 2.537470000e-01
316000.0 1.007004000e+00 2.647540000e-01
325500.0 1.007450000e+00 2.752550000e-01
335000.0 1.007036000e+00 2.854750000e-01
344500.0 1.007317000e+00 2.966030000e-01
354000.0 1.008306000e+00 3.073180000e-01
363500.0 1.008391000e+00 3.180180000e-01
373000.0 1.008891000e+00 3.290860000e-01
382500.0 1.008565000e+00 3.388110000e-01
392000.0 1.008539000e+00 3.497670000e-01
401500.0 1.008855000e+00 3.598970000e-01
411000.0 1.009631000e+00 3.712920000e-01
420500.0 1.009167000e+00 3.818490000e-01
430000.0 1.009686000e+00 3.921860000e-01
439500.0 1.009793000e+00 4.018350000e-01
449000.0 1.011117000e+00 4.120900000e-01
458500.0 1.011305000e+00 4.214370000e-01
468000.0 1.010759000e+00 4.330050000e-01
477500.0 1.011547000e+00 4.430470000e-01
487000.0 1.012168000e+00 4.527760000e-01
496500.0 1.011827000e+00 4.618970000e-01
506000.0 1.012506000e+00 4.729030000e-01
515500.0 1.012564000e+00 4.826840000e-01
525000.0 1.013162000e+00 4.929410000e-01
534500.0 1.013908000e+00 5.029830000e-01
544000.0 1.014178000e+00 5.128010000e-01
553500.0 1.014330000e+00 5.222150000e-01
563000.0 1.015620000e+00 5.329760000e-01
572500.0 1.014874000e+00 5.419740000e-01
582000.0 1.015354000e+00 5.510150000e-01
591500.0 1.017171000e+00 5.618300000e-01
601000.0 1.017155000e+00 5.712030000e-01
610500.0 1.019106000e+00 5.809620000e-01
620000.0 1.018567000e+00 5.914480000e-01
629500.0 1.019513000e+00 6.001260000e-01
639000.0 1.019447000e+00 6.104030000e-01
648500.0 1.020126000e+00 6.205340000e-01
658000.0 1.022455000e+00 6.297470000e-01
667500.0 1.021753000e+00 6.390930000e-01
677000.0 1.022793000e+00 6.490560000e-01
686500.0 1.022759000e+00 6.592180000e-01
696000.0 1.023779000e+00 6.676510000e-01
705500.0 1.025514000e+00 6.774500000e-01
715000.0 1.026777000e+00 6.876380000e-01
724500.0 1.026582000e+00 6.966790000e-01
734000.0 1.028752000e+00 7.057580000e-01
743500.0 1.029515000e+00 7.160030000e-01
753000.0 1.030434000e+00 7.242740000e-01
762500.0 1.031030000e+00 7.332840000e-01
772000.0 1.033000000e+00 7.431860000e-01
781500.0 1.035431000e+00 7.521080000e-01
791000.0 1.036199000e+00 7.612300000e-01
800500.0 1.038642000e+00 7.709120000e-01
810000.0 1.038770000e+00 7.793110000e-01
819500.0 1.039551000e+00 7.896210000e-01
829000.0 1.041662000e+00 7.984510000e-01
838500.0 1.043660000e+00 8.091360000e-01
848000.0 1.045239000e+00 8.169780000e-01
857500.0 1.046539000e+00 8.265820000e-01
867000.0 1.047968000e+00 8.351060000e-01
876500.0 1.051250000e+00 8.442250000e-01
886000.0 1.053805000e+00 8.528160000e-01
895500.0 1.054423000e+00 8.614820000e-01
905000.0 1.054945000e+00 8.704610000e-01
914500.0 1.057609000e+00 8.811140000e-01
924000.0 1.061204000e+00 8.896660000e-01
933500.0 1.063726000e+00 8.976000000e-01
943000.0 1.065863000e+00 9.075480000e-01
952500.0 1.067333000e+00 9.153770000e-01
962000.0 1.071552000e+00 9.237160000e-01
971500.0 1.073711000e+00 9.331900000e-01
981000.0 1.074911000e+00 9.419060000e-01
990500.0 1.079495000e+00 9.513210000e-01
1000000.0 1.081135000e+00 9.601090000e-01
1090000.0 1.110739000e+00 1.039522000e+00
1180000.0 1.150653000e+00 1.115468000e+00
1270000.0 1.200091000e+00 1.183614000e+00
1360000.0 1.261391000e+00 1.247155000e+00
1450000.0 1.333363000e+00 1.297351000e+00
1540000.0 1.410256000e+00 1.335006000e+00
1630000.0 1.499995000e+00 1.352983000e+00
1720000.0 1.591350000e+00 1.355538000e+00
1810000.0 1.680185000e+00 1.334242000e+00
1900000.0 1.764361000e+00 1.292858000e+00
1990000.0 1.841871000e+00 1.232082000e+00
2080000.0 1.899173000e+00 1.156707000e+00
2170000.0 1.939902000e+00 1.071695000e+00
2260000.0 1.963375000e+00 9.793350000e-01
2350000.0 1.968654000e+00 8.917650000e-01
2440000.0 1.958096000e+00 8.095640000e-01
2530000.0 1.940939000e+00 7.251390000e-01
2620000.0 1.914049000e+00 6.527980000e-01
2710000.0 1.879157000e+00 5.901980000e-01
2800000.0 1.842246000e+00 5.338420000e-01
2890000.0 1.789724000e+00 5.824270000e-01
2980000.0 1.759783000e+00 4.432890000e-01
3070000.0 1.723339000e+00 4.072690000e-01
3160000.0 1.685706000e+00 3.720460000e-01
3250000.0 1.649584000e+00 3.427630000e-01
3340000.0 1.616325000e+00 3.176190000e-01
3430000.0 1.584523000e+00 2.921230000e-01
3520000.0 1.553934000e+00 2.709680000e-01
3610000.0 1.527050000e+00 2.496510000e-01
3700000.0 1.499822000e+00 2.324230000e-01
3790000.0 1.475448000e+00 2.147100000e-01
3880000.0 1.452956000e+00 1.967420000e-01
3970000.0 1.431435000e+00 1.797750000e-01
4060000.0 1.413384000e+00 1.661060000e-01
4150000.0 1.393598000e+00 1.510350000e-01
4240000.0 1.377281000e+00 1.369410000e-01
4330000.0 1.362599000e+00 1.230500000e-01
4420000.0 1.347772000e+00 1.083000000e-01
4510000.0 1.337237000e+00 9.592400000e-02
4600000.0 1.324275000e+00 8.280900000e-02
4690000.0 1.315368000e+00 6.770700000e-02
4780000.0 1.305286000e+00 5.549800000e-02
4870000.0 1.297411000e+00 4.383500000e-02
4960000.0 1.289921000e+00 3.081500000e-02
5050000.0 1.276260000e+00 1.744500000e-02
5140000.0 1.271093000e+00 5.736000000e-03
5230000.0 1.266326000e+00 -7.181000000e-03
5320000.0 1.262108000e+00 -1.881600000e-02
5410000.0 1.258530000e+00 -3.090200000e-02
5500000.0 1.255007000e+00 -4.283900000e-02
5590000.0 1.251747000e+00 -5.332700000e-02
5680000.0 1.248077000e+00 -6.651500000e-02
5770000.0 1.243990000e+00 -7.615000000e-02
5860000.0 1.242887000e+00 -8.570400000e-02
5950000.0 1.239142000e+00 -9.744900000e-02
6040000.0 1.236074000e+00 -1.073880000e-01
6130000.0 1.235029000e+00 -1.167320000e-01
6220000.0 1.231966000e+00 -1.260090000e-01
6310000.0 1.229488000e+00 -1.358200000e-01
6400000.0 1.227617000e+00 -1.444420000e-01
6490000.0 1.226418000e+00 -1.505960000e-01
6580000.0 1.224586000e+00 -1.582070000e-01
6670000.0 1.223792000e+00 -1.643290000e-01
6760000.0 1.223309000e+00 -1.719750000e-01
6850000.0 1.221958000e+00 -1.766060000e-01
6940000.0 1.222477000e+00 -1.812240000e-01
7030000.0 1.220034000e+00 -1.863210000e-01
7120000.0 1.220469000e+00 -1.889400000e-01
7210000.0 1.219103000e+00 -1.910870000e-01
7300000.0 1.218989000e+00 -1.928880000e-01
7390000.0 1.219300000e+00 -1.937840000e-01
7480000.0 1.219571000e+00 -1.924010000e-01
7570000.0 -2.421650000e-01 -1.258821000e+00
7660000.0 -2.426190000e-01 -1.258940000e+00
7750000.0 -2.401850000e-01 -1.258691000e+00
7840000.0 -2.393800000e-01 -1.260063000e+00
7930000.0 -2.387350000e-01 -1.260959000e+00
8020000.0 -2.393960000e-01 -1.259911000e+00
8110000.0 -2.373140000e-01 -1.261445000e+00
8200000.0 -2.371470000e-01 -1.260552000e+00
8290000.0 -2.368340000e-01 -1.261887000e+00
8380000.0 -2.351490000e-01 -1.262356000e+00
8470000.0 -2.352880000e-01 -1.263137000e+00
8560000.0 -2.351630000e-01 -1.264062000e+00
8650000.0 -2.336440000e-01 -1.265711000e+00
8740000.0 -2.331080000e-01 -1.264518000e+00
8830000.0 -2.331760000e-01 -1.267258000e+00
8920000.0 -2.323540000e-01 -1.267376000e+00
9010000.0 -2.326080000e-01 -1.266702000e+00
9100000.0 -2.306240000e-01 -1.267751000e+00
9190000.0 -2.298410000e-01 -1.269075000e+00
9280000.0 -2.288660000e-01 -1.270116000e+00
9370000.0 -2.286540000e-01 -1.270682000e+00
9460000.0 -2.278710000e-01 -1.270848000e+00
9550000.0 -2.266580000e-01 -1.271198000e+00
9640000.0 -2.258920000e-01 -1.272410000e+00
9730000.0 -2.253360000e-01 -1.273552000e+00
9820000.0 -2.251050000e-01 -1.273421000e+00
9910000.0 -2.240050000e-01 -1.274631000e+00
10000000.0 -2.251500000e-01 -1.275874000e+00
10900000.0 -2.189500000e-01 -1.284389000e+00
11800000.0 -2.121560000e-01 -1.292448000e+00
12700000.0 -2.072440000e-01 -1.303785000e+00
13600000.0 -2.002180000e-01 -1.312574000e+00
14500000.0 -1.955010000e-01 -1.325523000e+00
15400000.0 -1.886560000e-01 -1.337356000e+00
16300000.0 -1.824700000e-01 -1.348311000e+00
17200000.0 -1.763630000e-01 -1.359841000e+00
18100000.0 -1.673990000e-01 -1.372259000e+00
19000000.0 -1.603000000e-01 -1.384099000e+00
19900000.0 -1.535000000e-01 -1.397951000e+00
20800000.0 -1.444010000e-01 -1.409370000e+00
21700000.0 -1.372460000e-01 -1.422573000e+00
22600000.0 -1.271710000e-01 -1.436440000e+00
23500000.0 -1.183890000e-01 -1.450647000e+00
24400000.0 -1.087400000e-01 -1.462627000e+00
25300000.0 -9.887500000e-02 -1.477083000e+00
26200000.0 -8.821000000e-02 -1.489227000e+00
27100000.0 -7.528800000e-02 -1.506646000e+00
28000000.0 -6.391700000e-02 -1.520329000e+00
28900000.0 -5.204000000e-02 -1.532720000e+00
29800000.0 -3.929100000e-02 -1.548075000e+00
30700000.0 -2.493000000e-02 -1.561858000e+00
31600000.0 -1.139400000e-02 -1.577481000e+00
32500000.0 3.073000000e-03 -1.590881000e+00
33400000.0 1.874800000e-02 -1.605270000e+00
34300000.0 3.426000000e-02 -1.619849000e+00
35200000.0 5.256300000e-02 -1.634460000e+00
36100000.0 6.899700000e-02 -1.649236000e+00
37000000.0 8.560700000e-02 -1.664292000e+00
37900000.0 1.051240000e-01 -1.677873000e+00
38800000.0 1.259590000e-01 -1.693131000e+00
39700000.0 1.463470000e-01 -1.708109000e+00
40600000.0 1.668320000e-01 -1.722330000e+00
41500000.0 1.889290000e-01 -1.735126000e+00
42400000.0 2.118770000e-01 -1.748877000e+00
43300000.0 2.351010000e-01 -1.761548000e+00
44200000.0 2.609150000e-01 -1.775865000e+00
45100000.0 2.853350000e-01 -1.788552000e+00
46000000.0 3.122670000e-01 -1.801885000e+00
46900000.0 3.374490000e-01 -1.812817000e+00
47800000.0 3.661930000e-01 -1.822862000e+00
48700000.0 3.970630000e-01 -1.834023000e+00
49600000.0 4.260230000e-01 -1.841714000e+00
50500000.0 4.555190000e-01 -1.852128000e+00
51400000.0 4.889920000e-01 -1.861997000e+00
52300000.0 5.222590000e-01 -1.866757000e+00
53200000.0 5.555730000e-01 -1.872532000e+00
54100000.0 5.884970000e-01 -1.878305000e+00
55000000.0 6.257350000e-01 -1.881942000e+00
55900000.0 6.609860000e-01 -1.885347000e+00
56800000.0 6.981520000e-01 -1.884562000e+00
57700000.0 7.356260000e-01 -1.886525000e+00
58600000.0 7.723210000e-01 -1.883251000e+00
59500000.0 8.128820000e-01 -1.880212000e+00
60400000.0 8.496060000e-01 -1.875503000e+00
61300000.0 8.885470000e-01 -1.869130000e+00
62200000.0 9.259320000e-01 -1.861707000e+00
63100000.0 9.650380000e-01 -1.852204000e+00
64000000.0 1.004409000e+00 -1.841762000e+00
64900000.0 1.044486000e+00 -1.828419000e+00
65800000.0 1.083044000e+00 -1.811453000e+00
66700000.0 1.122312000e+00 -1.796847000e+00
67600000.0 1.161234000e+00 -1.776443000e+00
68500000.0 1.197290000e+00 -1.754795000e+00
69400000.0 1.235511000e+00 -1.734435000e+00
70300000.0 1.269680000e+00 -1.710209000e+00
71200000.0 1.302936000e+00 -1.682911000e+00
72100000.0 1.338712000e+00 -1.655957000e+00
73000000.0 1.368168000e+00 -1.630107000e+00
73900000.0 1.397684000e+00 -1.597512000e+00
74800000.0 1.429597000e+00 -1.565350000e+00
75700000.0 1.454769000e+00 -1.534343000e+00
76600000.0 1.482018000e+00 -1.500913000e+00
77500000.0 1.506646000e+00 -1.464971000e+00
78400000.0 1.529297000e+00 -1.431901000e+00
79300000.0 1.547340000e+00 -1.396385000e+00
80200000.0 1.567661000e+00 -1.357635000e+00
81100000.0 1.584407000e+00 -1.322123000e+00
82000000.0 1.600221000e+00 -1.285335000e+00
82900000.0 1.613919000e+00 -1.248435000e+00
83800000.0 1.626488000e+00 -1.210892000e+00
84700000.0 1.635908000e+00 -1.173148000e+00
85600000.0 1.643842000e+00 -1.134292000e+00
86500000.0 1.653033000e+00 -1.100227000e+00
87400000.0 1.657266000e+00 -1.063025000e+00
88300000.0 1.661456000e+00 -1.027260000e+00
89200000.0 1.661836000e+00 -9.914610000e-01
90100000.0 1.665684000e+00 -9.577960000e-01
91000000.0 1.665004000e+00 -9.223310000e-01
91900000.0 1.662654000e+00 -8.876800000e-01
92800000.0 1.661799000e+00 -8.537490000e-01
93700000.0 1.658081000e+00 -8.242080000e-01
94600000.0 1.652026000e+00 -7.915140000e-01
95500000.0 1.647943000e+00 -7.621650000e-01
96400000.0 1.640626000e+00 -7.303260000e-01
97300000.0 1.633486000e+00 -7.034450000e-01
98200000.0 1.626638000e+00 -6.720880000e-01
99100000.0 1.619359000e+00 -6.470480000e-01
100000000.0 1.611068000e+00 -6.190970000e-01
109000000.0 1.502808000e+00 -3.984120000e-01
118000000.0 1.377975000e+00 -2.438150000e-01
127000000.0 1.256071000e+00 -1.375630000e-01
136000000.0 1.147581000e+00 -6.999100000e-02
145000000.0 1.049992000e+00 -1.916300000e-02
154000000.0 1.000395000e+00 9.740000000e-04
163000000.0 1.002531000e+00 1.697000000e-03
172000000.0 1.002344000e+00 -2.110000000e-04
181000000.0 1.003496000e+00 -3.810000000e-04
190000000.0 1.004552000e+00 -1.657000000e-03
199000000.0 1.005238000e+00 -1.721000000e-03
208000000.0 1.005538000e+00 -1.045000000e-03
217000000.0 1.006295000e+00 -1.202000000e-03
226000000.0 1.005992000e+00 -2.763000000e-03
235000000.0 1.006391000e+00 -1.771000000e-03
244000000.0 1.006387000e+00 -4.130000000e-04
253000000.0 1.006096000e+00 -1.079000000e-03
262000000.0 1.005084000e+00 -5.750000000e-04
271000000.0 1.005129000e+00 -5.160000000e-04
280000000.0 1.003526000e+00 -8.170000000e-04
289000000.0 1.002081000e+00 -3.150000000e-04
298000000.0 1.000774000e+00 -1.390000000e-03
307000000.0 1.003422000e+00 6.640000000e-04
316000000.0 1.002363000e+00 6.600000000e-05
325000000.0 1.004064000e+00 -4.220000000e-04
334000000.0 1.004355000e+00 5.200000000e-04
343000000.0 1.006669000e+00 2.058000000e-03
352000000.0 1.006453000e+00 5.000000000e-06
361000000.0 1.005740000e+00 -2.090000000e-04
370000000.0 1.006420000e+00 5.180000000e-04
379000000.0 1.008589000e+00 1.922400000e-02
388000000.0 1.004838000e+00 -1.853000000e-02
397000000.0 1.005720000e+00 1.127000000e-03
406000000.0 9.958110000e-01 -3.464300000e-02
415000000.0 1.003297000e+00 -5.520000000e-04
424000000.0 1.004361000e+00 1.595000000e-03
433000000.0 1.001870000e+00 1.385000000e-03
442000000.0 9.991610000e-01 1.196000000e-03
451000000.0 9.981620000e-01 6.620000000e-04
460000000.0 1.000518000e+00 1.936000000e-03
469000000.0 1.003188000e+00 3.003000000e-03
478000000.0 1.004199000e+00 3.452000000e-03
487000000.0 1.006361000e+00 4.100000000e-03
496000000.0 1.007400000e+00 3.393000000e-03
505000000.0 1.007807000e+00 4.043000000e-03
514000000.0 1.008793000e+00 5.872000000e-03
523000000.0 1.008420000e+00 6.759000000e-03
532000000.0 1.008029000e+00 8.730000000e-03
541000000.0 1.009510000e+00 8.634000000e-03
550000000.0 1.005260000e+00 7.669000000e-03
559000000.0 1.007790000e+00 6.506000000e-03
568000000.0 1.009051000e+00 7.069000000e-03
577000000.0 1.005997000e+00 8.899000000e-03
586000000.0 1.003604000e+00 8.624000000e-03
595000000.0 1.001826000e+00 9.043000000e-03
604000000.0 1.004404000e+00 6.513000000e-03
613000000.0 1.007944000e+00 6.259000000e-03
622000000.0 1.010294000e+00 5.325000000e-03
631000000.0 1.012883000e+00 1.173800000e-02
640000000.0 1.012037000e+00 8.709000000e-03
649000000.0 1.016165000e+00 1.177000000e-02
658000000.0 1.016611000e+00 1.173800000e-02
667000000.0 1.015022000e+00 1.238000000e-02
676000000.0 1.015795000e+00 5.971000000e-03
685000000.0 1.015258000e+00 9.896000000e-03
694000000.0 1.017320000e+00 4.942000000e-03
703000000.0 1.016566000e+00 4.682000000e-03
712000000.0 1.014466000e+00 6.314000000e-03
721000000.0 1.007191000e+00 6.012000000e-03
730000000.0 1.008797000e+00 6.033000000e-03
739000000.0 1.004595000e+00 6.371000000e-03
748000000.0 1.000832000e+00 3.125000000e-03
757000000.0 1.003239000e+00 -1.040000000e-04
766000000.0 1.006536000e+00 -5.190000000e-04
775000000.0 1.009070000e+00 -3.570000000e-03
784000000.0 1.011434000e+00 -2.510000000e-03
793000000.0 1.015891000e+00 -7.226000000e-03
802000000.0 1.016374000e+00 -6.536000000e-03
811000000.0 1.016436000e+00 -3.861000000e-03
820000000.0 1.016816000e+00 -5.294000000e-03
829000000.0 1.016453000e+00 -5.054000000e-03
838000000.0 1.016349000e+00 -9.805000000e-03
847000000.0 1.019160000e+00 -4.636000000e-03
856000000.0 1.015764000e+00 -2.035000000e-03
865000000.0 1.012163000e+00 -3.965000000e-03
874000000.0 1.012550000e+00 -1.930000000e-04
883000000.0 1.005144000e+00 -2.462000000e-03
892000000.0 1.007196000e+00 -4.206000000e-03
901000000.0 1.003530000e+00 4.882000000e-03
910000000.0 1.005387000e+00 -2.151000000e-03
919000000.0 1.002992000e+00 -6.694000000e-03
928000000.0 1.003671000e+00 -1.258000000e-03
937000000.0 1.005882000e+00 -6.009000000e-03
946000000.0 1.004377000e+00 -9.796000000e-03
955000000.0 1.002739000e+00 -2.937500000e-02
964000000.0 1.007774000e+00 -5.428000000e-03
973000000.0 1.003945000e+00 7.960000000e-03
982000000.0 1.002728000e+00 -1.033000000e-02
991000000.0 1.004903000e+00 -2.374200000e-02
1000000000.0 1.003926000e+00 -5.220000000e-03
1004500000.0 1.002635000e+00 -1.066400000e-02
1009000000.0 1.005490000e+00 -3.149000000e-03
1013500000.0 1.002542000e+00 -1.046300000e-02
1018000000.0 1.001951000e+00 -5.259000000e-03
1022500000.0 1.003708000e+00 -4.413000000e-03
1027000000.0 1.001425000e+00 -8.156000000e-03
1031500000.0 1.002250000e+00 -4.597000000e-03
1036000000.0 9.985930000e-01 -1.892000000e-03
1040500000.0 1.002061000e+00 -7.548000000e-03
1045000000.0 1.004597000e+00 -4.893000000e-03
1049500000.0 9.993480000e-01 -3.889000000e-03
1054000000.0 9.982080000e-01 7.380000000e-04
1058500000.0 1.002520000e+00 8.570000000e-04
1063000000.0 1.000904000e+00 1.629000000e-03
1067500000.0 1.002434000e+00 5.370000000e-04
1072000000.0 1.003017000e+00 -5.619000000e-03
1076500000.0 1.004271000e+00 -7.475000000e-03
1081000000.0 1.002764000e+00 1.003000000e-03
1085500000.0 1.004749000e+00 -1.890000000e-04
1090000000.0 1.001916000e+00 3.409000000e-03
1094500000.0 1.000736000e+00 -5.150000000e-04
1099000000.0 1.007666000e+00 2.622000000e-03
1103500000.0 1.003603000e+00 1.397000000e-03
1108000000.0 1.003348000e+00 -4.110000000e-04
1112500000.0 1.006544000e+00 -3.680000000e-04
1117000000.0 1.004825000e+00 -1.279000000e-03
1121500000.0 1.008892000e+00 -5.584000000e-03
1126000000.0 1.001485000e+00 -3.287100000e-02
1130500000.0 1.012788000e+00 -9.930000000e-04
1135000000.0 1.006668000e+00 -5.390000000e-03
1139500000.0 1.004970000e+00 9.005000000e-03
1144000000.0 1.001631000e+00 -7.665000000e-03
1148500000.0 1.019626000e+00 2.730700000e-02
1153000000.0 1.004496000e+00 -9.707000000e-03
1157500000.0 1.004694000e+00 -1.463000000e-03
1162000000.0 1.003902000e+00 -3.459000000e-03
1166500000.0 1.006804000e+00 -7.979000000e-03
1171000000.0 1.002220000e+00 -5.207000000e-03
1175500000.0 1.000282000e+00 -3.885000000e-03
1180000000.0 1.001582000e+00 -7.878000000e-03
1184500000.0 1.005253000e+00 -3.025000000e-03
1189000000.0 1.007924000e+00 -5.914000000e-03
1193500000.0 1.005091000e+00 -3.557000000e-03
1198000000.0 1.002828000e+00 2.282000000e-03
1202500000.0 1.003803000e+00 -2.879000000e-03
1207000000.0 1.006166000e+00 -9.018000000e-03
1211500000.0 1.005252000e+00 -5.217000000e-03
1216000000.0 1.004400000e+00 1.794000000e-03
1220500000.0 1.003628000e+00 -6.870000000e-04
1225000000.0 1.001590000e+00 -1.390000000e-04
1229500000.0 9.974920000e-01 -1.790000000e-04
1234000000.0 1.006354000e+00 -5.960000000e-03
1238500000.0 1.002393000e+00 1.201000000e-03
1243000000.0 1.005277000e+00 -5.120000000e-04
1247500000.0 1.004045000e+00 -4.149000000e-03
1252000000.0 1.002831000e+00 -6.608000000e-03
1256500000.0 1.005954000e+00 -4.921000000e-03
1261000000.0 1.000484000e+00 -6.240000000e-04
1265500000.0 1.005890000e+00 3.920000000e-03
1270000000.0 1.003623000e+00 1.441000000e-03
1274500000.0 1.007427000e+00 6.722000000e-03
1279000000.0 1.002617000e+00 -1.880000000e-04
1283500000.0 1.000919000e+00 -4.600000000e-05
1288000000.0 9.979460000e-01 6.310000000e-04
1292500000.0 1.008248000e+00 -2.654000000e-03
1297000000.0 1.006756000e+00 9.221000000e-03
1301500000.0 1.005549000e+00 5.180000000e-04
1306000000.0 1.000902000e+00 -2.895500000e-02
1310500000.0 1.000446000e+00 -5.831000000e-03
1315000000.0 1.002868000e+00 -3.508000000e-03
1319500000.0 1.009182000e+00 4.251000000e-03
1324000000.0 1.003790000e+00 1.885000000e-03
1328500000.0 1.008445000e+00 1.245000000e-03
1333000000.0 9.960110000e-01 -1.413000000e-03
1337500000.0 1.001072000e+00 -1.731000000e-03
1342000000.0 1.003619000e+00 -2.295000000e-03
1346500000.0 1.004154000e+00 1.081000000e-03
1351000000.0 1.004740000e+00 -1.235000000e-03
1355500000.0 1.005653000e+00 2.342000000e-03
1360000000.0 1.011341000e+00 2.327000000e-03
1364500000.0 1.006311000e+00 1.117000000e-03
1369000000.0 1.002115000e+00 9.727000000e-03
1373500000.0 9.972460000e-01 1.187600000e-02
1378000000.0 1.003918000e+00 4.663000000e-03
1382500000.0 1.004605000e+00 1.425900000e-02
1387000000.0 1.000165000e+00 1.062300000e-02
1391500000.0 1.001060000e+00 7.856000000e-03
1396000000.0 1.006111000e+00 5.944000000e-03
1400500000.0 1.005487000e+00 1.118700000e-02
1405000000.0 9.958770000e-01 8.591000000e-03
1409500000.0 1.002646000e+00 1.371100000e-02
1414000000.0 1.006083000e+00 1.004200000e-02
1418500000.0 1.008263000e+00 1.375600000e-02
1423000000.0 1.006361000e+00 1.737900000e-02
1427500000.0 1.010466000e+00 1.807300000e-02
1432000000.0 1.000520000e+00 8.956000000e-03
1436500000.0 9.992770000e-01 2.065100000e-02
1441000000.0 1.003688000e+00 1.099300000e-02
1445500000.0 1.003168000e+00 1.382700000e-02
1450000000.0 1.001448000e+00 1.512800000e-02
