! piloto_saltos / abierto_pausado / r01
# HZ S RI R 50
50000.0 1.007280000e+00 -7.037400000e-02
59500.0 1.008425000e+00 -5.698000000e-02
69000.0 1.005299000e+00 -4.457000000e-02
78500.0 1.002951000e+00 -2.902200000e-02
88000.0 1.002024000e+00 -1.603300000e-02
97500.0 1.000335000e+00 -4.365000000e-03
107000.0 1.000802000e+00 8.020000000e-03
116500.0 9.994700000e-01 2.112300000e-02
126000.0 1.002721000e+00 3.133400000e-02
135500.0 1.000572000e+00 4.550800000e-02
145000.0 1.001544000e+00 5.713400000e-02
154500.0 1.001372000e+00 6.883500000e-02
164000.0 1.001415000e+00 8.229800000e-02
173500.0 1.003077000e+00 9.289700000e-02
183000.0 1.003171000e+00 1.053030000e-01
192500.0 1.002369000e+00 1.162790000e-01
202000.0 1.002727000e+00 1.290870000e-01
211500.0 1.003718000e+00 1.401240000e-01
221000.0 1.004132000e+00 1.511490000e-01
230500.0 1.003788000e+00 1.627010000e-01
240000.0 1.005148000e+00 1.741830000e-01
249500.0 1.004746000e+00 1.856570000e-01
259000.0 1.005311000e+00 1.968760000e-01
268500.0 1.005505000e+00 2.081550000e-01
278000.0 1.005655000e+00 2.187710000e-01
287500.0 1.006002000e+00 2.304380000e-01
297000.0 1.006372000e+00 2.421160000e-01
306500.0 1.006076000e+00 2.518950000e-01
316000.0 1.006275000e+00 2.628590000e-01
325500.0 1.006529000e+00 2.739520000e-01
335000.0 1.007188000e+00 2.847530000e-01
344500.0 1.007052000e+00 2.953800000e-01
354000.0 1.007216000e+00 3.060270000e-01
363500.0 1.007960000e+00 3.165310000e-01
373000.0 1.007583000e+00 3.270520000e-01
382500.0 1.008103000e+00 3.378260000e-01
392000.0 1.008874000e+00 3.481050000e-01
401500.0 1.008180000e+00 3.592510000e-01
411000.0 1.008522000e+00 3.694430000e-01
420500.0 1.009270000e+00 3.795790000e-01
430000.0 1.009392000e+00 3.889360000e-01
439500.0 1.009966000e+00 3.998870000e-01
449000.0 1.010253000e+00 4.104120000e-01
458500.0 1.010075000e+00 4.208520000e-01
468000.0 1.010882000e+00 4.303660000e-01
477500.0 1.012080000e+00 4.397470000e-01
487000.0 1.010791000e+00 4.509580000e-01
496500.0 1.011380000e+00 4.602170000e-01
506000.0 1.012899000e+00 4.712170000e-01
515500.0 1.011748000e+00 4.810290000e-01
525000.0 1.012574000e+00 4.913090000e-01
534500.0 1.012982000e+00 5.003610000e-01
544000.0 1.012918000e+00 5.111360000e-01
553500.0 1.014077000e+00 5.207360000e-01
563000.0 1.013469000e+00 5.298340000e-01
572500.0 1.015082000e+00 5.401210000e-01
582000.0 1.014912000e+00 5.498690000e-01
591500.0 1.015821000e+00 5.595210000e-01
601000.0 1.015663000e+00 5.691380000e-01
610500.0 1.017246000e+00 5.787950000e-01
620000.0 1.017693000e+00 5.892610000e-01
629500.0 1.029270000e+00 6.121930000e-01
639000.0 1.018641000e+00 6.078870000e-01
648500.0 1.018965000e+00 6.177890000e-01
658000.0 1.020612000e+00 6.261090000e-01
667500.0 1.020577000e+00 6.368180000e-01
677000.0 1.021516000e+00 6.462530000e-01
686500.0 1.022334000e+00 6.555120000e-01
696000.0 1.023173000e+00 6.642670000e-01
705500.0 1.024976000e+00 6.747650000e-01
715000.0 1.025646000e+00 6.848890000e-01
724500.0 1.026015000e+00 6.939740000e-01
734000.0 1.027344000e+00 7.024660000e-01
743500.0 1.027861000e+00 7.115580000e-01
753000.0 1.030273000e+00 7.218540000e-01
762500.0 1.030422000e+00 7.310030000e-01
772000.0 1.032456000e+00 7.407720000e-01
781500.0 1.032232000e+00 7.490720000e-01
791000.0 1.034915000e+00 7.586430000e-01
800500.0 1.035297000e+00 7.677070000e-01
810000.0 1.036288000e+00 7.774860000e-01
819500.0 1.038573000e+00 7.849020000e-01
829000.0 1.040587000e+00 7.945140000e-01
838500.0 1.041947000e+00 8.037550000e-01
848000.0 1.044089000e+00 8.138190000e-01
857500.0 1.044762000e+00 8.229540000e-01
867000.0 1.046725000e+00 8.304390000e-01
876500.0 1.047190000e+00 8.406060000e-01
886000.0 1.049731000e+00 8.504570000e-01
895500.0 1.051982000e+00 8.580780000e-01
905000.0 1.055361000e+00 8.674570000e-01
914500.0 1.057664000e+00 8.759320000e-01
924000.0 1.059485000e+00 8.868640000e-01
933500.0 1.061873000e+00 8.955320000e-01
943000.0 1.062717000e+00 9.036690000e-01
952500.0 1.064788000e+00 9.114970000e-01
962000.0 1.066953000e+00 9.205710000e-01
971500.0 1.071713000e+00 9.305090000e-01
981000.0 1.073113000e+00 9.391640000e-01
990500.0 1.075946000e+00 9.481890000e-01
1000000.0 1.077641000e+00 9.548240000e-01
1090000.0 1.106445000e+00 1.036005000e+00
1180000.0 1.145896000e+00 1.111724000e+00
1270000.0 1.194629000e+00 1.181913000e+00
1360000.0 1.254798000e+00 1.243181000e+00
1450000.0 1.324214000e+00 1.293938000e+00
1540000.0 1.404809000e+00 1.332100000e+00
1630000.0 1.489434000e+00 1.353246000e+00
1720000.0 1.579746000e+00 1.354397000e+00
1810000.0 1.672130000e+00 1.338436000e+00
1900000.0 1.753766000e+00 1.299524000e+00
1990000.0 1.830459000e+00 1.239449000e+00
2080000.0 1.891301000e+00 1.166875000e+00
2170000.0 1.933516000e+00 1.081004000e+00
2260000.0 1.959146000e+00 9.921580000e-01
2350000.0 1.966559000e+00 9.029240000e-01
2440000.0 1.959019000e+00 8.160410000e-01
2530000.0 1.939389000e+00 7.354820000e-01
2620000.0 1.915670000e+00 6.651250000e-01
2710000.0 1.880226000e+00 5.959630000e-01
2800000.0 1.844927000e+00 5.380410000e-01
2890000.0 1.804872000e+00 4.916060000e-01
2980000.0 1.767534000e+00 4.484410000e-01
3070000.0 1.728019000e+00 4.085570000e-01
3160000.0 1.689039000e+00 3.752950000e-01
3250000.0 1.654531000e+00 3.451550000e-01
3340000.0 1.619895000e+00 3.182000000e-01
3430000.0 1.586323000e+00 2.934730000e-01
3520000.0 1.556962000e+00 2.724920000e-01
3610000.0 1.527450000e+00 2.523680000e-01
3700000.0 1.502448000e+00 2.332130000e-01
3790000.0 1.478111000e+00 2.136700000e-01
3880000.0 1.455658000e+00 1.972870000e-01
3970000.0 1.433229000e+00 1.819860000e-01
4060000.0 1.415786000e+00 1.667040000e-01
4150000.0 1.394955000e+00 1.505710000e-01
4240000.0 1.378961000e+00 1.362080000e-01
4330000.0 1.364265000e+00 1.218240000e-01
4420000.0 1.350642000e+00 1.095380000e-01
4510000.0 1.337944000e+00 9.614500000e-02
4600000.0 1.326496000e+00 8.123700000e-02
4690000.0 1.315849000e+00 6.849300000e-02
4780000.0 1.306657000e+00 5.443400000e-02
4870000.0 1.297849000e+00 4.264600000e-02
4960000.0 1.290998000e+00 2.969500000e-02
5050000.0 1.276806000e+00 1.750800000e-02
5140000.0 1.272449000e+00 4.990000000e-03
5230000.0 1.266870000e+00 -7.351000000e-03
5320000.0 1.263205000e+00 -1.908000000e-02
5410000.0 1.259325000e+00 -3.087900000e-02
5500000.0 1.254420000e+00 -4.268200000e-02
5590000.0 1.252895000e+00 -5.521300000e-02
5680000.0 1.247749000e+00 -6.595500000e-02
5770000.0 1.245040000e+00 -7.624800000e-02
5860000.0 1.241890000e+00 -8.661200000e-02
5950000.0 1.239036000e+00 -9.667700000e-02
6040000.0 1.237515000e+00 -1.079610000e-01
6130000.0 1.233946000e+00 -1.171640000e-01
6220000.0 1.232896000e+00 -1.257370000e-01
6310000.0 1.230527000e+00 -1.358290000e-01
6400000.0 1.228663000e+00 -1.433050000e-01
6490000.0 1.227134000e+00 -1.522410000e-01
6580000.0 1.225158000e+00 -1.586920000e-01
6670000.0 1.224253000e+00 -1.660880000e-01
6760000.0 1.222723000e+00 -1.715320000e-01
6850000.0 1.223247000e+00 -1.765390000e-01
6940000.0 1.221372000e+00 -1.805290000e-01
7030000.0 1.220635000e+00 -1.865140000e-01
7120000.0 1.220760000e+00 -1.879760000e-01
7210000.0 1.219749000e+00 -1.914910000e-01
7300000.0 1.219236000e+00 -1.931430000e-01
7390000.0 1.218996000e+00 -1.930930000e-01
7480000.0 1.219415000e+00 -1.930510000e-01
7570000.0 -2.420300000e-01 -1.259042000e+00
7660000.0 -2.422650000e-01 -1.259787000e+00
7750000.0 -2.421100000e-01 -1.260529000e+00
7840000.0 -2.409290000e-01 -1.259933000e+00
7930000.0 -2.395110000e-01 -1.260035000e+00
8020000.0 -2.400310000e-01 -1.260867000e+00
8110000.0 -2.380880000e-01 -1.261203000e+00
8200000.0 -2.374820000e-01 -1.262381000e+00
8290000.0 -2.369150000e-01 -1.262551000e+00
8380000.0 -2.357390000e-01 -1.262396000e+00
8470000.0 -2.352660000e-01 -1.263112000e+00
8560000.0 -2.351100000e-01 -1.262637000e+00
8650000.0 -2.348420000e-01 -1.264497000e+00
8740000.0 -2.331380000e-01 -1.265734000e+00
8830000.0 -2.334720000e-01 -1.265913000e+00
8920000.0 -2.303170000e-01 -1.266765000e+00
9010000.0 -2.318350000e-01 -1.268742000e+00
9100000.0 -2.291150000e-01 -1.268096000e+00
9190000.0 -2.300540000e-01 -1.269185000e+00
9280000.0 -2.292460000e-01 -1.270419000e+00
9370000.0 -2.288670000e-01 -1.268606000e+00
9460000.0 -2.284380000e-01 -1.271570000e+00
9550000.0 -2.279640000e-01 -1.272313000e+00
9640000.0 -2.270270000e-01 -1.273103000e+00
9730000.0 -2.252400000e-01 -1.274107000e+00
9820000.0 -2.255700000e-01 -1.273818000e+00
9910000.0 -2.246120000e-01 -1.274195000e+00
10000000.0 -2.238300000e-01 -1.274773000e+00
10900000.0 -2.186870000e-01 -1.284700000e+00
11800000.0 -2.129260000e-01 -1.293884000e+00
12700000.0 -2.065190000e-01 -1.304167000e+00
13600000.0 -2.010870000e-01 -1.315245000e+00
14500000.0 -1.944920000e-01 -1.325924000e+00
15400000.0 -1.892910000e-01 -1.337165000e+00
16300000.0 -1.820990000e-01 -1.348366000e+00
17200000.0 -1.748690000e-01 -1.361716000e+00
18100000.0 -1.699570000e-01 -1.372832000e+00
19000000.0 -1.623810000e-01 -1.386485000e+00
19900000.0 -1.525880000e-01 -1.397837000e+00
20800000.0 -1.453110000e-01 -1.410913000e+00
21700000.0 -1.366240000e-01 -1.423300000e+00
22600000.0 -1.268370000e-01 -1.435375000e+00
23500000.0 -1.184670000e-01 -1.449082000e+00
24400000.0 -1.072840000e-01 -1.464035000e+00
25300000.0 -9.743800000e-02 -1.477989000e+00
26200000.0 -8.748400000e-02 -1.490853000e+00
27100000.0 -7.636300000e-02 -1.504771000e+00
28000000.0 -6.345200000e-02 -1.519161000e+00
28900000.0 -5.132900000e-02 -1.534056000e+00
29800000.0 -3.782700000e-02 -1.547302000e+00
30700000.0 -2.543000000e-02 -1.561584000e+00
31600000.0 -1.218400000e-02 -1.577573000e+00
32500000.0 2.899000000e-03 -1.591057000e+00
33400000.0 1.807100000e-02 -1.605388000e+00
34300000.0 3.433900000e-02 -1.622230000e+00
35200000.0 5.264400000e-02 -1.634563000e+00
36100000.0 6.843100000e-02 -1.651162000e+00
37000000.0 8.842200000e-02 -1.665793000e+00
37900000.0 1.059290000e-01 -1.677632000e+00
38800000.0 1.249020000e-01 -1.694534000e+00
39700000.0 1.469340000e-01 -1.707411000e+00
40600000.0 1.654970000e-01 -1.721662000e+00
41500000.0 1.888980000e-01 -1.737333000e+00
42400000.0 2.114980000e-01 -1.749270000e+00
43300000.0 2.354550000e-01 -1.762980000e+00
44200000.0 2.589910000e-01 -1.776753000e+00
45100000.0 2.855670000e-01 -1.788206000e+00
46000000.0 3.118760000e-01 -1.799774000e+00
46900000.0 3.395940000e-01 -1.813368000e+00
47800000.0 3.677270000e-01 -1.822898000e+00
48700000.0 3.965030000e-01 -1.832904000e+00
49600000.0 4.262920000e-01 -1.841656000e+00
50500000.0 4.561910000e-01 -1.852036000e+00
51400000.0 4.894150000e-01 -1.859730000e+00
52300000.0 5.218330000e-01 -1.866987000e+00
53200000.0 5.554600000e-01 -1.873945000e+00
54100000.0 5.889350000e-01 -1.877230000e+00
55000000.0 6.243190000e-01 -1.881547000e+00
55900000.0 6.604920000e-01 -1.885474000e+00
56800000.0 6.972460000e-01 -1.884474000e+00
57700000.0 7.337920000e-01 -1.886700000e+00
58600000.0 7.716110000e-01 -1.884696000e+00
59500000.0 8.100610000e-01 -1.880873000e+00
60400000.0 8.504660000e-01 -1.876655000e+00
61300000.0 8.872360000e-01 -1.869746000e+00
62200000.0 9.281870000e-01 -1.861694000e+00
63100000.0 9.656040000e-01 -1.852134000e+00
64000000.0 1.003723000e+00 -1.840804000e+00
64900000.0 1.047753000e+00 -1.828337000e+00
65800000.0 1.084184000e+00 -1.812396000e+00
66700000.0 1.121282000e+00 -1.795838000e+00
67600000.0 1.161263000e+00 -1.778473000e+00
68500000.0 1.195766000e+00 -1.757686000e+00
69400000.0 1.231845000e+00 -1.734020000e+00
70300000.0 1.269341000e+00 -1.708081000e+00
71200000.0 1.303875000e+00 -1.685497000e+00
72100000.0 1.336178000e+00 -1.658630000e+00
73000000.0 1.367224000e+00 -1.630823000e+00
73900000.0 1.399596000e+00 -1.599308000e+00
74800000.0 1.427947000e+00 -1.566952000e+00
75700000.0 1.456089000e+00 -1.535399000e+00
76600000.0 1.481914000e+00 -1.501403000e+00
77500000.0 1.503608000e+00 -1.466700000e+00
78400000.0 1.528010000e+00 -1.432912000e+00
79300000.0 1.550491000e+00 -1.394884000e+00
80200000.0 1.566174000e+00 -1.358344000e+00
81100000.0 1.584946000e+00 -1.321021000e+00
82000000.0 1.600925000e+00 -1.285779000e+00
82900000.0 1.614574000e+00 -1.247640000e+00
83800000.0 1.624383000e+00 -1.208883000e+00
84700000.0 1.633430000e+00 -1.173657000e+00
85600000.0 1.642002000e+00 -1.135444000e+00
86500000.0 1.652309000e+00 -1.098152000e+00
87400000.0 1.655177000e+00 -1.063254000e+00
88300000.0 1.662276000e+00 -1.027141000e+00
89200000.0 1.663822000e+00 -9.914290000e-01
90100000.0 1.665766000e+00 -9.558470000e-01
91000000.0 1.662849000e+00 -9.200120000e-01
91900000.0 1.662590000e+00 -8.881710000e-01
92800000.0 1.661277000e+00 -8.554960000e-01
93700000.0 1.656300000e+00 -8.230170000e-01
94600000.0 1.653606000e+00 -7.909250000e-01
95500000.0 1.645947000e+00 -7.608860000e-01
96400000.0 1.642499000e+00 -7.314780000e-01
97300000.0 1.634911000e+00 -7.014600000e-01
98200000.0 1.626873000e+00 -6.732980000e-01
99100000.0 1.619333000e+00 -6.464650000e-01
100000000.0 1.609991000e+00 -6.189520000e-01
109000000.0 1.502316000e+00 -3.991540000e-01
118000000.0 1.377695000e+00 -2.445370000e-01
127000000.0 1.256498000e+00 -1.374540000e-01
136000000.0 1.147532000e+00 -6.863100000e-02
145000000.0 1.049911000e+00 -2.024300000e-02
154000000.0 1.000633000e+00 -2.400000000e-05
163000000.0 1.001657000e+00 4.100000000e-05
172000000.0 1.003492000e+00 -9.980000000e-04
181000000.0 1.003549000e+00 -9.770000000e-04
190000000.0 1.004735000e+00 -1.262000000e-03
199000000.0 1.004938000e+00 -2.054000000e-03
208000000.0 1.005036000e+00 -5.550000000e-04
217000000.0 1.006014000e+00 -2.607000000e-03
226000000.0 1.005997000e+00 -9.830000000e-04
235000000.0 1.006118000e+00 -7.060000000e-04
244000000.0 1.006016000e+00 -1.347000000e-03
253000000.0 1.005208000e+00 -7.800000000e-04
262000000.0 1.004366000e+00 -8.790000000e-04
271000000.0 1.003848000e+00 -1.374000000e-03
280000000.0 1.003719000e+00 -1.752000000e-03
289000000.0 1.004245000e+00 2.790000000e-04
298000000.0 1.001884000e+00 6.250000000e-04
307000000.0 1.002689000e+00 -2.110000000e-04
316000000.0 1.002974000e+00 -1.018000000e-03
325000000.0 1.004554000e+00 -6.330000000e-04
334000000.0 1.004666000e+00 -1.793000000e-03
343000000.0 1.004568000e+00 4.520000000e-04
352000000.0 1.006937000e+00 -1.192000000e-03
361000000.0 1.006035000e+00 4.600000000e-04
370000000.0 1.006381000e+00 2.540000000e-04
379000000.0 1.006839000e+00 -6.570000000e-04
388000000.0 1.013665000e+00 3.583500000e-02
397000000.0 1.005804000e+00 2.925000000e-03
406000000.0 1.005250000e+00 2.830000000e-04
415000000.0 9.957320000e-01 -3.403100000e-02
424000000.0 1.003054000e+00 9.810000000e-04
433000000.0 1.001258000e+00 6.960000000e-04
442000000.0 1.000853000e+00 8.390000000e-04
451000000.0 1.000737000e+00 -2.280000000e-04
460000000.0 1.002071000e+00 2.242000000e-03
469000000.0 1.002037000e+00 6.420000000e-04
478000000.0 1.003385000e+00 2.519000000e-03
487000000.0 1.005769000e+00 7.880000000e-03
496000000.0 1.004000000e+00 -1.614000000e-02
505000000.0 1.008139000e+00 6.411000000e-03
514000000.0 1.008449000e+00 2.515700000e-02
523000000.0 1.009093000e+00 6.792000000e-03
532000000.0 1.006964000e+00 -9.109000000e-03
541000000.0 1.008543000e+00 8.630000000e-03
550000000.0 1.008855000e+00 2.742000000e-02
559000000.0 1.005461000e+00 6.785000000e-03
568000000.0 1.005567000e+00 -7.675000000e-03
577000000.0 1.004092000e+00 9.184000000e-03
586000000.0 1.004431000e+00 6.062000000e-03
595000000.0 1.002460000e+00 5.123000000e-03
604000000.0 1.003628000e+00 6.426000000e-03
613000000.0 1.006337000e+00 5.438000000e-03
622000000.0 1.012562000e+00 7.377000000e-03
631000000.0 1.010574000e+00 1.139300000e-02
640000000.0 1.014050000e+00 8.108000000e-03
649000000.0 1.016109000e+00 1.262100000e-02
658000000.0 1.014575000e+00 8.760000000e-03
667000000.0 1.019182000e+00 1.130300000e-02
676000000.0 1.016995000e+00 1.055700000e-02
685000000.0 1.019716000e+00 1.202200000e-02
694000000.0 1.017905000e+00 5.712000000e-03
703000000.0 1.016879000e+00 8.003000000e-03
712000000.0 1.014665000e+00 4.008000000e-03
721000000.0 1.009325000e+00 4.983000000e-03
730000000.0 1.008590000e+00 4.430000000e-03
739000000.0 1.004420000e+00 1.997000000e-03
748000000.0 1.001140000e+00 6.950000000e-04
757000000.0 1.002833000e+00 6.720000000e-04
766000000.0 1.007409000e+00 -1.777000000e-03
775000000.0 1.009999000e+00 -5.356000000e-03
784000000.0 1.010549000e+00 -4.572000000e-03
793000000.0 1.014578000e+00 -4.120000000e-04
802000000.0 1.017144000e+00 -2.262000000e-03
811000000.0 1.016500000e+00 -4.545000000e-03
820000000.0 1.016199000e+00 -8.139000000e-03
829000000.0 1.016856000e+00 -8.171000000e-03
838000000.0 1.016894000e+00 -5.343000000e-03
847000000.0 1.014647000e+00 -7.049000000e-03
856000000.0 1.014256000e+00 -9.687000000e-03
865000000.0 1.010704000e+00 -5.983000000e-03
874000000.0 1.010538000e+00 -6.405000000e-03
883000000.0 1.009342000e+00 9.020000000e-04
892000000.0 1.003237000e+00 2.480000000e-04
901000000.0 1.004895000e+00 -9.420000000e-04
910000000.0 1.000068000e+00 -3.491000000e-03
919000000.0 1.004173000e+00 -2.731000000e-03
928000000.0 1.003784000e+00 -5.227000000e-03
937000000.0 1.003967000e+00 -3.477000000e-03
946000000.0 1.004685000e+00 -9.002000000e-03
955000000.0 1.005653000e+00 -9.194000000e-03
964000000.0 1.002282000e+00 -8.187000000e-03
973000000.0 1.004977000e+00 -8.361000000e-03
982000000.0 1.006582000e+00 -8.140000000e-03
991000000.0 1.003008000e+00 -1.245300000e-02
1000000000.0 1.005014000e+00 -6.272000000e-03
1004500000.0 1.004618000e+00 -8.153000000e-03
1009000000.0 1.004699000e+00 -1.174400000e-02
1013500000.0 1.004165000e+00 -6.416000000e-03
1018000000.0 1.004981000e+00 -3.512000000e-03
1022500000.0 1.002534000e+00 -1.003500000e-02
1027000000.0 1.001979000e+00 -6.927000000e-03
1031500000.0 9.991140000e-01 -1.396000000e-03
1036000000.0 9.998670000e-01 5.395000000e-03
1040500000.0 9.983080000e-01 -2.703000000e-03
1045000000.0 9.988370000e-01 -5.381000000e-03
1049500000.0 1.000981000e+00 3.740000000e-04
1054000000.0 9.973090000e-01 -9.070000000e-04
1058500000.0 1.001804000e+00 5.286000000e-03
1063000000.0 1.001031000e+00 -3.259000000e-03
1067500000.0 9.977210000e-01 -1.757000000e-03
1072000000.0 9.957560000e-01 -2.240000000e-03
1076500000.0 9.970100000e-01 2.363000000e-03
1081000000.0 1.002896000e+00 -2.926000000e-03
1085500000.0 9.998100000e-01 -7.854000000e-03
1090000000.0 1.003984000e+00 -2.347000000e-03
1094500000.0 1.003827000e+00 5.870000000e-04
1099000000.0 1.003588000e+00 -3.627000000e-03
1103500000.0 1.003359000e+00 -3.929000000e-03
1108000000.0 1.005304000e+00 -2.052000000e-03
1112500000.0 1.005956000e+00 -3.460000000e-03
1117000000.0 1.006402000e+00 8.910000000e-04
1121500000.0 1.008242000e+00 -3.128000000e-03
1126000000.0 1.005183000e+00 -8.756000000e-03
1130500000.0 1.180347000e+00 -1.322000000e-02
1135000000.0 1.003315000e+00 -3.489000000e-03
1139500000.0 1.005192000e+00 3.300000000e-04
1144000000.0 1.008010000e+00 -4.469000000e-03
1148500000.0 1.003084000e+00 -2.494000000e-03
1153000000.0 1.009611000e+00 -6.856000000e-03
1157500000.0 1.005087000e+00 -2.938000000e-03
1162000000.0 1.002768000e+00 -2.425000000e-02
1166500000.0 1.008849000e+00 -7.489000000e-03
1171000000.0 9.992620000e-01 -5.265000000e-03
1175500000.0 1.002383000e+00 -5.235000000e-03
1180000000.0 1.002937000e+00 -5.712000000e-03
1184500000.0 1.004490000e+00 3.026000000e-03
1189000000.0 1.004971000e+00 1.085000000e-03
1193500000.0 1.001438000e+00 2.946000000e-03
1198000000.0 1.005411000e+00 -4.365000000e-03
1202500000.0 1.002493000e+00 4.612000000e-03
1207000000.0 1.003618000e+00 5.220000000e-04
1211500000.0 1.004535000e+00 -4.738000000e-03
1216000000.0 1.003546000e+00 -3.868000000e-03
1220500000.0 9.966370000e-01 -6.350000000e-04
1225000000.0 1.000162000e+00 -5.609000000e-03
1229500000.0 1.006493000e+00 -9.252000000e-03
1234000000.0 1.006112000e+00 -5.350000000e-03
1238500000.0 9.985030000e-01 -7.193000000e-03
1243000000.0 1.001002000e+00 -3.935000000e-03
1247500000.0 1.003154000e+00 -3.562000000e-03
1252000000.0 1.006503000e+00 4.356000000e-03
1256500000.0 1.003466000e+00 -5.200000000e-03
1261000000.0 1.000538000e+00 -4.033000000e-03
1265500000.0 9.982750000e-01 2.276000000e-03
1270000000.0 1.003913000e+00 -1.192300000e-02
1274500000.0 1.008541000e+00 1.047800000e-02
1279000000.0 1.005563000e+00 5.671000000e-03
1283500000.0 1.006910000e+00 -2.270000000e-04
1288000000.0 1.002693000e+00 -3.261000000e-03
1292500000.0 1.003366000e+00 -6.519000000e-03
1297000000.0 1.010318000e+00 3.255000000e-03
1301500000.0 1.003143000e+00 -8.715000000e-03
1306000000.0 1.002534000e+00 4.666000000e-03
1310500000.0 1.008295000e+00 3.570100000e-02
1315000000.0 1.001992000e+00 5.745000000e-03
1319500000.0 1.000616000e+00 1.094000000e-03
1324000000.0 1.002267000e+00 -2.829000000e-03
1328500000.0 1.001831000e+00 2.800000000e-03
1333000000.0 9.992650000e-01 -1.250000000e-03
1337500000.0 1.006266000e+00 8.454000000e-03
1342000000.0 1.005893000e+00 -2.366000000e-03
1346500000.0 1.009713000e+00 -4.376000000e-03
1351000000.0 1.004689000e+00 -2.539000000e-03
1355500000.0 1.000746000e+00 6.470000000e-04
1360000000.0 9.984090000e-01 4.018000000e-03
1364500000.0 1.001117000e+00 5.547000000e-03
1369000000.0 1.009790000e+00 3.677000000e-03
1373500000.0 1.003906000e+00 1.147600000e-02
1378000000.0 1.006070000e+00 -7.300000000e-04
1382500000.0 1.004595000e+00 3.798000000e-03
1387000000.0 1.002283000e+00 7.796000000e-03
1391500000.0 1.005912000e+00 1.566700000e-02
1396000000.0 1.005429000e+00 6.357000000e-03
1400500000.0 1.004224000e+00 4.876000000e-03
1405000000.0 1.004935000e+00 9.130000000e-03
1409500000.0 1.002896000e+00 1.632500000e-02
1414000000.0 9.984800000e-01 1.461400000e-02
1418500000.0 1.004740000e+00 1.859000000e-02
1423000000.0 1.001183000e+00 1.484500000e-02
1427500000.0 1.013161000e+00 9.713000000e-03
1432000000.0 1.000631000e+00 1.225500000e-02
1436500000.0 1.002995000e+00 1.474900000e-02
1441000000.0 1.000647000e+00 1.548100000e-02
1445500000.0 1.001575000e+00 1.505600000e-02
1450000000.0 1.000505000e+00 4.720000000e-03
