! piloto_saltos / abierto_continuo / r07
# HZ S RI R 50
50000.0 1.004241000e+00 -7.005400000e-02
59500.0 1.008934000e+00 -5.658900000e-02
69000.0 1.005414000e+00 -4.393900000e-02
78500.0 1.002108000e+00 -2.961500000e-02
88000.0 1.000168000e+00 -1.670500000e-02
97500.0 9.999860000e-01 -4.590000000e-03
107000.0 9.996770000e-01 8.352000000e-03
116500.0 1.000331000e+00 2.072100000e-02
126000.0 9.996590000e-01 3.234800000e-02
135500.0 1.001741000e+00 4.493300000e-02
145000.0 1.001670000e+00 5.728000000e-02
154500.0 1.001882000e+00 6.969000000e-02
164000.0 1.002798000e+00 8.144400000e-02
173500.0 1.002248000e+00 9.347900000e-02
183000.0 1.002968000e+00 1.055490000e-01
192500.0 1.002757000e+00 1.166010000e-01
202000.0 1.003880000e+00 1.282280000e-01
211500.0 1.003964000e+00 1.403910000e-01
221000.0 1.003805000e+00 1.514740000e-01
230500.0 1.004022000e+00 1.630300000e-01
240000.0 1.004191000e+00 1.742620000e-01
249500.0 1.004289000e+00 1.852930000e-01
259000.0 1.005016000e+00 1.966750000e-01
268500.0 1.004827000e+00 2.080810000e-01
278000.0 1.005945000e+00 2.189440000e-01
287500.0 1.005349000e+00 2.302210000e-01
297000.0 1.006358000e+00 2.412940000e-01
306500.0 1.006470000e+00 2.521480000e-01
316000.0 1.007174000e+00 2.626300000e-01
325500.0 1.006958000e+00 2.731820000e-01
335000.0 1.006855000e+00 2.847360000e-01
344500.0 1.007107000e+00 2.956000000e-01
354000.0 1.007011000e+00 3.058070000e-01
363500.0 1.007739000e+00 3.169200000e-01
373000.0 1.007534000e+00 3.280360000e-01
382500.0 1.008329000e+00 3.378640000e-01
392000.0 1.007675000e+00 3.480290000e-01
401500.0 1.008771000e+00 3.586040000e-01
411000.0 1.009431000e+00 3.687590000e-01
420500.0 1.008285000e+00 3.787220000e-01
430000.0 1.008749000e+00 3.890290000e-01
439500.0 1.009422000e+00 3.993250000e-01
449000.0 1.009500000e+00 4.101660000e-01
458500.0 1.009696000e+00 4.210790000e-01
468000.0 1.011280000e+00 4.302810000e-01
477500.0 1.010335000e+00 4.396790000e-01
487000.0 1.011287000e+00 4.505350000e-01
496500.0 1.011979000e+00 4.607600000e-01
506000.0 1.012508000e+00 4.709890000e-01
515500.0 1.011654000e+00 4.808400000e-01
525000.0 1.012182000e+00 4.903540000e-01
534500.0 1.013016000e+00 4.999780000e-01
544000.0 1.013365000e+00 5.107710000e-01
553500.0 1.013710000e+00 5.196460000e-01
563000.0 1.015070000e+00 5.299070000e-01
572500.0 1.013890000e+00 5.394890000e-01
582000.0 1.015178000e+00 5.493650000e-01
591500.0 1.016466000e+00 5.589460000e-01
601000.0 1.016929000e+00 5.685620000e-01
610500.0 1.016773000e+00 5.791130000e-01
620000.0 1.017574000e+00 5.884000000e-01
629500.0 1.017642000e+00 5.979220000e-01
639000.0 1.019141000e+00 6.078270000e-01
648500.0 1.019187000e+00 6.170720000e-01
658000.0 1.019340000e+00 6.259960000e-01
667500.0 1.021276000e+00 6.365380000e-01
677000.0 1.022029000e+00 6.467110000e-01
686500.0 1.022463000e+00 6.558340000e-01
696000.0 1.023664000e+00 6.649880000e-01
705500.0 1.023106000e+00 6.745740000e-01
715000.0 1.024929000e+00 6.832960000e-01
724500.0 1.025765000e+00 6.932150000e-01
734000.0 1.026978000e+00 7.022420000e-01
743500.0 1.027745000e+00 7.123150000e-01
753000.0 1.030096000e+00 7.230300000e-01
762500.0 1.029532000e+00 7.306240000e-01
772000.0 1.031494000e+00 7.396890000e-01
781500.0 1.032347000e+00 7.499270000e-01
791000.0 1.033527000e+00 7.586380000e-01
800500.0 1.035060000e+00 7.674460000e-01
810000.0 1.035969000e+00 7.765720000e-01
819500.0 1.038902000e+00 7.866770000e-01
829000.0 1.040680000e+00 7.949340000e-01
838500.0 1.041256000e+00 8.038140000e-01
848000.0 1.043195000e+00 8.130080000e-01
857500.0 1.044460000e+00 8.226080000e-01
867000.0 1.046574000e+00 8.314030000e-01
876500.0 1.048885000e+00 8.404490000e-01
886000.0 1.051379000e+00 8.502410000e-01
895500.0 1.053121000e+00 8.592510000e-01
905000.0 1.054476000e+00 8.669400000e-01
914500.0 1.055396000e+00 8.773510000e-01
924000.0 1.058776000e+00 8.855910000e-01
933500.0 1.060534000e+00 8.938730000e-01
943000.0 1.062643000e+00 9.041060000e-01
952500.0 1.066249000e+00 9.115020000e-01
962000.0 1.067610000e+00 9.202860000e-01
971500.0 1.071078000e+00 9.301260000e-01
981000.0 1.072721000e+00 9.387120000e-01
990500.0 1.076114000e+00 9.468320000e-01
1000000.0 1.079541000e+00 9.558360000e-01
1090000.0 1.105905000e+00 1.035691000e+00
1180000.0 1.146151000e+00 1.111039000e+00
1270000.0 1.195469000e+00 1.181925000e+00
1360000.0 1.254385000e+00 1.242123000e+00
1450000.0 1.322130000e+00 1.296678000e+00
1540000.0 1.403543000e+00 1.332392000e+00
1630000.0 1.487077000e+00 1.355734000e+00
1720000.0 1.579653000e+00 1.355424000e+00
1810000.0 1.669847000e+00 1.335326000e+00
1900000.0 1.756581000e+00 1.297679000e+00
1990000.0 1.829008000e+00 1.240798000e+00
2080000.0 1.887321000e+00 1.167055000e+00
2170000.0 1.932926000e+00 1.080267000e+00
2260000.0 1.957792000e+00 9.927110000e-01
2350000.0 1.967173000e+00 9.012950000e-01
2440000.0 1.959015000e+00 8.150530000e-01
2530000.0 1.942684000e+00 7.367110000e-01
2620000.0 1.915260000e+00 6.638350000e-01
2710000.0 1.884801000e+00 5.971690000e-01
2800000.0 1.843591000e+00 5.413840000e-01
2890000.0 1.808130000e+00 4.913560000e-01
2980000.0 1.765849000e+00 4.489310000e-01
3070000.0 1.727247000e+00 4.096110000e-01
3160000.0 1.689293000e+00 3.754690000e-01
3250000.0 1.653610000e+00 3.444560000e-01
3340000.0 1.621047000e+00 3.174410000e-01
3430000.0 1.587744000e+00 2.938980000e-01
3520000.0 1.558165000e+00 2.726030000e-01
3610000.0 1.529094000e+00 2.511240000e-01
3700000.0 1.502951000e+00 2.330640000e-01
3790000.0 1.478472000e+00 2.142980000e-01
3880000.0 1.455884000e+00 1.978840000e-01
3970000.0 1.435465000e+00 1.816370000e-01
4060000.0 1.414132000e+00 1.658030000e-01
4150000.0 1.397009000e+00 1.499100000e-01
4240000.0 1.380399000e+00 1.355830000e-01
4330000.0 1.364147000e+00 1.231700000e-01
4420000.0 1.351959000e+00 1.081980000e-01
4510000.0 1.337065000e+00 9.446200000e-02
4600000.0 1.326107000e+00 8.185500000e-02
4690000.0 1.316935000e+00 6.746000000e-02
4780000.0 1.307300000e+00 5.612400000e-02
4870000.0 1.298989000e+00 4.271800000e-02
4960000.0 1.291093000e+00 2.980900000e-02
5050000.0 1.276246000e+00 1.682900000e-02
5140000.0 1.271659000e+00 4.618000000e-03
5230000.0 1.267181000e+00 -6.868000000e-03
5320000.0 1.264099000e+00 -1.839500000e-02
5410000.0 1.259065000e+00 -3.057000000e-02
5500000.0 1.256124000e+00 -4.231900000e-02
5590000.0 1.251802000e+00 -5.473500000e-02
5680000.0 1.249527000e+00 -6.608500000e-02
5770000.0 1.244894000e+00 -7.588600000e-02
5860000.0 1.243942000e+00 -8.679600000e-02
5950000.0 1.239238000e+00 -9.717400000e-02
6040000.0 1.236233000e+00 -1.079760000e-01
6130000.0 1.234298000e+00 -1.181130000e-01
6220000.0 1.232512000e+00 -1.275840000e-01
6310000.0 1.231024000e+00 -1.347690000e-01
6400000.0 1.228760000e+00 -1.437420000e-01
6490000.0 1.226637000e+00 -1.512990000e-01
6580000.0 1.225285000e+00 -1.595380000e-01
6670000.0 1.225345000e+00 -1.656470000e-01
6760000.0 1.222966000e+00 -1.709690000e-01
6850000.0 1.222285000e+00 -1.773110000e-01
6940000.0 1.222120000e+00 -1.825300000e-01
7030000.0 1.220381000e+00 -1.856510000e-01
7120000.0 1.219250000e+00 -1.894770000e-01
7210000.0 1.218692000e+00 -1.928430000e-01
7300000.0 1.219660000e+00 -1.936230000e-01
7390000.0 1.220227000e+00 -1.935070000e-01
7480000.0 1.218983000e+00 -1.936510000e-01
7570000.0 -2.426380000e-01 -1.259921000e+00
7660000.0 -2.425640000e-01 -1.259066000e+00
7750000.0 -2.417560000e-01 -1.259604000e+00
7840000.0 -2.405080000e-01 -1.259205000e+00
7930000.0 -2.394110000e-01 -1.260686000e+00
8020000.0 -2.396830000e-01 -1.260663000e+00
8110000.0 -2.377690000e-01 -1.262477000e+00
8200000.0 -2.368490000e-01 -1.261390000e+00
8290000.0 -2.380340000e-01 -1.262864000e+00
8380000.0 -2.356020000e-01 -1.263452000e+00
8470000.0 -2.354640000e-01 -1.263255000e+00
8560000.0 -2.351600000e-01 -1.263686000e+00
8650000.0 -2.342900000e-01 -1.264722000e+00
8740000.0 -2.333960000e-01 -1.265406000e+00
8830000.0 -2.328050000e-01 -1.266365000e+00
8920000.0 -2.324910000e-01 -1.267870000e+00
9010000.0 -2.314440000e-01 -1.268031000e+00
9100000.0 -2.317920000e-01 -1.268570000e+00
9190000.0 -2.309260000e-01 -1.269205000e+00
9280000.0 -2.293870000e-01 -1.270377000e+00
9370000.0 -2.291810000e-01 -1.271183000e+00
9460000.0 -2.289480000e-01 -1.270739000e+00
9550000.0 -2.277180000e-01 -1.271758000e+00
9640000.0 -2.272470000e-01 -1.273281000e+00
9730000.0 -2.252880000e-01 -1.273881000e+00
9820000.0 -2.264040000e-01 -1.273936000e+00
9910000.0 -2.241660000e-01 -1.275887000e+00
10000000.0 -2.247770000e-01 -1.275558000e+00
10900000.0 -2.187880000e-01 -1.284134000e+00
11800000.0 -2.132270000e-01 -1.294879000e+00
12700000.0 -2.073800000e-01 -1.304155000e+00
13600000.0 -2.015490000e-01 -1.315374000e+00
14500000.0 -1.950540000e-01 -1.325119000e+00
15400000.0 -1.884160000e-01 -1.336893000e+00
16300000.0 -1.809060000e-01 -1.349377000e+00
17200000.0 -1.752600000e-01 -1.361262000e+00
18100000.0 -1.695460000e-01 -1.371395000e+00
19000000.0 -1.596470000e-01 -1.385991000e+00
19900000.0 -1.535680000e-01 -1.398914000e+00
20800000.0 -1.446270000e-01 -1.410633000e+00
21700000.0 -1.359350000e-01 -1.423404000e+00
22600000.0 -1.277900000e-01 -1.435659000e+00
23500000.0 -1.190260000e-01 -1.450838000e+00
24400000.0 -1.081040000e-01 -1.463555000e+00
25300000.0 -9.875200000e-02 -1.476940000e+00
26200000.0 -8.702600000e-02 -1.490907000e+00
27100000.0 -7.612500000e-02 -1.504044000e+00
28000000.0 -6.449700000e-02 -1.518617000e+00
28900000.0 -5.235500000e-02 -1.532164000e+00
29800000.0 -3.814500000e-02 -1.547575000e+00
30700000.0 -2.499800000e-02 -1.560946000e+00
31600000.0 -1.085600000e-02 -1.577124000e+00
32500000.0 2.978000000e-03 -1.590993000e+00
33400000.0 1.771400000e-02 -1.606418000e+00
34300000.0 3.433900000e-02 -1.621299000e+00
35200000.0 5.196100000e-02 -1.635855000e+00
36100000.0 6.878900000e-02 -1.651005000e+00
37000000.0 8.676000000e-02 -1.664446000e+00
37900000.0 1.061950000e-01 -1.679022000e+00
38800000.0 1.234850000e-01 -1.693433000e+00
39700000.0 1.452090000e-01 -1.708667000e+00
40600000.0 1.673920000e-01 -1.721921000e+00
41500000.0 1.893810000e-01 -1.737192000e+00
42400000.0 2.121430000e-01 -1.749979000e+00
43300000.0 2.340510000e-01 -1.762566000e+00
44200000.0 2.601630000e-01 -1.775942000e+00
45100000.0 2.843770000e-01 -1.787318000e+00
46000000.0 3.110220000e-01 -1.801244000e+00
46900000.0 3.401180000e-01 -1.811572000e+00
47800000.0 3.677540000e-01 -1.823370000e+00
48700000.0 3.964480000e-01 -1.833659000e+00
49600000.0 4.267560000e-01 -1.845165000e+00
50500000.0 4.580130000e-01 -1.852413000e+00
51400000.0 4.878240000e-01 -1.861318000e+00
52300000.0 5.236740000e-01 -1.866455000e+00
53200000.0 5.550640000e-01 -1.873327000e+00
54100000.0 5.903960000e-01 -1.876386000e+00
55000000.0 6.241250000e-01 -1.883259000e+00
55900000.0 6.618680000e-01 -1.884363000e+00
56800000.0 6.975970000e-01 -1.886489000e+00
57700000.0 7.348320000e-01 -1.885927000e+00
58600000.0 7.734150000e-01 -1.884582000e+00
59500000.0 8.102930000e-01 -1.881415000e+00
60400000.0 8.494100000e-01 -1.876743000e+00
61300000.0 8.863580000e-01 -1.870138000e+00
62200000.0 9.281720000e-01 -1.861274000e+00
63100000.0 9.661880000e-01 -1.851138000e+00
64000000.0 1.005495000e+00 -1.841971000e+00
64900000.0 1.045889000e+00 -1.827392000e+00
65800000.0 1.085386000e+00 -1.811341000e+00
66700000.0 1.123164000e+00 -1.795444000e+00
67600000.0 1.159226000e+00 -1.777726000e+00
68500000.0 1.197153000e+00 -1.756757000e+00
69400000.0 1.232770000e+00 -1.734041000e+00
70300000.0 1.269318000e+00 -1.709999000e+00
71200000.0 1.303473000e+00 -1.684240000e+00
72100000.0 1.335613000e+00 -1.657718000e+00
73000000.0 1.367525000e+00 -1.628695000e+00
73900000.0 1.399896000e+00 -1.598190000e+00
74800000.0 1.426649000e+00 -1.567982000e+00
75700000.0 1.454802000e+00 -1.536099000e+00
76600000.0 1.479188000e+00 -1.500525000e+00
77500000.0 1.504161000e+00 -1.467446000e+00
78400000.0 1.527910000e+00 -1.431823000e+00
79300000.0 1.548675000e+00 -1.393893000e+00
80200000.0 1.567507000e+00 -1.358907000e+00
81100000.0 1.584530000e+00 -1.321260000e+00
82000000.0 1.599297000e+00 -1.284600000e+00
82900000.0 1.612761000e+00 -1.247168000e+00
83800000.0 1.624671000e+00 -1.212147000e+00
84700000.0 1.635207000e+00 -1.174017000e+00
85600000.0 1.643782000e+00 -1.134989000e+00
86500000.0 1.651060000e+00 -1.098985000e+00
87400000.0 1.656405000e+00 -1.063229000e+00
88300000.0 1.661110000e+00 -1.026493000e+00
89200000.0 1.661746000e+00 -9.898270000e-01
90100000.0 1.663934000e+00 -9.565360000e-01
91000000.0 1.664495000e+00 -9.224800000e-01
91900000.0 1.662705000e+00 -8.878770000e-01
92800000.0 1.660907000e+00 -8.554190000e-01
93700000.0 1.655589000e+00 -8.222750000e-01
94600000.0 1.653377000e+00 -7.917330000e-01
95500000.0 1.648687000e+00 -7.612990000e-01
96400000.0 1.640259000e+00 -7.316040000e-01
97300000.0 1.633878000e+00 -7.026600000e-01
98200000.0 1.626678000e+00 -6.736290000e-01
99100000.0 1.618602000e+00 -6.464470000e-01
100000000.0 1.609851000e+00 -6.215510000e-01
109000000.0 1.503263000e+00 -3.988140000e-01
118000000.0 1.377325000e+00 -2.438150000e-01
127000000.0 1.258656000e+00 -1.393450000e-01
136000000.0 1.147882000e+00 -6.925100000e-02
145000000.0 1.049722000e+00 -1.957700000e-02
154000000.0 1.000747000e+00 1.346000000e-03
163000000.0 1.001593000e+00 -9.590000000e-04
172000000.0 1.002815000e+00 -5.950000000e-04
181000000.0 1.003768000e+00 -4.020000000e-04
190000000.0 1.004665000e+00 -9.890000000e-04
199000000.0 1.005679000e+00 -1.802000000e-03
208000000.0 1.005038000e+00 -2.163000000e-03
217000000.0 1.005551000e+00 -2.312000000e-03
226000000.0 1.005672000e+00 -1.540000000e-03
235000000.0 1.007383000e+00 -8.370000000e-04
244000000.0 1.006590000e+00 -8.380000000e-04
253000000.0 1.005210000e+00 -1.803000000e-03
262000000.0 1.004786000e+00 -7.660000000e-04
271000000.0 1.005007000e+00 -9.810000000e-04
280000000.0 1.004141000e+00 -8.000000000e-05
289000000.0 1.004051000e+00 8.200000000e-04
298000000.0 1.002304000e+00 -3.360000000e-04
307000000.0 1.001164000e+00 1.305000000e-03
316000000.0 1.003962000e+00 3.210000000e-04
325000000.0 1.005093000e+00 1.410000000e-03
334000000.0 1.005023000e+00 9.290000000e-04
343000000.0 1.004477000e+00 5.480000000e-04
352000000.0 1.005583000e+00 9.830000000e-04
361000000.0 1.004923000e+00 1.060000000e-04
370000000.0 1.006995000e+00 -2.390000000e-04
379000000.0 1.013779000e+00 3.769600000e-02
388000000.0 9.891610000e-01 -7.069400000e-02
397000000.0 9.978240000e-01 -3.445600000e-02
406000000.0 9.888900000e-01 -6.949000000e-02
415000000.0 9.973730000e-01 -3.491800000e-02
424000000.0 9.947820000e-01 -3.333600000e-02
433000000.0 1.003456000e+00 7.260000000e-04
442000000.0 9.989810000e-01 1.240000000e-03
451000000.0 9.980610000e-01 6.500000000e-04
460000000.0 1.002077000e+00 1.950000000e-03
469000000.0 1.002873000e+00 3.064000000e-03
478000000.0 1.003648000e+00 7.670000000e-04
487000000.0 1.005236000e+00 6.641000000e-03
496000000.0 1.007633000e+00 3.563000000e-03
505000000.0 1.008534000e+00 5.355000000e-03
514000000.0 1.008516000e+00 4.754000000e-03
523000000.0 1.007311000e+00 7.623000000e-03
532000000.0 1.008101000e+00 7.578000000e-03
541000000.0 1.010162000e+00 6.035000000e-03
550000000.0 1.007983000e+00 9.551000000e-03
559000000.0 1.007789000e+00 1.009900000e-02
568000000.0 1.006854000e+00 7.900000000e-03
577000000.0 1.006338000e+00 5.417000000e-03
586000000.0 1.003917000e+00 8.976000000e-03
595000000.0 1.005788000e+00 6.639000000e-03
604000000.0 1.004095000e+00 6.582000000e-03
613000000.0 1.008431000e+00 6.390000000e-03
622000000.0 1.008442000e+00 9.341000000e-03
631000000.0 1.015205000e+00 7.032000000e-03
640000000.0 1.011708000e+00 4.146000000e-03
649000000.0 1.012086000e+00 8.704000000e-03
658000000.0 1.018173000e+00 5.760000000e-03
667000000.0 1.017278000e+00 7.668000000e-03
676000000.0 1.014604000e+00 9.779000000e-03
685000000.0 1.018765000e+00 1.176200000e-02
694000000.0 1.014447000e+00 -1.057100000e-02
703000000.0 1.014177000e+00 3.822000000e-03
712000000.0 1.012136000e+00 2.618900000e-02
721000000.0 1.007623000e+00 4.447000000e-03
730000000.0 1.005630000e+00 -1.512000000e-02
739000000.0 1.004211000e+00 2.476000000e-03
748000000.0 1.002823000e+00 1.901300000e-02
757000000.0 1.005011000e+00 -9.750000000e-04
766000000.0 1.005687000e+00 -2.036000000e-02
775000000.0 1.011845000e+00 -1.614000000e-03
784000000.0 1.010226000e+00 -5.171000000e-03
793000000.0 1.013491000e+00 -3.961000000e-03
802000000.0 1.017081000e+00 -6.435000000e-03
811000000.0 1.017922000e+00 -8.140000000e-03
820000000.0 1.017796000e+00 -5.625000000e-03
829000000.0 1.015418000e+00 -9.572000000e-03
838000000.0 1.018453000e+00 -9.286000000e-03
847000000.0 1.017229000e+00 -7.644000000e-03
856000000.0 1.016618000e+00 -3.842000000e-03
865000000.0 1.013155000e+00 -1.348000000e-03
874000000.0 1.007295000e+00 -2.925000000e-03
883000000.0 1.004835000e+00 -2.837000000e-03
892000000.0 1.005350000e+00 2.025000000e-03
901000000.0 1.001970000e+00 1.688000000e-03
910000000.0 1.000792000e+00 5.571000000e-03
919000000.0 1.001478000e+00 -3.000000000e-04
928000000.0 1.003422000e+00 -5.958000000e-03
937000000.0 1.003183000e+00 -8.626000000e-03
946000000.0 1.003340000e+00 -7.307000000e-03
955000000.0 1.004512000e+00 -1.066800000e-02
964000000.0 1.006380000e+00 -5.009000000e-03
973000000.0 1.004590000e+00 -1.030900000e-02
982000000.0 1.004534000e+00 -3.896000000e-03
991000000.0 1.004220000e+00 -9.764000000e-03
1000000000.0 1.002002000e+00 -7.400000000e-03
1004500000.0 1.006499000e+00 -6.700000000e-03
1009000000.0 1.005601000e+00 -2.254000000e-03
1013500000.0 1.004152000e+00 -8.831000000e-03
1018000000.0 1.003825000e+00 -3.250000000e-03
1022500000.0 1.005653000e+00 -8.340000000e-03
1027000000.0 1.004452000e+00 -5.429000000e-03
1031500000.0 1.002661000e+00 2.210000000e-04
1036000000.0 1.002821000e+00 3.296000000e-03
1040500000.0 9.994090000e-01 -2.000000000e-03
1045000000.0 1.000516000e+00 -1.911400000e-02
1049500000.0 1.001901000e+00 1.837000000e-03
1054000000.0 1.001543000e+00 1.470900000e-02
1058500000.0 9.988910000e-01 -9.980000000e-04
1063000000.0 9.990320000e-01 -1.501200000e-02
1067500000.0 9.996890000e-01 -6.132000000e-03
1072000000.0 1.002586000e+00 1.773900000e-02
1076500000.0 1.001695000e+00 -2.757000000e-03
1081000000.0 1.003090000e+00 -8.970000000e-04
1085500000.0 1.003195000e+00 -1.219000000e-03
1090000000.0 1.004262000e+00 4.344000000e-03
1094500000.0 1.003751000e+00 -5.558000000e-03
1099000000.0 1.004354000e+00 -5.422000000e-03
1103500000.0 1.000382000e+00 -3.289000000e-03
1108000000.0 1.001681000e+00 5.432000000e-03
1112500000.0 1.002250000e+00 -3.910000000e-03
1117000000.0 1.000598000e+00 -2.780000000e-03
1121500000.0 1.005325000e+00 -7.137000000e-03
1126000000.0 1.003959000e+00 -2.710000000e-03
1130500000.0 1.002881000e+00 -5.461000000e-03
1135000000.0 1.001049000e+00 -1.884000000e-03
1139500000.0 1.020951000e+00 4.353500000e-02
1144000000.0 1.007698000e+00 -9.982000000e-03
1148500000.0 1.007674000e+00 -1.320000000e-04
1153000000.0 1.006488000e+00 -2.244000000e-03
1157500000.0 1.011092000e+00 3.335200000e-02
1162000000.0 1.007087000e+00 -6.740000000e-03
1166500000.0 1.003387000e+00 -4.241000000e-03
1171000000.0 1.002279000e+00 -5.641000000e-03
1175500000.0 1.003099000e+00 -8.036000000e-03
1180000000.0 1.005923000e+00 -6.814000000e-03
1184500000.0 1.007419000e+00 -4.938000000e-03
1189000000.0 1.010590000e+00 -4.557000000e-03
1193500000.0 1.003274000e+00 -3.708000000e-03
1198000000.0 1.003375000e+00 -7.589000000e-03
1202500000.0 1.008762000e+00 -1.561000000e-03
1207000000.0 1.000368000e+00 4.910000000e-04
1211500000.0 1.001404000e+00 -3.471000000e-03
1216000000.0 1.005784000e+00 -2.866000000e-03
1220500000.0 1.009007000e+00 -6.392000000e-03
1225000000.0 9.983580000e-01 -6.905000000e-03
1229500000.0 1.005977000e+00 -2.842000000e-03
1234000000.0 1.002263000e+00 2.020000000e-04
1238500000.0 1.008034000e+00 6.114000000e-03
1243000000.0 1.000042000e+00 -1.330000000e-04
1247500000.0 1.002483000e+00 -2.856000000e-03
1252000000.0 1.004229000e+00 -3.481000000e-03
1256500000.0 1.000903000e+00 -5.763000000e-03
1261000000.0 9.978760000e-01 4.490000000e-04
1265500000.0 1.004500000e+00 1.800000000e-04
1270000000.0 1.004569000e+00 -1.674000000e-03
1274500000.0 9.975130000e-01 5.128000000e-03
1279000000.0 1.007573000e+00 4.580000000e-04
1283500000.0 1.005826000e+00 1.812000000e-03
1288000000.0 1.009167000e+00 -8.000000000e-05
1292500000.0 1.000849000e+00 -3.769000000e-03
1297000000.0 1.009512000e+00 3.221000000e-03
1301500000.0 1.001044000e+00 -3.156000000e-03
1306000000.0 1.002682000e+00 -7.870000000e-04
1310500000.0 1.010353000e+00 1.992000000e-03
1315000000.0 1.008004000e+00 1.831000000e-03
1319500000.0 1.008528000e+00 -1.150000000e-03
1324000000.0 1.002825000e+00 -2.800000000e-04
1328500000.0 9.978110000e-01 3.996000000e-03
1333000000.0 9.985810000e-01 -3.086000000e-03
1337500000.0 1.006078000e+00 1.532700000e-02
1342000000.0 1.003361000e+00 -1.940000000e-04
1346500000.0 1.004447000e+00 -7.733000000e-03
1351000000.0 1.007548000e+00 1.417000000e-03
1355500000.0 1.007388000e+00 1.523100000e-02
1360000000.0 1.003819000e+00 3.621000000e-03
1364500000.0 1.005821000e+00 7.141000000e-03
1369000000.0 1.001782000e+00 1.126900000e-02
1373500000.0 1.002368000e+00 1.696000000e-03
1378000000.0 1.003263000e+00 1.606100000e-02
1382500000.0 1.002689000e+00 1.045500000e-02
1387000000.0 1.002453000e+00 6.769000000e-03
1391500000.0 1.001680000e+00 1.202600000e-02
1396000000.0 1.002570000e+00 1.224300000e-02
1400500000.0 9.970060000e-01 9.151000000e-03
1405000000.0 1.005335000e+00 7.113000000e-03
1409500000.0 1.002252000e+00 2.402500000e-02
1414000000.0 1.007412000e+00 1.478900000e-02
1418500000.0 1.004161000e+00 1.227400000e-02
1423000000.0 1.004509000e+00 1.395400000e-02
1427500000.0 1.008830000e+00 1.152700000e-02
1432000000.0 1.004541000e+00 1.380600000e-02
1436500000.0 9.992700000e-01 1.408800000e-02
1441000000.0 1.001475000e+00 1.724100000e-02
1445500000.0 1.006611000e+00 1.461200000e-02
1450000000.0 1.001728000e+00 7.651000000e-03
