! piloto_saltos / abierto_continuo / r11
# HZ S RI R 50
50000.0 1.006656000e+00 -7.090200000e-02
59500.0 1.003543000e+00 -5.681000000e-02
69000.0 1.004033000e+00 -4.280400000e-02
78500.0 1.002541000e+00 -2.936700000e-02
88000.0 1.000626000e+00 -1.691200000e-02
97500.0 1.000494000e+00 -4.136000000e-03
107000.0 1.000102000e+00 7.237000000e-03
116500.0 1.000174000e+00 1.972500000e-02
126000.0 9.979410000e-01 3.470500000e-02
135500.0 1.000102000e+00 4.506300000e-02
145000.0 1.001550000e+00 5.775300000e-02
154500.0 1.001284000e+00 6.992100000e-02
164000.0 1.002601000e+00 8.163900000e-02
173500.0 1.002687000e+00 9.304600000e-02
183000.0 1.002286000e+00 1.046230000e-01
192500.0 1.003108000e+00 1.163800000e-01
202000.0 1.003030000e+00 1.282780000e-01
211500.0 1.003066000e+00 1.400950000e-01
221000.0 1.004060000e+00 1.515060000e-01
230500.0 1.004040000e+00 1.627230000e-01
240000.0 1.003564000e+00 1.745210000e-01
249500.0 9.819680000e-01 1.182570000e-01
259000.0 1.004986000e+00 1.965820000e-01
268500.0 1.006300000e+00 2.080420000e-01
278000.0 1.005996000e+00 2.191090000e-01
287500.0 1.005291000e+00 2.298830000e-01
297000.0 1.005314000e+00 2.411500000e-01
306500.0 1.006972000e+00 2.522610000e-01
316000.0 1.006985000e+00 2.626950000e-01
325500.0 1.006906000e+00 2.736420000e-01
335000.0 1.007165000e+00 2.848080000e-01
344500.0 1.007345000e+00 2.959510000e-01
354000.0 1.007311000e+00 3.061460000e-01
363500.0 1.007602000e+00 3.169960000e-01
373000.0 1.007935000e+00 3.270960000e-01
382500.0 1.008692000e+00 3.371160000e-01
392000.0 1.007809000e+00 3.481590000e-01
401500.0 1.008804000e+00 3.589870000e-01
411000.0 1.008832000e+00 3.689430000e-01
420500.0 1.008852000e+00 3.791790000e-01
430000.0 1.009010000e+00 3.895940000e-01
439500.0 1.014353000e+00 3.808540000e-01
449000.0 1.010193000e+00 4.101610000e-01
458500.0 1.015380000e+00 4.021940000e-01
468000.0 1.005382000e+00 4.485600000e-01
477500.0 1.016569000e+00 4.214860000e-01
487000.0 1.004391000e+00 4.700350000e-01
496500.0 1.017022000e+00 4.411690000e-01
506000.0 1.005262000e+00 4.894790000e-01
515500.0 1.012026000e+00 4.811620000e-01
525000.0 1.013085000e+00 4.909810000e-01
534500.0 1.012960000e+00 5.000040000e-01
544000.0 1.014041000e+00 5.098350000e-01
553500.0 1.013852000e+00 5.203350000e-01
563000.0 1.013751000e+00 5.300010000e-01
572500.0 1.014437000e+00 5.401400000e-01
582000.0 1.015283000e+00 5.498000000e-01
591500.0 1.016695000e+00 5.596080000e-01
601000.0 1.017110000e+00 5.690500000e-01
610500.0 1.016606000e+00 5.791760000e-01
620000.0 1.017806000e+00 5.889110000e-01
629500.0 1.018964000e+00 5.963410000e-01
639000.0 1.018292000e+00 6.077070000e-01
648500.0 1.019268000e+00 6.171650000e-01
658000.0 1.020424000e+00 6.269550000e-01
667500.0 1.020752000e+00 6.360860000e-01
677000.0 1.020802000e+00 6.451240000e-01
686500.0 1.022457000e+00 6.557370000e-01
696000.0 1.023816000e+00 6.644610000e-01
705500.0 1.023873000e+00 6.740560000e-01
715000.0 1.025351000e+00 6.834550000e-01
724500.0 1.027137000e+00 6.943420000e-01
734000.0 1.027043000e+00 7.024210000e-01
743500.0 1.027550000e+00 7.114130000e-01
753000.0 1.028731000e+00 7.210530000e-01
762500.0 1.029517000e+00 7.302340000e-01
772000.0 1.031688000e+00 7.402860000e-01
781500.0 1.032535000e+00 7.494330000e-01
791000.0 1.034248000e+00 7.581000000e-01
800500.0 1.033926000e+00 7.690280000e-01
810000.0 1.036640000e+00 7.767090000e-01
819500.0 1.037904000e+00 7.846140000e-01
829000.0 1.040647000e+00 7.961760000e-01
838500.0 1.040894000e+00 8.047910000e-01
848000.0 1.042653000e+00 8.126390000e-01
857500.0 1.045020000e+00 8.219650000e-01
867000.0 1.046064000e+00 8.317370000e-01
876500.0 1.048570000e+00 8.405740000e-01
886000.0 1.051379000e+00 8.495420000e-01
895500.0 1.052764000e+00 8.586410000e-01
905000.0 1.055089000e+00 8.667000000e-01
914500.0 1.057329000e+00 8.755480000e-01
924000.0 1.058134000e+00 8.867570000e-01
933500.0 1.060434000e+00 8.947040000e-01
943000.0 1.063309000e+00 9.031450000e-01
952500.0 1.065582000e+00 9.120570000e-01
962000.0 1.068994000e+00 9.201660000e-01
971500.0 1.071103000e+00 9.299150000e-01
981000.0 1.074418000e+00 9.379720000e-01
990500.0 1.075951000e+00 9.465720000e-01
1000000.0 1.078103000e+00 9.556150000e-01
1090000.0 1.105534000e+00 1.035053000e+00
1180000.0 1.146189000e+00 1.112040000e+00
1270000.0 1.196078000e+00 1.181352000e+00
1360000.0 1.254264000e+00 1.242057000e+00
1450000.0 1.323686000e+00 1.295837000e+00
1540000.0 1.401987000e+00 1.331317000e+00
1630000.0 1.490965000e+00 1.353649000e+00
1720000.0 1.581243000e+00 1.355351000e+00
1810000.0 1.669133000e+00 1.337565000e+00
1900000.0 1.755224000e+00 1.296552000e+00
1990000.0 1.831044000e+00 1.238953000e+00
2080000.0 1.889347000e+00 1.168335000e+00
2170000.0 1.936800000e+00 1.080995000e+00
2260000.0 1.959051000e+00 9.912030000e-01
2350000.0 1.967849000e+00 9.010070000e-01
2440000.0 1.960482000e+00 8.148890000e-01
2530000.0 1.943436000e+00 7.343820000e-01
2620000.0 1.914710000e+00 6.615950000e-01
2710000.0 1.880982000e+00 5.978190000e-01
2800000.0 1.844043000e+00 5.401870000e-01
2890000.0 1.805864000e+00 4.911610000e-01
2980000.0 1.764899000e+00 4.474860000e-01
3070000.0 1.725617000e+00 4.103540000e-01
3160000.0 1.691567000e+00 3.769360000e-01
3250000.0 1.655667000e+00 3.449680000e-01
3340000.0 1.618003000e+00 3.187680000e-01
3430000.0 1.589127000e+00 2.936430000e-01
3520000.0 1.558358000e+00 2.719950000e-01
3610000.0 1.531028000e+00 2.513270000e-01
3700000.0 1.502281000e+00 2.320740000e-01
3790000.0 1.478605000e+00 2.153010000e-01
3880000.0 1.454683000e+00 1.968140000e-01
3970000.0 1.434595000e+00 1.807750000e-01
4060000.0 1.413795000e+00 1.648280000e-01
4150000.0 1.396631000e+00 1.497040000e-01
4240000.0 1.380292000e+00 1.367950000e-01
4330000.0 1.364628000e+00 1.221440000e-01
4420000.0 1.349871000e+00 1.089270000e-01
4510000.0 1.339035000e+00 9.396000000e-02
4600000.0 1.326900000e+00 8.153700000e-02
4690000.0 1.315945000e+00 6.875400000e-02
4780000.0 1.306584000e+00 5.564700000e-02
4870000.0 1.299800000e+00 4.240400000e-02
4960000.0 1.291286000e+00 2.971700000e-02
5050000.0 1.276003000e+00 1.637600000e-02
5140000.0 1.272863000e+00 5.072000000e-03
5230000.0 1.267006000e+00 -7.684000000e-03
5320000.0 1.263300000e+00 -1.967600000e-02
5410000.0 1.258805000e+00 -3.028600000e-02
5500000.0 1.255330000e+00 -4.330900000e-02
5590000.0 1.251393000e+00 -5.449500000e-02
5680000.0 1.248906000e+00 -6.528000000e-02
5770000.0 1.245206000e+00 -7.640000000e-02
5860000.0 1.241989000e+00 -8.753200000e-02
5950000.0 1.238835000e+00 -9.813100000e-02
6040000.0 1.237403000e+00 -1.065980000e-01
6130000.0 1.234640000e+00 -1.182150000e-01
6220000.0 1.232206000e+00 -1.270070000e-01
6310000.0 1.230642000e+00 -1.358330000e-01
6400000.0 1.228086000e+00 -1.439800000e-01
6490000.0 1.226433000e+00 -1.521130000e-01
6580000.0 1.225084000e+00 -1.586140000e-01
6670000.0 1.224895000e+00 -1.661820000e-01
6760000.0 1.226237000e+00 -1.522880000e-01
6850000.0 1.222125000e+00 -1.771350000e-01
6940000.0 1.220665000e+00 -1.821670000e-01
7030000.0 1.219972000e+00 -1.846470000e-01
7120000.0 1.220350000e+00 -1.893030000e-01
7210000.0 1.219666000e+00 -1.919180000e-01
7300000.0 1.219161000e+00 -1.925680000e-01
7390000.0 1.218994000e+00 -1.940780000e-01
7480000.0 1.219271000e+00 -1.945640000e-01
7570000.0 -2.440620000e-01 -1.258746000e+00
7660000.0 -2.415140000e-01 -1.258051000e+00
7750000.0 -2.420950000e-01 -1.259648000e+00
7840000.0 -2.400150000e-01 -1.261057000e+00
7930000.0 -2.410650000e-01 -1.261119000e+00
8020000.0 -2.391950000e-01 -1.260447000e+00
8110000.0 -2.389270000e-01 -1.261668000e+00
8200000.0 -2.383210000e-01 -1.262960000e+00
8290000.0 -2.372450000e-01 -1.262559000e+00
8380000.0 -2.370550000e-01 -1.262536000e+00
8470000.0 -2.362680000e-01 -1.263665000e+00
8560000.0 -2.364770000e-01 -1.263515000e+00
8650000.0 -2.343390000e-01 -1.265223000e+00
8740000.0 -2.331200000e-01 -1.264754000e+00
8830000.0 -2.323830000e-01 -1.266513000e+00
8920000.0 -2.328760000e-01 -1.266343000e+00
9010000.0 -2.310150000e-01 -1.267921000e+00
9100000.0 -2.307390000e-01 -1.267979000e+00
9190000.0 -2.297920000e-01 -1.268687000e+00
9280000.0 -2.301910000e-01 -1.269580000e+00
9370000.0 -2.294390000e-01 -1.270077000e+00
9460000.0 -2.285800000e-01 -1.271048000e+00
9550000.0 -2.278490000e-01 -1.272037000e+00
9640000.0 -2.273290000e-01 -1.272191000e+00
9730000.0 -2.269500000e-01 -1.273425000e+00
9820000.0 -2.265990000e-01 -1.274982000e+00
9910000.0 -2.261780000e-01 -1.275031000e+00
10000000.0 -2.238100000e-01 -1.275464000e+00
10900000.0 -2.187150000e-01 -1.284657000e+00
11800000.0 -2.134240000e-01 -1.294861000e+00
12700000.0 -2.062500000e-01 -1.304455000e+00
13600000.0 -2.004110000e-01 -1.314684000e+00
14500000.0 -1.949390000e-01 -1.325474000e+00
15400000.0 -1.888640000e-01 -1.337401000e+00
16300000.0 -1.827160000e-01 -1.349827000e+00
17200000.0 -1.759150000e-01 -1.359786000e+00
18100000.0 -1.688750000e-01 -1.371276000e+00
19000000.0 -1.606860000e-01 -1.384260000e+00
19900000.0 -1.530180000e-01 -1.396095000e+00
20800000.0 -1.450850000e-01 -1.410398000e+00
21700000.0 -1.365560000e-01 -1.422141000e+00
22600000.0 -1.280000000e-01 -1.435679000e+00
23500000.0 -1.182840000e-01 -1.450090000e+00
24400000.0 -1.086470000e-01 -1.462966000e+00
25300000.0 -9.776000000e-02 -1.476835000e+00
26200000.0 -8.774300000e-02 -1.489175000e+00
27100000.0 -7.638000000e-02 -1.505551000e+00
28000000.0 -6.504500000e-02 -1.520325000e+00
28900000.0 -5.053100000e-02 -1.532187000e+00
29800000.0 -1.601330000e-01 -1.337841000e+00
30700000.0 -2.525900000e-02 -1.561003000e+00
31600000.0 -1.086800000e-02 -1.576831000e+00
32500000.0 2.898000000e-03 -1.590742000e+00
33400000.0 1.782600000e-02 -1.606321000e+00
34300000.0 3.492900000e-02 -1.621366000e+00
35200000.0 5.103900000e-02 -1.635176000e+00
36100000.0 6.924600000e-02 -1.649332000e+00
37000000.0 8.820000000e-02 -1.663275000e+00
37900000.0 1.057260000e-01 -1.679427000e+00
38800000.0 1.258940000e-01 -1.694934000e+00
39700000.0 1.470290000e-01 -1.708560000e+00
40600000.0 1.664150000e-01 -1.723720000e+00
41500000.0 1.891270000e-01 -1.737024000e+00
42400000.0 2.112470000e-01 -1.750548000e+00
43300000.0 2.360040000e-01 -1.763310000e+00
44200000.0 2.591100000e-01 -1.777607000e+00
45100000.0 2.850400000e-01 -1.788887000e+00
46000000.0 3.114630000e-01 -1.800839000e+00
46900000.0 3.400690000e-01 -1.812263000e+00
47800000.0 3.678180000e-01 -1.824656000e+00
48700000.0 3.973040000e-01 -1.832440000e+00
49600000.0 4.265720000e-01 -1.842452000e+00
50500000.0 4.566380000e-01 -1.851533000e+00
51400000.0 4.892770000e-01 -1.858770000e+00
52300000.0 5.229310000e-01 -1.866247000e+00
53200000.0 5.555530000e-01 -1.874111000e+00
54100000.0 5.878230000e-01 -1.878319000e+00
55000000.0 6.239650000e-01 -1.881977000e+00
55900000.0 6.605220000e-01 -1.885540000e+00
56800000.0 6.976110000e-01 -1.886060000e+00
57700000.0 7.338420000e-01 -1.885867000e+00
58600000.0 7.727160000e-01 -1.886318000e+00
59500000.0 8.102390000e-01 -1.882773000e+00
60400000.0 8.483570000e-01 -1.876301000e+00
61300000.0 8.886940000e-01 -1.869992000e+00
62200000.0 9.291120000e-01 -1.863950000e+00
63100000.0 9.656080000e-01 -1.852793000e+00
64000000.0 1.005868000e+00 -1.841170000e+00
64900000.0 1.044857000e+00 -1.828734000e+00
65800000.0 1.084553000e+00 -1.812419000e+00
66700000.0 1.122629000e+00 -1.794621000e+00
67600000.0 1.160102000e+00 -1.776918000e+00
68500000.0 1.198934000e+00 -1.757084000e+00
69400000.0 1.232740000e+00 -1.734235000e+00
70300000.0 1.268158000e+00 -1.710411000e+00
71200000.0 1.304915000e+00 -1.684187000e+00
72100000.0 1.334259000e+00 -1.656754000e+00
73000000.0 1.367491000e+00 -1.629844000e+00
73900000.0 1.399928000e+00 -1.597871000e+00
74800000.0 1.426134000e+00 -1.567735000e+00
75700000.0 1.456494000e+00 -1.534981000e+00
76600000.0 1.480453000e+00 -1.502111000e+00
77500000.0 1.505707000e+00 -1.465602000e+00
78400000.0 1.498795000e+00 -1.461313000e+00
79300000.0 1.549552000e+00 -1.395455000e+00
80200000.0 1.539773000e+00 -1.388470000e+00
81100000.0 1.582574000e+00 -1.322087000e+00
82000000.0 1.575346000e+00 -1.317369000e+00
82900000.0 1.637280000e+00 -1.216747000e+00
83800000.0 1.602816000e+00 -1.241674000e+00
84700000.0 1.657954000e+00 -1.141963000e+00
85600000.0 1.622490000e+00 -1.168035000e+00
86500000.0 1.671188000e+00 -1.066570000e+00
87400000.0 1.656725000e+00 -1.063530000e+00
88300000.0 1.661179000e+00 -1.027657000e+00
89200000.0 1.664688000e+00 -9.915510000e-01
90100000.0 1.663627000e+00 -9.557080000e-01
91000000.0 1.663597000e+00 -9.226450000e-01
91900000.0 1.662629000e+00 -8.887640000e-01
92800000.0 1.659857000e+00 -8.564700000e-01
93700000.0 1.657074000e+00 -8.238410000e-01
94600000.0 1.651287000e+00 -7.919210000e-01
95500000.0 1.647021000e+00 -7.612350000e-01
96400000.0 1.641892000e+00 -7.319480000e-01
97300000.0 1.635852000e+00 -7.024890000e-01
98200000.0 1.627911000e+00 -6.742670000e-01
99100000.0 1.618557000e+00 -6.452260000e-01
100000000.0 1.610261000e+00 -6.201930000e-01
109000000.0 1.501912000e+00 -3.988330000e-01
118000000.0 1.377837000e+00 -2.438260000e-01
127000000.0 1.256819000e+00 -1.368560000e-01
136000000.0 1.147667000e+00 -6.847800000e-02
145000000.0 1.049933000e+00 -1.965900000e-02
154000000.0 1.000316000e+00 6.890000000e-04
163000000.0 1.000821000e+00 -5.200000000e-05
172000000.0 1.002209000e+00 -9.250000000e-04
181000000.0 1.003780000e+00 -1.229000000e-03
190000000.0 1.004323000e+00 -1.904000000e-03
199000000.0 1.004952000e+00 -2.393000000e-03
208000000.0 1.004912000e+00 -1.204000000e-03
217000000.0 1.006497000e+00 -1.061000000e-03
226000000.0 1.006624000e+00 -5.420000000e-04
235000000.0 1.005674000e+00 -1.566000000e-03
244000000.0 1.006388000e+00 -2.534000000e-03
253000000.0 1.006669000e+00 -1.000000000e-06
262000000.0 1.005410000e+00 -7.260000000e-04
271000000.0 1.003770000e+00 -1.231000000e-03
280000000.0 1.003924000e+00 1.670000000e-04
289000000.0 1.003326000e+00 -1.226000000e-03
298000000.0 1.003221000e+00 1.738600000e-02
307000000.0 1.002084000e+00 -4.120000000e-04
316000000.0 1.001484000e+00 -7.320000000e-04
325000000.0 1.004452000e+00 -3.400000000e-05
334000000.0 1.003694000e+00 3.300000000e-04
343000000.0 1.006064000e+00 1.650000000e-04
352000000.0 1.006878000e+00 1.603000000e-03
361000000.0 1.004220000e+00 -1.883900000e-02
370000000.0 1.006882000e+00 -1.399000000e-03
379000000.0 1.013424000e+00 3.405900000e-02
388000000.0 1.006258000e+00 -5.850000000e-04
397000000.0 1.006201000e+00 -9.730000000e-04
406000000.0 1.005489000e+00 2.299000000e-03
415000000.0 1.003721000e+00 1.985000000e-03
424000000.0 1.002914000e+00 1.123000000e-03
433000000.0 1.002915000e+00 -5.740000000e-04
442000000.0 1.000792000e+00 1.818000000e-03
451000000.0 9.986190000e-01 1.085000000e-03
460000000.0 1.000679000e+00 2.576000000e-03
469000000.0 1.002878000e+00 -4.380000000e-04
478000000.0 1.004365000e+00 1.811000000e-03
487000000.0 1.005267000e+00 4.521000000e-03
496000000.0 1.007017000e+00 5.301000000e-03
505000000.0 1.006788000e+00 6.787000000e-03
514000000.0 1.008044000e+00 8.783000000e-03
523000000.0 1.008619000e+00 7.452000000e-03
532000000.0 1.010239000e+00 9.992000000e-03
541000000.0 1.008271000e+00 6.564000000e-03
550000000.0 1.009222000e+00 8.533000000e-03
559000000.0 1.008087000e+00 8.382000000e-03
568000000.0 1.006998000e+00 3.820000000e-03
577000000.0 1.006088000e+00 8.856000000e-03
586000000.0 1.005929000e+00 8.520000000e-03
595000000.0 1.002004000e+00 6.898000000e-03
604000000.0 1.003667000e+00 7.000000000e-03
613000000.0 1.008714000e+00 7.176000000e-03
622000000.0 1.009793000e+00 6.152000000e-03
631000000.0 1.008577000e+00 7.975000000e-03
640000000.0 1.014793000e+00 7.320000000e-03
649000000.0 1.015692000e+00 1.030100000e-02
658000000.0 1.018425000e+00 1.065800000e-02
667000000.0 1.014873000e+00 1.011000000e-02
676000000.0 1.014526000e+00 8.963000000e-03
685000000.0 1.013881000e+00 4.943000000e-03
694000000.0 1.016840000e+00 8.952000000e-03
703000000.0 1.012063000e+00 6.467000000e-03
712000000.0 1.008841000e+00 -2.321000000e-02
721000000.0 1.012328000e+00 4.462000000e-03
730000000.0 1.008293000e+00 4.371000000e-03
739000000.0 1.004221000e+00 2.239000000e-03
748000000.0 1.001974000e+00 4.087000000e-03
757000000.0 1.005265000e+00 -2.517000000e-03
766000000.0 1.007541000e+00 1.173000000e-03
775000000.0 1.012065000e+00 -2.541000000e-03
784000000.0 1.012271000e+00 -4.753000000e-03
793000000.0 1.014746000e+00 -1.427000000e-03
802000000.0 1.017349000e+00 -6.213000000e-03
811000000.0 1.018164000e+00 -3.948000000e-03
820000000.0 1.018418000e+00 -3.584000000e-03
829000000.0 1.019638000e+00 -1.131800000e-02
838000000.0 1.018888000e+00 -6.119000000e-03
847000000.0 1.015699000e+00 -8.364000000e-03
856000000.0 1.013335000e+00 -2.079000000e-03
865000000.0 1.012975000e+00 7.210000000e-04
874000000.0 1.009814000e+00 -1.911000000e-03
883000000.0 1.006014000e+00 -9.430000000e-04
892000000.0 1.001188000e+00 6.120000000e-04
901000000.0 9.976460000e-01 -1.000000000e-06
910000000.0 1.003580000e+00 -1.322000000e-03
919000000.0 1.003594000e+00 -1.628000000e-03
928000000.0 1.002857000e+00 -7.944000000e-03
937000000.0 1.001773000e+00 -2.927000000e-03
946000000.0 1.005477000e+00 -7.398000000e-03
955000000.0 1.004676000e+00 -9.589000000e-03
964000000.0 1.007297000e+00 -9.247000000e-03
973000000.0 1.004362000e+00 -6.965000000e-03
982000000.0 1.005473000e+00 -8.538000000e-03
991000000.0 1.003813000e+00 -9.811000000e-03
1000000000.0 1.003718000e+00 -1.216100000e-02
1004500000.0 1.004196000e+00 -7.488000000e-03
1009000000.0 1.005068000e+00 -8.237000000e-03
1013500000.0 1.004105000e+00 -1.037100000e-02
1018000000.0 1.001318000e+00 -5.157000000e-03
1022500000.0 1.002595000e+00 -4.419000000e-03
1027000000.0 1.002622000e+00 -8.835000000e-03
1031500000.0 1.002147000e+00 -1.515000000e-03
1036000000.0 1.000860000e+00 -1.786000000e-03
1040500000.0 1.000806000e+00 -3.433000000e-03
1045000000.0 1.001442000e+00 -1.286000000e-03
1049500000.0 1.001005000e+00 3.840000000e-03
1054000000.0 9.987280000e-01 4.963000000e-03
1058500000.0 1.002267000e+00 2.400000000e-04
1063000000.0 1.000035000e+00 -4.680000000e-04
1067500000.0 9.994840000e-01 -5.848000000e-03
1072000000.0 1.001211000e+00 2.257000000e-03
1076500000.0 1.000943000e+00 -3.599000000e-03
1081000000.0 9.995550000e-01 -2.210000000e-04
1085500000.0 1.002324000e+00 -1.571000000e-03
1090000000.0 9.997220000e-01 1.166000000e-03
1094500000.0 1.004707000e+00 4.993000000e-03
1099000000.0 1.007006000e+00 -2.838000000e-03
1103500000.0 1.003968000e+00 -1.256000000e-03
1108000000.0 1.003800000e+00 -8.061000000e-03
1112500000.0 1.006371000e+00 3.580000000e-04
1117000000.0 1.002149000e+00 2.082000000e-03
1121500000.0 1.003059000e+00 -3.626000000e-03
1126000000.0 1.005417000e+00 -2.035000000e-03
1130500000.0 1.006621000e+00 8.850000000e-04
1135000000.0 1.000563000e+00 -3.329600000e-02
1139500000.0 1.001729000e+00 -2.347000000e-03
1144000000.0 1.002872000e+00 -6.491000000e-03
1148500000.0 1.010919000e+00 1.042800000e-02
1153000000.0 1.012180000e+00 2.774200000e-02
1157500000.0 1.003019000e+00 -3.397400000e-02
1162000000.0 1.005902000e+00 -2.208000000e-03
1166500000.0 1.005006000e+00 -2.539000000e-03
1171000000.0 1.005713000e+00 1.878000000e-03
1175500000.0 1.004296000e+00 -2.044000000e-03
1180000000.0 1.008780000e+00 1.823000000e-03
1184500000.0 1.002600000e+00 2.410000000e-04
1189000000.0 1.007454000e+00 -9.915000000e-03
1193500000.0 1.006841000e+00 -7.025000000e-03
1198000000.0 1.002884000e+00 -2.905000000e-03
1202500000.0 1.001225000e+00 -1.468000000e-03
1207000000.0 1.007285000e+00 2.277000000e-03
1211500000.0 1.006894000e+00 1.030000000e-03
1216000000.0 9.987270000e-01 8.160000000e-04
1220500000.0 1.006152000e+00 5.500000000e-04
1225000000.0 9.980880000e-01 -2.704000000e-03
1229500000.0 1.007829000e+00 2.188000000e-03
1234000000.0 1.006367000e+00 -1.121900000e-02
1238500000.0 1.002821000e+00 -6.527000000e-03
1243000000.0 1.001143000e+00 -9.802000000e-03
1247500000.0 1.007668000e+00 1.650000000e-03
1252000000.0 1.003316000e+00 -2.976000000e-03
1256500000.0 1.007954000e+00 -3.387000000e-03
1261000000.0 1.008065000e+00 -4.860000000e-04
1265500000.0 1.007476000e+00 -3.701000000e-03
1270000000.0 1.004536000e+00 -4.754000000e-03
1274500000.0 1.009152000e+00 -4.217000000e-03
1279000000.0 1.005738000e+00 4.000000000e-05
1283500000.0 1.006287000e+00 -1.913000000e-03
1288000000.0 1.003732000e+00 3.100000000e-03
1292500000.0 1.001195000e+00 1.741000000e-03
1297000000.0 9.989520000e-01 -3.514000000e-03
1301500000.0 1.007475000e+00 3.814000000e-03
1306000000.0 1.007920000e+00 -4.531000000e-03
1310500000.0 1.001210000e+00 7.290000000e-04
1315000000.0 1.004259000e+00 3.213000000e-03
1319500000.0 1.003554000e+00 4.621000000e-03
1324000000.0 1.008653000e+00 -7.220000000e-03
1328500000.0 1.005156000e+00 5.930000000e-04
1333000000.0 1.003905000e+00 6.290000000e-04
1337500000.0 1.007945000e+00 4.397000000e-03
1342000000.0 1.007896000e+00 4.337000000e-03
1346500000.0 1.003157000e+00 1.307000000e-03
1351000000.0 1.004699000e+00 2.534000000e-03
1355500000.0 9.995280000e-01 2.777000000e-03
1360000000.0 1.008908000e+00 6.283000000e-03
1364500000.0 1.003121000e+00 2.628000000e-03
1369000000.0 1.000690000e+00 8.931000000e-03
1373500000.0 1.003865000e+00 9.661000000e-03
1378000000.0 1.006289000e+00 6.900000000e-03
1382500000.0 1.004061000e+00 1.070900000e-02
1387000000.0 1.002662000e+00 3.169000000e-03
1391500000.0 9.995460000e-01 2.115000000e-03
1396000000.0 1.001907000e+00 7.147000000e-03
1400500000.0 1.003454000e+00 4.693000000e-03
1405000000.0 1.007646000e+00 1.451300000e-02
1409500000.0 9.998970000e-01 1.197900000e-02
1414000000.0 1.005391000e+00 1.573800000e-02
1418500000.0 1.004124000e+00 1.495400000e-02
1423000000.0 1.003963000e+00 1.120000000e-02
1427500000.0 1.007055000e+00 1.499800000e-02
1432000000.0 1.003511000e+00 1.260800000e-02
1436500000.0 1.005606000e+00 8.757000000e-03
1441000000.0 1.000224000e+00 1.273700000e-02
1445500000.0 1.003516000e+00 1.381100000e-02
1450000000.0 1.000923000e+00 8.685000000e-03
