! piloto_saltos / abierto_tramosA / r06
# HZ S RI R 50
50000.0 1.006697000e+00 -6.937600000e-02
59500.0 1.004251000e+00 -5.556200000e-02
69000.0 1.003456000e+00 -4.032900000e-02
78500.0 1.003052000e+00 -2.909800000e-02
88000.0 1.000578000e+00 -1.668500000e-02
97500.0 1.001509000e+00 -4.409000000e-03
107000.0 1.000133000e+00 8.752000000e-03
116500.0 1.000363000e+00 2.148900000e-02
126000.0 9.986380000e-01 3.512300000e-02
135500.0 1.001400000e+00 4.652600000e-02
145000.0 1.001237000e+00 5.837100000e-02
154500.0 1.002526000e+00 6.992300000e-02
164000.0 1.002123000e+00 8.266600000e-02
173500.0 1.002711000e+00 9.328600000e-02
183000.0 1.002960000e+00 1.068420000e-01
192500.0 1.003904000e+00 1.171560000e-01
202000.0 1.003222000e+00 1.299630000e-01
211500.0 1.004336000e+00 1.414120000e-01
221000.0 1.003886000e+00 1.521510000e-01
230500.0 1.004786000e+00 1.637810000e-01
240000.0 1.005259000e+00 1.749190000e-01
249500.0 1.005391000e+00 1.869550000e-01
259000.0 1.005828000e+00 1.984710000e-01
268500.0 1.005477000e+00 2.092000000e-01
278000.0 1.006009000e+00 2.210570000e-01
287500.0 1.006311000e+00 2.322760000e-01
297000.0 1.006160000e+00 2.428330000e-01
306500.0 1.006339000e+00 2.545570000e-01
316000.0 1.006674000e+00 2.650750000e-01
325500.0 1.007767000e+00 2.757240000e-01
335000.0 1.008337000e+00 2.862100000e-01
344500.0 1.007790000e+00 2.965490000e-01
354000.0 1.008225000e+00 3.081720000e-01
363500.0 1.008259000e+00 3.185960000e-01
373000.0 1.008647000e+00 3.298280000e-01
382500.0 1.007985000e+00 3.401300000e-01
392000.0 1.008704000e+00 3.508580000e-01
401500.0 1.010027000e+00 3.609200000e-01
411000.0 1.009636000e+00 3.719700000e-01
420500.0 1.009348000e+00 3.809960000e-01
430000.0 1.010430000e+00 3.920270000e-01
439500.0 1.011151000e+00 4.021530000e-01
449000.0 1.011644000e+00 4.129890000e-01
458500.0 1.010261000e+00 4.231140000e-01
468000.0 1.011027000e+00 4.331400000e-01
477500.0 1.011776000e+00 4.422270000e-01
487000.0 1.012147000e+00 4.534830000e-01
496500.0 1.013369000e+00 4.636040000e-01
506000.0 1.011921000e+00 4.735130000e-01
515500.0 1.013319000e+00 4.838300000e-01
525000.0 1.013585000e+00 4.925830000e-01
534500.0 1.013770000e+00 5.031170000e-01
544000.0 1.014672000e+00 5.135100000e-01
553500.0 1.014654000e+00 5.228260000e-01
563000.0 1.015454000e+00 5.325040000e-01
572500.0 1.015236000e+00 5.428430000e-01
582000.0 1.017163000e+00 5.522200000e-01
591500.0 1.016852000e+00 5.622790000e-01
601000.0 1.017862000e+00 5.725240000e-01
610500.0 1.017932000e+00 5.825800000e-01
620000.0 1.018661000e+00 5.915870000e-01
629500.0 1.018828000e+00 6.022870000e-01
639000.0 1.020769000e+00 6.110970000e-01
648500.0 1.019806000e+00 6.208640000e-01
658000.0 1.021837000e+00 6.306500000e-01
667500.0 1.022063000e+00 6.389780000e-01
677000.0 1.021503000e+00 6.491030000e-01
686500.0 1.024726000e+00 6.591170000e-01
696000.0 1.024877000e+00 6.696540000e-01
705500.0 1.025867000e+00 6.785870000e-01
715000.0 1.026155000e+00 6.865210000e-01
724500.0 1.027103000e+00 6.964720000e-01
734000.0 1.030199000e+00 7.070520000e-01
743500.0 1.029815000e+00 7.156740000e-01
753000.0 1.031629000e+00 7.254040000e-01
762500.0 1.033296000e+00 7.354520000e-01
772000.0 1.034019000e+00 7.451940000e-01
781500.0 1.034968000e+00 7.540320000e-01
791000.0 1.034881000e+00 7.639350000e-01
800500.0 1.037730000e+00 7.728270000e-01
810000.0 1.039620000e+00 7.822140000e-01
819500.0 1.040758000e+00 7.901320000e-01
829000.0 1.042241000e+00 7.986950000e-01
838500.0 1.044494000e+00 8.094270000e-01
848000.0 1.045638000e+00 8.181420000e-01
857500.0 1.047013000e+00 8.272970000e-01
867000.0 1.048781000e+00 8.361240000e-01
876500.0 1.050486000e+00 8.448900000e-01
886000.0 1.054399000e+00 8.548770000e-01
895500.0 1.055526000e+00 8.642990000e-01
905000.0 1.055903000e+00 8.719900000e-01
914500.0 1.058232000e+00 8.824370000e-01
924000.0 1.061189000e+00 8.909190000e-01
933500.0 1.064261000e+00 8.990380000e-01
943000.0 1.066946000e+00 9.073550000e-01
952500.0 1.070023000e+00 9.168940000e-01
962000.0 1.070667000e+00 9.254170000e-01
971500.0 1.073697000e+00 9.342930000e-01
981000.0 1.077293000e+00 9.441860000e-01
990500.0 1.078602000e+00 9.526620000e-01
1000000.0 1.082482000e+00 9.607640000e-01
1090000.0 1.110865000e+00 1.041891000e+00
1180000.0 1.151685000e+00 1.117350000e+00
1270000.0 1.204889000e+00 1.186526000e+00
1360000.0 1.263613000e+00 1.248141000e+00
1450000.0 1.333882000e+00 1.300584000e+00
1540000.0 1.416291000e+00 1.333988000e+00
1630000.0 1.503788000e+00 1.353739000e+00
1720000.0 1.593206000e+00 1.354970000e+00
1810000.0 1.683279000e+00 1.334932000e+00
1900000.0 1.769595000e+00 1.289723000e+00
1990000.0 1.844800000e+00 1.228343000e+00
2080000.0 1.901646000e+00 1.154749000e+00
2170000.0 1.942647000e+00 1.069855000e+00
2260000.0 1.963087000e+00 9.814450000e-01
2350000.0 1.968339000e+00 8.871180000e-01
2440000.0 1.959640000e+00 8.031760000e-01
2530000.0 1.938603000e+00 7.256940000e-01
2620000.0 1.911793000e+00 6.513870000e-01
2710000.0 1.875222000e+00 5.904860000e-01
2800000.0 1.837639000e+00 5.329650000e-01
2890000.0 1.799900000e+00 4.821340000e-01
2980000.0 1.761485000e+00 4.412210000e-01
3070000.0 1.721594000e+00 4.062590000e-01
3160000.0 1.683906000e+00 3.705090000e-01
3250000.0 1.649421000e+00 3.438360000e-01
3340000.0 1.614822000e+00 3.156790000e-01
3430000.0 1.584341000e+00 2.931740000e-01
3520000.0 1.553793000e+00 2.706700000e-01
3610000.0 1.526395000e+00 2.510240000e-01
3700000.0 1.499128000e+00 2.321480000e-01
3790000.0 1.474596000e+00 2.151030000e-01
3880000.0 1.452271000e+00 1.975010000e-01
3970000.0 1.429498000e+00 1.805030000e-01
4060000.0 1.411932000e+00 1.670290000e-01
4150000.0 1.394603000e+00 1.521470000e-01
4240000.0 1.377050000e+00 1.371160000e-01
4330000.0 1.360987000e+00 1.230150000e-01
4420000.0 1.349611000e+00 1.081210000e-01
4510000.0 1.337680000e+00 9.530900000e-02
4600000.0 1.324193000e+00 8.222200000e-02
4690000.0 1.315067000e+00 6.868900000e-02
4780000.0 1.305933000e+00 5.630000000e-02
4870000.0 1.296710000e+00 4.371800000e-02
4960000.0 1.290462000e+00 3.171900000e-02
5050000.0 1.276279000e+00 1.719200000e-02
5140000.0 1.271261000e+00 5.706000000e-03
5230000.0 1.266058000e+00 -6.067000000e-03
5320000.0 1.261676000e+00 -1.755400000e-02
5410000.0 1.258456000e+00 -3.165600000e-02
5500000.0 1.254067000e+00 -4.227200000e-02
5590000.0 1.250957000e+00 -5.370100000e-02
5680000.0 1.248837000e+00 -6.410600000e-02
5770000.0 1.243688000e+00 -7.643400000e-02
5860000.0 1.242318000e+00 -8.692500000e-02
5950000.0 1.238482000e+00 -9.708200000e-02
6040000.0 1.236754000e+00 -1.066680000e-01
6130000.0 1.234638000e+00 -1.172970000e-01
6220000.0 1.231564000e+00 -1.265480000e-01
6310000.0 1.229301000e+00 -1.353580000e-01
6400000.0 1.227924000e+00 -1.425930000e-01
6490000.0 1.226879000e+00 -1.526770000e-01
6580000.0 1.225354000e+00 -1.579010000e-01
6670000.0 1.223321000e+00 -1.654020000e-01
6760000.0 1.223344000e+00 -1.720640000e-01
6850000.0 1.221694000e+00 -1.768700000e-01
6940000.0 1.220794000e+00 -1.821820000e-01
7030000.0 1.219702000e+00 -1.848930000e-01
7120000.0 1.219753000e+00 -1.900730000e-01
7210000.0 1.220444000e+00 -1.905030000e-01
7300000.0 1.218866000e+00 -1.926460000e-01
7390000.0 1.218587000e+00 -1.935130000e-01
7480000.0 1.219563000e+00 -1.939020000e-01
7570000.0 -2.437550000e-01 -1.258225000e+00
7660000.0 -2.415220000e-01 -1.259720000e+00
7750000.0 -2.397810000e-01 -1.259999000e+00
7840000.0 -2.408920000e-01 -1.259687000e+00
7930000.0 -2.403720000e-01 -1.260023000e+00
8020000.0 -2.386050000e-01 -1.260940000e+00
8110000.0 -2.369200000e-01 -1.260657000e+00
8200000.0 -2.383300000e-01 -1.261028000e+00
8290000.0 -2.359890000e-01 -1.262507000e+00
8380000.0 -2.366420000e-01 -1.262584000e+00
8470000.0 -2.358710000e-01 -1.263542000e+00
8560000.0 -2.340410000e-01 -1.264814000e+00
8650000.0 -2.347240000e-01 -1.265563000e+00
8740000.0 -2.339680000e-01 -1.264145000e+00
8830000.0 -2.325810000e-01 -1.264572000e+00
8920000.0 -2.316930000e-01 -1.266580000e+00
9010000.0 -2.315060000e-01 -1.266858000e+00
9100000.0 -2.304420000e-01 -1.267794000e+00
9190000.0 -2.302200000e-01 -1.268766000e+00
9280000.0 -2.290750000e-01 -1.269355000e+00
9370000.0 -2.295480000e-01 -1.270184000e+00
9460000.0 -2.274830000e-01 -1.270365000e+00
9550000.0 -2.272130000e-01 -1.271003000e+00
9640000.0 -2.265540000e-01 -1.272372000e+00
9730000.0 -2.257120000e-01 -1.272961000e+00
9820000.0 -2.256370000e-01 -1.272957000e+00
9910000.0 -2.247590000e-01 -1.274446000e+00
10000000.0 -2.246260000e-01 -1.275668000e+00
10900000.0 -2.192790000e-01 -1.283061000e+00
11800000.0 -2.124740000e-01 -1.293020000e+00
12700000.0 -2.058310000e-01 -1.303610000e+00
13600000.0 -2.016900000e-01 -1.313314000e+00
14500000.0 -1.949900000e-01 -1.325658000e+00
15400000.0 -1.881720000e-01 -1.337387000e+00
16300000.0 -1.820790000e-01 -1.349171000e+00
17200000.0 -1.750860000e-01 -1.360507000e+00
18100000.0 -1.684900000e-01 -1.372446000e+00
19000000.0 -1.603820000e-01 -1.383786000e+00
19900000.0 -1.535030000e-01 -1.396689000e+00
20800000.0 -1.442360000e-01 -1.410458000e+00
21700000.0 -1.351970000e-01 -1.423500000e+00
22600000.0 -1.274720000e-01 -1.436674000e+00
23500000.0 -1.167170000e-01 -1.448090000e+00
24400000.0 -1.085700000e-01 -1.462992000e+00
25300000.0 -9.839000000e-02 -1.476546000e+00
26200000.0 -8.753700000e-02 -1.490806000e+00
27100000.0 -7.601500000e-02 -1.503204000e+00
28000000.0 -6.463200000e-02 -1.517191000e+00
28900000.0 -5.320000000e-02 -1.533194000e+00
29800000.0 -3.827000000e-02 -1.546414000e+00
30700000.0 -2.487000000e-02 -1.562648000e+00
31600000.0 -9.817000000e-03 -1.576046000e+00
32500000.0 3.594000000e-03 -1.591478000e+00
33400000.0 1.805500000e-02 -1.605339000e+00
34300000.0 3.480300000e-02 -1.620511000e+00
35200000.0 5.154300000e-02 -1.635158000e+00
36100000.0 7.033600000e-02 -1.650298000e+00
37000000.0 8.680900000e-02 -1.664530000e+00
37900000.0 1.058370000e-01 -1.678756000e+00
38800000.0 1.254160000e-01 -1.693231000e+00
39700000.0 1.455600000e-01 -1.708185000e+00
40600000.0 1.659020000e-01 -1.721445000e+00
41500000.0 1.889130000e-01 -1.736837000e+00
42400000.0 2.118580000e-01 -1.748949000e+00
43300000.0 2.353210000e-01 -1.763100000e+00
44200000.0 2.605730000e-01 -1.775435000e+00
45100000.0 2.853550000e-01 -1.789986000e+00
46000000.0 3.108360000e-01 -1.798560000e+00
46900000.0 3.395030000e-01 -1.811926000e+00
47800000.0 3.669370000e-01 -1.822739000e+00
48700000.0 3.968870000e-01 -1.832977000e+00
49600000.0 4.251290000e-01 -1.843572000e+00
50500000.0 4.562680000e-01 -1.851800000e+00
51400000.0 4.887340000e-01 -1.859929000e+00
52300000.0 5.223630000e-01 -1.866569000e+00
53200000.0 5.546170000e-01 -1.872943000e+00
54100000.0 5.903230000e-01 -1.878313000e+00
55000000.0 6.259180000e-01 -1.880661000e+00
55900000.0 6.634750000e-01 -1.883967000e+00
56800000.0 6.960920000e-01 -1.886383000e+00
57700000.0 7.348000000e-01 -1.886024000e+00
58600000.0 7.718980000e-01 -1.884889000e+00
59500000.0 8.108580000e-01 -1.880165000e+00
60400000.0 8.484000000e-01 -1.876472000e+00
61300000.0 8.887720000e-01 -1.871310000e+00
62200000.0 9.285470000e-01 -1.863349000e+00
63100000.0 9.680080000e-01 -1.851733000e+00
64000000.0 1.004447000e+00 -1.840429000e+00
64900000.0 1.045757000e+00 -1.827500000e+00
65800000.0 1.082786000e+00 -1.812370000e+00
66700000.0 1.123655000e+00 -1.793686000e+00
67600000.0 1.159634000e+00 -1.777973000e+00
68500000.0 1.196409000e+00 -1.753514000e+00
69400000.0 1.269205000e+00 -1.707726000e+00
70300000.0 1.234907000e+00 -1.730488000e+00
71200000.0 1.336523000e+00 -1.658982000e+00
72100000.0 1.303665000e+00 -1.680609000e+00
73000000.0 1.366804000e+00 -1.630107000e+00
73900000.0 1.366464000e+00 -1.624367000e+00
74800000.0 1.456857000e+00 -1.538585000e+00
75700000.0 1.423662000e+00 -1.562021000e+00
76600000.0 1.536429000e+00 -1.442743000e+00
77500000.0 1.503428000e+00 -1.465966000e+00
78400000.0 1.527405000e+00 -1.431401000e+00
79300000.0 1.548261000e+00 -1.396812000e+00
80200000.0 1.565310000e+00 -1.361382000e+00
81100000.0 1.583542000e+00 -1.321874000e+00
82000000.0 1.597593000e+00 -1.283278000e+00
82900000.0 1.612937000e+00 -1.248477000e+00
83800000.0 1.624131000e+00 -1.210282000e+00
84700000.0 1.636680000e+00 -1.174302000e+00
85600000.0 1.642844000e+00 -1.134473000e+00
86500000.0 1.652243000e+00 -1.099869000e+00
87400000.0 1.656444000e+00 -1.064200000e+00
88300000.0 1.660587000e+00 -1.025376000e+00
89200000.0 1.662358000e+00 -9.917340000e-01
90100000.0 1.664632000e+00 -9.567350000e-01
91000000.0 1.664388000e+00 -9.222820000e-01
91900000.0 1.663008000e+00 -8.891930000e-01
92800000.0 1.660763000e+00 -8.561660000e-01
93700000.0 1.656478000e+00 -8.241710000e-01
94600000.0 1.652688000e+00 -7.904330000e-01
95500000.0 1.645284000e+00 -7.614590000e-01
96400000.0 1.640325000e+00 -7.328300000e-01
97300000.0 1.635694000e+00 -7.012780000e-01
98200000.0 1.628758000e+00 -6.746970000e-01
99100000.0 1.618393000e+00 -6.477330000e-01
100000000.0 1.608884000e+00 -6.185240000e-01
109000000.0 1.502907000e+00 -3.987430000e-01
118000000.0 1.377315000e+00 -2.446970000e-01
127000000.0 1.253780000e+00 -1.603810000e-01
136000000.0 1.147465000e+00 -6.875200000e-02
145000000.0 1.049256000e+00 -1.927400000e-02
154000000.0 1.000946000e+00 -8.100000000e-05
163000000.0 1.002073000e+00 -5.270000000e-04
172000000.0 1.003370000e+00 3.000000000e-04
181000000.0 1.004551000e+00 -9.420000000e-04
190000000.0 1.004309000e+00 -1.408000000e-03
199000000.0 1.005081000e+00 -1.119000000e-03
208000000.0 1.005826000e+00 -1.310000000e-03
217000000.0 1.005996000e+00 -9.070000000e-04
226000000.0 1.005763000e+00 -8.790000000e-04
235000000.0 1.006647000e+00 -1.975000000e-03
244000000.0 1.006112000e+00 2.000000000e-05
253000000.0 1.006378000e+00 -8.640000000e-04
262000000.0 1.004962000e+00 -2.057000000e-03
271000000.0 1.004658000e+00 -6.280000000e-04
280000000.0 1.004862000e+00 -1.488000000e-03
289000000.0 1.002493000e+00 -6.050000000e-04
298000000.0 1.001867000e+00 1.920000000e-04
307000000.0 1.001415000e+00 -4.480000000e-04
316000000.0 1.003591000e+00 -1.020000000e-04
325000000.0 1.003976000e+00 9.180000000e-04
334000000.0 1.006205000e+00 1.498000000e-03
343000000.0 1.005721000e+00 4.610000000e-04
352000000.0 1.006962000e+00 4.910000000e-04
361000000.0 1.005813000e+00 1.454000000e-03
370000000.0 1.045874000e+00 4.039700000e-02
379000000.0 1.007379000e+00 1.170000000e-03
388000000.0 1.006255000e+00 9.580000000e-04
397000000.0 1.005356000e+00 1.894000000e-03
406000000.0 9.960070000e-01 -3.540500000e-02
415000000.0 1.002438000e+00 -1.180000000e-03
424000000.0 1.002348000e+00 1.505000000e-03
433000000.0 1.000818000e+00 8.190000000e-04
442000000.0 1.002071000e+00 8.390000000e-04
451000000.0 9.982300000e-01 1.601000000e-03
460000000.0 1.001133000e+00 1.886000000e-03
469000000.0 1.002687000e+00 2.832000000e-03
478000000.0 1.003912000e+00 3.958000000e-03
487000000.0 1.005791000e+00 5.803000000e-03
496000000.0 1.007622000e+00 7.000000000e-03
505000000.0 1.007382000e+00 4.418000000e-03
514000000.0 1.008395000e+00 5.786000000e-03
523000000.0 1.008302000e+00 8.321000000e-03
532000000.0 1.008874000e+00 9.874000000e-03
541000000.0 1.008755000e+00 5.523000000e-03
550000000.0 1.010706000e+00 8.274000000e-03
559000000.0 1.007754000e+00 6.269000000e-03
568000000.0 1.008663000e+00 8.353000000e-03
577000000.0 1.005969000e+00 7.287000000e-03
586000000.0 1.006661000e+00 7.130000000e-03
595000000.0 1.003877000e+00 5.407000000e-03
604000000.0 1.005227000e+00 8.348000000e-03
613000000.0 1.010087000e+00 5.208000000e-03
622000000.0 1.009633000e+00 7.060000000e-03
631000000.0 1.013306000e+00 8.806000000e-03
640000000.0 1.012845000e+00 7.412000000e-03
649000000.0 1.011998000e+00 9.993000000e-03
658000000.0 1.016526000e+00 9.374000000e-03
667000000.0 1.019056000e+00 8.163000000e-03
676000000.0 1.014743000e+00 8.881000000e-03
685000000.0 1.019838000e+00 1.046000000e-02
694000000.0 1.013369000e+00 4.609000000e-03
703000000.0 1.012168000e+00 6.356000000e-03
712000000.0 1.010202000e+00 7.748000000e-03
721000000.0 1.012996000e+00 4.484000000e-03
730000000.0 1.007277000e+00 2.742000000e-03
739000000.0 1.007136000e+00 3.148000000e-03
748000000.0 9.997000000e-01 3.167000000e-03
757000000.0 1.006306000e+00 -8.350000000e-04
766000000.0 1.006763000e+00 -6.817000000e-03
775000000.0 1.009363000e+00 -2.677000000e-03
784000000.0 1.013995000e+00 -6.480000000e-03
793000000.0 1.013439000e+00 -7.194000000e-03
802000000.0 1.014646000e+00 -6.125000000e-03
811000000.0 1.016113000e+00 -4.871000000e-03
820000000.0 1.015970000e+00 -8.648000000e-03
829000000.0 1.019232000e+00 -7.221000000e-03
838000000.0 1.017248000e+00 -5.989000000e-03
847000000.0 1.016202000e+00 -3.586000000e-03
856000000.0 1.013246000e+00 -6.215000000e-03
865000000.0 1.012313000e+00 -1.490000000e-04
874000000.0 1.009270000e+00 -5.691000000e-03
883000000.0 1.008741000e+00 -1.746000000e-03
892000000.0 1.004553000e+00 -2.170000000e-04
901000000.0 1.000746000e+00 1.864000000e-03
910000000.0 1.004118000e+00 -1.760000000e-03
919000000.0 1.002593000e+00 -7.954000000e-03
928000000.0 1.002348000e+00 -3.911000000e-03
937000000.0 1.004662000e+00 -5.296000000e-03
946000000.0 1.006276000e+00 -8.048000000e-03
955000000.0 1.006871000e+00 -1.004500000e-02
964000000.0 1.003554000e+00 -1.006700000e-02
973000000.0 1.007399000e+00 -5.870000000e-03
982000000.0 1.006395000e+00 -1.218500000e-02
991000000.0 1.003602000e+00 -4.666000000e-03
1000000000.0 1.002097000e+00 -7.255000000e-03
1004500000.0 1.003727000e+00 -5.151000000e-03
1009000000.0 1.003946000e+00 -5.409000000e-03
1013500000.0 1.003388000e+00 -8.200000000e-03
1018000000.0 1.002161000e+00 -1.004600000e-02
1022500000.0 1.003472000e+00 -8.790000000e-04
1027000000.0 1.003207000e+00 -6.573000000e-03
1031500000.0 1.003939000e+00 -6.385000000e-03
1036000000.0 1.004199000e+00 -2.900000000e-04
1040500000.0 9.983330000e-01 -3.004000000e-03
1045000000.0 1.000626000e+00 -1.255000000e-03
1049500000.0 1.000662000e+00 1.934000000e-03
1054000000.0 9.970210000e-01 1.822000000e-03
1058500000.0 1.001488000e+00 -1.777000000e-03
1063000000.0 1.000570000e+00 -8.179000000e-03
1067500000.0 1.001410000e+00 -2.460000000e-04
1072000000.0 1.002646000e+00 -4.689000000e-03
1076500000.0 1.000766000e+00 -1.460000000e-03
1081000000.0 1.004043000e+00 1.480000000e-03
1085500000.0 1.004008000e+00 4.160000000e-03
1090000000.0 1.005045000e+00 -4.649000000e-03
1094500000.0 1.000106000e+00 2.486000000e-03
1099000000.0 1.005130000e+00 -3.201000000e-03
1103500000.0 1.003358000e+00 -4.017000000e-03
1108000000.0 1.002755000e+00 -1.719000000e-03
1112500000.0 1.003950000e+00 -7.115000000e-03
1117000000.0 1.005728000e+00 -7.189000000e-03
1121500000.0 1.005356000e+00 1.909000000e-03
1126000000.0 1.003559000e+00 -7.594000000e-03
1130500000.0 1.002013000e+00 -1.436000000e-03
1135000000.0 1.002783000e+00 -4.580000000e-03
1139500000.0 1.002582000e+00 -1.603000000e-03
1144000000.0 1.004461000e+00 -1.029400000e-02
1148500000.0 1.002721000e+00 -4.053000000e-03
1153000000.0 1.005312000e+00 -1.007900000e-02
1157500000.0 1.006551000e+00 -3.345000000e-03
1162000000.0 9.996780000e-01 -7.950000000e-03
1166500000.0 1.006585000e+00 -6.987000000e-03
1171000000.0 1.005803000e+00 -8.967000000e-03
1175500000.0 1.003075000e+00 -2.777000000e-03
1180000000.0 1.007243000e+00 -2.198000000e-03
1184500000.0 1.004482000e+00 2.300000000e-03
1189000000.0 1.001923000e+00 -1.623000000e-03
1193500000.0 9.993600000e-01 2.946000000e-03
1198000000.0 1.004528000e+00 -3.370000000e-03
1202500000.0 1.006753000e+00 5.250000000e-04
1207000000.0 1.002103000e+00 -1.035000000e-03
1211500000.0 1.003370000e+00 -5.917000000e-03
1216000000.0 1.003278000e+00 -2.738000000e-03
1220500000.0 1.009066000e+00 5.767000000e-03
1225000000.0 1.008119000e+00 -8.220000000e-03
1229500000.0 1.013360000e+00 -2.355000000e-03
1234000000.0 1.003397000e+00 -9.100000000e-04
1238500000.0 9.990620000e-01 -3.321000000e-03
1243000000.0 1.005210000e+00 2.642000000e-03
1247500000.0 9.999980000e-01 -4.540000000e-04
1252000000.0 1.005485000e+00 -9.271000000e-03
1256500000.0 1.002744000e+00 -5.740000000e-04
1261000000.0 1.001788000e+00 7.289000000e-03
1265500000.0 1.006185000e+00 -5.612000000e-03
1270000000.0 1.006886000e+00 -1.843000000e-03
1274500000.0 1.002482000e+00 -4.030000000e-04
1279000000.0 1.003464000e+00 3.323000000e-03
1283500000.0 1.007251000e+00 4.408000000e-03
1288000000.0 1.003719000e+00 8.830000000e-03
1292500000.0 9.994920000e-01 1.470000000e-04
1297000000.0 1.001904000e+00 8.747000000e-03
1301500000.0 1.005509000e+00 9.351000000e-03
1306000000.0 1.007830000e+00 6.439000000e-03
1310500000.0 1.004913000e+00 -7.973000000e-03
1315000000.0 9.987090000e-01 2.258000000e-03
1319500000.0 1.000679000e+00 -1.560000000e-04
1324000000.0 1.010836000e+00 4.982000000e-03
1328500000.0 1.004053000e+00 -1.603000000e-03
1333000000.0 1.001367000e+00 7.371000000e-03
1337500000.0 1.002540000e+00 1.324000000e-03
1342000000.0 1.009934000e+00 1.906000000e-03
1346500000.0 1.004500000e+00 7.669000000e-03
1351000000.0 1.001773000e+00 5.568000000e-03
1355500000.0 1.004424000e+00 -4.785000000e-03
1360000000.0 1.005143000e+00 5.808000000e-03
1364500000.0 1.008820000e+00 9.962000000e-03
1369000000.0 1.001442000e+00 1.516000000e-02
1373500000.0 1.010008000e+00 9.200000000e-03
1378000000.0 1.001769000e+00 5.527000000e-03
1382500000.0 1.007130000e+00 1.627000000e-03
1387000000.0 9.995630000e-01 1.394300000e-02
1391500000.0 1.005649000e+00 1.328800000e-02
1396000000.0 1.006851000e+00 4.572000000e-03
1400500000.0 1.000241000e+00 1.023300000e-02
1405000000.0 1.002350000e+00 1.407700000e-02
1409500000.0 1.002268000e+00 1.500000000e-02
1414000000.0 9.992860000e-01 1.271200000e-02
1418500000.0 1.000874000e+00 1.161600000e-02
1423000000.0 1.009263000e+00 -2.599000000e-03
1427500000.0 9.990990000e-01 2.411600000e-02
1432000000.0 1.005585000e+00 1.321500000e-02
1436500000.0 9.998100000e-01 1.347600000e-02
1441000000.0 9.965700000e-01 1.938900000e-02
1445500000.0 9.987500000e-01 1.317600000e-02
1450000000.0 1.004115000e+00 1.215600000e-02
