! piloto_saltos / abierto_tramosA / r05
# HZ S RI R 50
50000.0 1.006939000e+00 -6.966200000e-02
59500.0 1.006681000e+00 -5.591100000e-02
69000.0 1.002789000e+00 -4.002900000e-02
78500.0 1.002712000e+00 -2.861500000e-02
88000.0 1.001198000e+00 -1.692200000e-02
97500.0 1.001157000e+00 -3.308000000e-03
107000.0 1.000490000e+00 8.554000000e-03
116500.0 1.000697000e+00 2.106200000e-02
126000.0 9.999860000e-01 3.212800000e-02
135500.0 1.001186000e+00 4.555300000e-02
145000.0 1.001076000e+00 5.794000000e-02
154500.0 1.001949000e+00 7.062200000e-02
164000.0 1.002200000e+00 8.218000000e-02
173500.0 1.002325000e+00 9.434300000e-02
183000.0 1.002372000e+00 1.057410000e-01
192500.0 1.003008000e+00 1.183270000e-01
202000.0 1.003990000e+00 1.291910000e-01
211500.0 1.004766000e+00 1.405550000e-01
221000.0 1.004491000e+00 1.533440000e-01
230500.0 1.004815000e+00 1.646490000e-01
240000.0 1.005516000e+00 1.758290000e-01
249500.0 1.005438000e+00 1.875840000e-01
259000.0 1.005502000e+00 1.984380000e-01
268500.0 1.006043000e+00 2.087620000e-01
278000.0 1.006153000e+00 2.210110000e-01
287500.0 1.006469000e+00 2.321420000e-01
297000.0 1.005783000e+00 2.431830000e-01
306500.0 1.006108000e+00 2.538690000e-01
316000.0 1.007260000e+00 2.644900000e-01
325500.0 1.007716000e+00 2.751380000e-01
335000.0 1.006849000e+00 2.864180000e-01
344500.0 1.007461000e+00 2.971650000e-01
354000.0 1.008681000e+00 3.076590000e-01
363500.0 1.008094000e+00 3.187340000e-01
373000.0 1.008158000e+00 3.293890000e-01
382500.0 1.007530000e+00 3.393790000e-01
392000.0 1.009332000e+00 3.496650000e-01
401500.0 1.009174000e+00 3.617340000e-01
411000.0 1.009545000e+00 3.707940000e-01
420500.0 1.010512000e+00 3.819630000e-01
430000.0 1.010059000e+00 3.923130000e-01
439500.0 1.011013000e+00 4.024000000e-01
449000.0 1.011060000e+00 4.132300000e-01
458500.0 1.010733000e+00 4.221020000e-01
468000.0 1.010856000e+00 4.328310000e-01
477500.0 1.011951000e+00 4.429620000e-01
487000.0 1.011989000e+00 4.539080000e-01
496500.0 1.011765000e+00 4.629270000e-01
506000.0 1.012325000e+00 4.729130000e-01
515500.0 1.013995000e+00 4.831540000e-01
525000.0 1.013636000e+00 4.938410000e-01
534500.0 1.014127000e+00 5.031190000e-01
544000.0 1.014028000e+00 5.132010000e-01
553500.0 1.015607000e+00 5.239740000e-01
563000.0 1.015899000e+00 5.344670000e-01
572500.0 1.015981000e+00 5.431040000e-01
582000.0 1.016826000e+00 5.521770000e-01
591500.0 1.016128000e+00 5.630130000e-01
601000.0 1.017565000e+00 5.730040000e-01
610500.0 1.017908000e+00 5.833850000e-01
620000.0 1.018714000e+00 5.912690000e-01
629500.0 1.019711000e+00 6.015650000e-01
639000.0 1.020549000e+00 6.112690000e-01
648500.0 1.020712000e+00 6.209310000e-01
658000.0 1.021285000e+00 6.301780000e-01
667500.0 1.022473000e+00 6.393790000e-01
677000.0 1.023049000e+00 6.496630000e-01
686500.0 1.023600000e+00 6.599160000e-01
696000.0 1.025767000e+00 6.683970000e-01
705500.0 1.025497000e+00 6.778870000e-01
715000.0 1.027061000e+00 6.879820000e-01
724500.0 1.028295000e+00 6.965600000e-01
734000.0 1.028495000e+00 7.063940000e-01
743500.0 1.030793000e+00 7.150380000e-01
753000.0 1.030141000e+00 7.248840000e-01
762500.0 1.031694000e+00 7.343320000e-01
772000.0 1.034224000e+00 7.444980000e-01
781500.0 1.034600000e+00 7.526700000e-01
791000.0 1.036482000e+00 7.625030000e-01
800500.0 1.036939000e+00 7.719990000e-01
810000.0 1.039356000e+00 7.821660000e-01
819500.0 1.040693000e+00 7.906890000e-01
829000.0 1.042764000e+00 7.987620000e-01
838500.0 1.043377000e+00 8.086390000e-01
848000.0 1.044532000e+00 8.180880000e-01
857500.0 1.048317000e+00 8.273000000e-01
867000.0 1.050065000e+00 8.364480000e-01
876500.0 1.050875000e+00 8.456890000e-01
886000.0 1.053580000e+00 8.550890000e-01
895500.0 1.056179000e+00 8.636520000e-01
905000.0 1.058654000e+00 8.715300000e-01
914500.0 1.060491000e+00 8.813710000e-01
924000.0 1.063169000e+00 8.911160000e-01
933500.0 1.065112000e+00 8.993870000e-01
943000.0 1.068225000e+00 9.076140000e-01
952500.0 1.068689000e+00 9.176230000e-01
962000.0 1.071002000e+00 9.261920000e-01
971500.0 1.073817000e+00 9.340700000e-01
981000.0 1.076333000e+00 9.417650000e-01
990500.0 1.080933000e+00 9.525500000e-01
1000000.0 1.082529000e+00 9.602180000e-01
1090000.0 1.111890000e+00 1.041397000e+00
1180000.0 1.151807000e+00 1.116855000e+00
1270000.0 1.201427000e+00 1.187528000e+00
1360000.0 1.262633000e+00 1.249286000e+00
1450000.0 1.333579000e+00 1.298740000e+00
1540000.0 1.414103000e+00 1.335225000e+00
1630000.0 1.482856000e+00 1.381851000e+00
1720000.0 1.614527000e+00 1.323699000e+00
1810000.0 1.663204000e+00 1.366055000e+00
1900000.0 1.788955000e+00 1.258206000e+00
1990000.0 1.823352000e+00 1.261975000e+00
2080000.0 1.917598000e+00 1.117147000e+00
2170000.0 1.940609000e+00 1.068301000e+00
2260000.0 1.965348000e+00 9.785200000e-01
2350000.0 1.966765000e+00 8.870190000e-01
2440000.0 1.960900000e+00 8.017700000e-01
2530000.0 1.939829000e+00 7.236880000e-01
2620000.0 1.909010000e+00 6.499300000e-01
2710000.0 1.878165000e+00 5.878810000e-01
2800000.0 1.838510000e+00 5.327760000e-01
2890000.0 1.799278000e+00 4.851260000e-01
2980000.0 1.760834000e+00 4.403330000e-01
3070000.0 1.720991000e+00 4.035730000e-01
3160000.0 1.684829000e+00 3.713840000e-01
3250000.0 1.647760000e+00 3.415450000e-01
3340000.0 1.614578000e+00 3.162560000e-01
3430000.0 1.583093000e+00 2.928960000e-01
3520000.0 1.552953000e+00 2.724700000e-01
3610000.0 1.523937000e+00 2.508150000e-01
3700000.0 1.499830000e+00 2.308280000e-01
3790000.0 1.474265000e+00 2.139330000e-01
3880000.0 1.452582000e+00 1.995030000e-01
3970000.0 1.432741000e+00 1.821460000e-01
4060000.0 1.411805000e+00 1.645130000e-01
4150000.0 1.393165000e+00 1.510050000e-01
4240000.0 1.378979000e+00 1.376100000e-01
4330000.0 1.362629000e+00 1.228040000e-01
4420000.0 1.350170000e+00 1.089910000e-01
4510000.0 1.335181000e+00 9.635600000e-02
4600000.0 1.325395000e+00 8.206800000e-02
4690000.0 1.313687000e+00 6.977600000e-02
4780000.0 1.305664000e+00 5.557800000e-02
4870000.0 1.297433000e+00 4.215400000e-02
4960000.0 1.290164000e+00 3.124100000e-02
5050000.0 1.276770000e+00 1.765700000e-02
5140000.0 1.270283000e+00 5.640000000e-03
5230000.0 1.266170000e+00 -6.639000000e-03
5320000.0 1.261984000e+00 -1.914600000e-02
5410000.0 1.259070000e+00 -3.089700000e-02
5500000.0 1.254336000e+00 -4.159600000e-02
5590000.0 1.251190000e+00 -5.321700000e-02
5680000.0 1.246811000e+00 -6.428900000e-02
5770000.0 1.244132000e+00 -7.519000000e-02
5860000.0 1.241346000e+00 -8.691100000e-02
5950000.0 1.240095000e+00 -9.635800000e-02
6040000.0 1.235507000e+00 -1.067460000e-01
6130000.0 1.234154000e+00 -1.165940000e-01
6220000.0 1.231661000e+00 -1.268430000e-01
6310000.0 1.229745000e+00 -1.351570000e-01
6400000.0 1.227953000e+00 -1.433110000e-01
6490000.0 1.225974000e+00 -1.517630000e-01
6580000.0 1.224927000e+00 -1.583410000e-01
6670000.0 1.223405000e+00 -1.662280000e-01
6760000.0 1.222130000e+00 -1.710250000e-01
6850000.0 1.221493000e+00 -1.761540000e-01
6940000.0 1.219508000e+00 -1.816600000e-01
7030000.0 1.218733000e+00 -1.859610000e-01
7120000.0 1.218584000e+00 -1.894930000e-01
7210000.0 1.218057000e+00 -1.909260000e-01
7300000.0 1.220012000e+00 -1.925250000e-01
7390000.0 1.219111000e+00 -1.942400000e-01
7480000.0 1.217542000e+00 -1.931340000e-01
7570000.0 -2.431440000e-01 -1.258696000e+00
7660000.0 -2.433250000e-01 -1.259659000e+00
7750000.0 -2.407890000e-01 -1.259163000e+00
7840000.0 -2.413980000e-01 -1.259695000e+00
7930000.0 -2.397930000e-01 -1.260299000e+00
8020000.0 -2.387210000e-01 -1.259194000e+00
8110000.0 -2.385940000e-01 -1.260132000e+00
8200000.0 -2.372560000e-01 -1.261508000e+00
8290000.0 -2.370570000e-01 -1.262545000e+00
8380000.0 -2.351220000e-01 -1.263645000e+00
8470000.0 -2.362310000e-01 -1.262953000e+00
8560000.0 -2.341250000e-01 -1.263718000e+00
8650000.0 -2.344610000e-01 -1.264364000e+00
8740000.0 -2.338060000e-01 -1.264269000e+00
8830000.0 -2.341240000e-01 -1.265770000e+00
8920000.0 -2.319060000e-01 -1.265636000e+00
9010000.0 -2.316910000e-01 -1.268244000e+00
9100000.0 -2.311450000e-01 -1.268493000e+00
9190000.0 -2.296420000e-01 -1.269172000e+00
9280000.0 -2.282220000e-01 -1.269608000e+00
9370000.0 -2.301560000e-01 -1.268907000e+00
9460000.0 -2.270900000e-01 -1.271672000e+00
9550000.0 -2.270380000e-01 -1.270118000e+00
9640000.0 -2.263120000e-01 -1.272900000e+00
9730000.0 -2.265990000e-01 -1.272713000e+00
9820000.0 -2.261910000e-01 -1.273878000e+00
9910000.0 -2.244380000e-01 -1.275031000e+00
10000000.0 -2.243550000e-01 -1.274480000e+00
10900000.0 -2.188110000e-01 -1.284298000e+00
11800000.0 -2.125620000e-01 -1.295165000e+00
12700000.0 -2.071690000e-01 -1.304805000e+00
13600000.0 -2.003500000e-01 -1.314050000e+00
14500000.0 -1.958150000e-01 -1.325408000e+00
15400000.0 -1.878980000e-01 -1.336666000e+00
16300000.0 -1.811960000e-01 -1.348920000e+00
17200000.0 -1.766110000e-01 -1.360722000e+00
18100000.0 -1.693530000e-01 -1.372987000e+00
19000000.0 -1.610990000e-01 -1.383949000e+00
19900000.0 -1.527100000e-01 -1.397291000e+00
20800000.0 -1.444250000e-01 -1.409865000e+00
21700000.0 -1.364090000e-01 -1.423574000e+00
22600000.0 -1.282430000e-01 -1.437216000e+00
23500000.0 -1.180260000e-01 -1.448567000e+00
24400000.0 -1.078710000e-01 -1.461928000e+00
25300000.0 -9.750500000e-02 -1.476626000e+00
26200000.0 -8.670700000e-02 -1.489606000e+00
27100000.0 -7.547100000e-02 -1.503413000e+00
28000000.0 -6.475000000e-02 -1.519320000e+00
28900000.0 -5.119300000e-02 -1.532213000e+00
29800000.0 -3.941100000e-02 -1.546556000e+00
30700000.0 -2.327400000e-02 -1.561082000e+00
31600000.0 -1.248600000e-02 -1.576566000e+00
32500000.0 3.637000000e-03 -1.590844000e+00
33400000.0 1.821800000e-02 -1.607942000e+00
34300000.0 3.521200000e-02 -1.621492000e+00
35200000.0 5.071600000e-02 -1.634666000e+00
36100000.0 6.790800000e-02 -1.649866000e+00
37000000.0 8.773900000e-02 -1.662497000e+00
37900000.0 1.052430000e-01 -1.679582000e+00
38800000.0 1.247290000e-01 -1.694853000e+00
39700000.0 1.459340000e-01 -1.708505000e+00
40600000.0 1.672750000e-01 -1.722641000e+00
41500000.0 1.880600000e-01 -1.737502000e+00
42400000.0 2.118830000e-01 -1.749711000e+00
43300000.0 2.336130000e-01 -1.762219000e+00
44200000.0 2.619330000e-01 -1.775497000e+00
45100000.0 2.871420000e-01 -1.786824000e+00
46000000.0 3.141240000e-01 -1.801434000e+00
46900000.0 3.385340000e-01 -1.812721000e+00
47800000.0 3.663380000e-01 -1.822986000e+00
48700000.0 3.956660000e-01 -1.835000000e+00
49600000.0 4.269920000e-01 -1.845055000e+00
50500000.0 4.576930000e-01 -1.850652000e+00
51400000.0 4.878940000e-01 -1.859258000e+00
52300000.0 5.239300000e-01 -1.865909000e+00
53200000.0 5.573040000e-01 -1.872273000e+00
54100000.0 5.891680000e-01 -1.878173000e+00
55000000.0 6.253340000e-01 -1.882949000e+00
55900000.0 6.616060000e-01 -1.885142000e+00
56800000.0 7.009200000e-01 -1.886386000e+00
57700000.0 7.341990000e-01 -1.885660000e+00
58600000.0 7.726760000e-01 -1.884066000e+00
59500000.0 8.103890000e-01 -1.880721000e+00
60400000.0 8.488220000e-01 -1.876555000e+00
61300000.0 8.888550000e-01 -1.869964000e+00
62200000.0 9.275030000e-01 -1.862967000e+00
63100000.0 9.656070000e-01 -1.852059000e+00
64000000.0 1.004818000e+00 -1.840888000e+00
64900000.0 1.045288000e+00 -1.826628000e+00
65800000.0 1.083371000e+00 -1.811967000e+00
66700000.0 1.122920000e+00 -1.795452000e+00
67600000.0 1.158988000e+00 -1.776981000e+00
68500000.0 1.197686000e+00 -1.756459000e+00
69400000.0 1.232114000e+00 -1.735895000e+00
70300000.0 1.269230000e+00 -1.708734000e+00
71200000.0 1.301776000e+00 -1.684782000e+00
72100000.0 1.336611000e+00 -1.657393000e+00
73000000.0 1.368604000e+00 -1.628613000e+00
73900000.0 1.397252000e+00 -1.599096000e+00
74800000.0 1.428142000e+00 -1.566313000e+00
75700000.0 1.454943000e+00 -1.535836000e+00
76600000.0 1.480020000e+00 -1.501116000e+00
77500000.0 1.504719000e+00 -1.464807000e+00
78400000.0 1.525971000e+00 -1.430655000e+00
79300000.0 1.549328000e+00 -1.394973000e+00
80200000.0 1.564709000e+00 -1.359270000e+00
81100000.0 1.584657000e+00 -1.323188000e+00
82000000.0 1.597770000e+00 -1.282951000e+00
82900000.0 1.613838000e+00 -1.246917000e+00
83800000.0 1.624138000e+00 -1.208614000e+00
84700000.0 1.636056000e+00 -1.172990000e+00
85600000.0 1.643834000e+00 -1.135934000e+00
86500000.0 1.648384000e+00 -1.099590000e+00
87400000.0 1.657534000e+00 -1.062129000e+00
88300000.0 1.658236000e+00 -1.027110000e+00
89200000.0 1.662298000e+00 -9.914330000e-01
90100000.0 1.663881000e+00 -9.553060000e-01
91000000.0 1.664226000e+00 -9.228340000e-01
91900000.0 1.661385000e+00 -8.871050000e-01
92800000.0 1.660678000e+00 -8.546540000e-01
93700000.0 1.657135000e+00 -8.220730000e-01
94600000.0 1.654089000e+00 -7.919990000e-01
95500000.0 1.647492000e+00 -7.610200000e-01
96400000.0 1.642394000e+00 -7.311240000e-01
97300000.0 1.634644000e+00 -7.012140000e-01
98200000.0 1.628880000e+00 -6.735910000e-01
99100000.0 1.618532000e+00 -6.470110000e-01
100000000.0 1.610292000e+00 -6.205000000e-01
109000000.0 1.502216000e+00 -3.983740000e-01
118000000.0 1.376014000e+00 -2.440240000e-01
127000000.0 1.257748000e+00 -1.379040000e-01
136000000.0 1.148219000e+00 -6.873400000e-02
145000000.0 1.050198000e+00 -1.873300000e-02
154000000.0 1.000557000e+00 5.980000000e-04
163000000.0 1.001395000e+00 -8.410000000e-04
172000000.0 1.003019000e+00 -1.100000000e-05
181000000.0 1.004162000e+00 5.480000000e-04
190000000.0 1.004977000e+00 -4.790000000e-04
199000000.0 1.004733000e+00 -1.191000000e-03
208000000.0 1.005822000e+00 -2.670000000e-03
217000000.0 1.005332000e+00 -2.169000000e-03
226000000.0 1.006572000e+00 -6.550000000e-04
235000000.0 1.006180000e+00 -1.496000000e-03
244000000.0 1.005846000e+00 -2.693000000e-03
253000000.0 1.005450000e+00 -9.500000000e-04
262000000.0 1.004921000e+00 -1.251000000e-03
271000000.0 1.005046000e+00 -1.420000000e-04
280000000.0 1.004056000e+00 7.280000000e-04
289000000.0 1.003234000e+00 -9.180000000e-04
298000000.0 1.002559000e+00 -1.112000000e-03
307000000.0 1.001347000e+00 -6.910000000e-04
316000000.0 1.003896000e+00 -1.832000000e-03
325000000.0 1.004762000e+00 -2.040000000e-04
334000000.0 1.004499000e+00 -2.010000000e-04
343000000.0 1.005568000e+00 -3.340000000e-04
352000000.0 1.001528000e+00 2.208000000e-03
361000000.0 9.980300000e-01 -3.429200000e-02
370000000.0 1.007697000e+00 2.670000000e-04
379000000.0 1.012810000e+00 1.925300000e-02
388000000.0 1.004774000e+00 9.860000000e-04
397000000.0 1.003878000e+00 -1.804600000e-02
406000000.0 1.004921000e+00 1.000000000e-05
415000000.0 1.004558000e+00 1.977000000e-03
424000000.0 1.001662000e+00 2.277000000e-03
433000000.0 1.002740000e+00 -6.700000000e-05
442000000.0 1.001485000e+00 8.430000000e-04
451000000.0 1.000377000e+00 1.033000000e-03
460000000.0 1.001728000e+00 3.018000000e-03
469000000.0 1.002969000e+00 2.670000000e-03
478000000.0 1.004911000e+00 3.777000000e-03
487000000.0 1.004724000e+00 6.970000000e-03
496000000.0 1.006217000e+00 3.909000000e-03
505000000.0 1.006424000e+00 4.899000000e-03
514000000.0 1.008302000e+00 5.914000000e-03
523000000.0 1.009160000e+00 7.770000000e-03
532000000.0 1.007415000e+00 6.727000000e-03
541000000.0 1.009000000e+00 1.021200000e-02
550000000.0 1.010027000e+00 7.856000000e-03
559000000.0 1.009277000e+00 6.927000000e-03
568000000.0 1.007578000e+00 7.776000000e-03
577000000.0 1.008654000e+00 6.176000000e-03
586000000.0 1.004907000e+00 6.462000000e-03
595000000.0 1.005467000e+00 8.443000000e-03
604000000.0 1.005531000e+00 5.369000000e-03
613000000.0 1.004162000e+00 3.712000000e-03
622000000.0 1.010614000e+00 9.687000000e-03
631000000.0 1.015253000e+00 6.618000000e-03
640000000.0 1.012359000e+00 6.007000000e-03
649000000.0 1.017077000e+00 1.014600000e-02
658000000.0 1.015876000e+00 6.190000000e-03
667000000.0 1.015234000e+00 7.314000000e-03
676000000.0 1.016267000e+00 6.828000000e-03
685000000.0 1.015748000e+00 6.896000000e-03
694000000.0 1.014702000e+00 6.603000000e-03
703000000.0 1.013185000e+00 7.780000000e-03
712000000.0 1.016351000e+00 9.529000000e-03
721000000.0 1.013349000e+00 5.912000000e-03
730000000.0 1.007979000e+00 3.926000000e-03
739000000.0 1.006969000e+00 3.044000000e-03
748000000.0 1.002633000e+00 2.559000000e-03
757000000.0 1.001108000e+00 -8.020000000e-04
766000000.0 1.008944000e+00 -2.439000000e-03
775000000.0 1.011915000e+00 -3.561000000e-03
784000000.0 1.010984000e+00 -2.691000000e-03
793000000.0 1.014405000e+00 -6.531000000e-03
802000000.0 1.015473000e+00 -6.127000000e-03
811000000.0 1.016774000e+00 -3.930000000e-03
820000000.0 1.019246000e+00 -5.224000000e-03
829000000.0 1.017401000e+00 -2.709000000e-03
838000000.0 1.015004000e+00 -2.368000000e-03
847000000.0 1.016123000e+00 -5.005000000e-03
856000000.0 1.013370000e+00 -2.492000000e-03
865000000.0 1.015651000e+00 -3.354000000e-03
874000000.0 1.011447000e+00 -6.979000000e-03
883000000.0 1.007601000e+00 3.100000000e-05
892000000.0 1.004689000e+00 -1.733000000e-03
901000000.0 9.997860000e-01 2.583000000e-03
910000000.0 1.002166000e+00 -1.784000000e-03
919000000.0 1.004024000e+00 -3.453000000e-03
928000000.0 1.001595000e+00 -7.500000000e-03
937000000.0 1.002634000e+00 -7.488000000e-03
946000000.0 1.003301000e+00 -2.760000000e-03
955000000.0 1.006010000e+00 -7.127000000e-03
964000000.0 1.006641000e+00 -8.784000000e-03
973000000.0 1.007961000e+00 -1.150200000e-02
982000000.0 1.005584000e+00 -1.108200000e-02
991000000.0 1.007060000e+00 -5.968000000e-03
1000000000.0 1.003681000e+00 -9.013000000e-03
1004500000.0 1.003825000e+00 -5.732000000e-03
1009000000.0 1.004133000e+00 -3.197000000e-03
1013500000.0 1.002867000e+00 -1.933000000e-03
1018000000.0 1.000625000e+00 -5.691000000e-03
1022500000.0 1.001007000e+00 -2.970000000e-03
1027000000.0 1.001131000e+00 -5.384000000e-03
1031500000.0 1.000679000e+00 -4.197000000e-03
1036000000.0 1.000683000e+00 1.532000000e-03
1040500000.0 1.002849000e+00 -1.136000000e-03
1045000000.0 1.003275000e+00 2.701000000e-03
1049500000.0 9.969800000e-01 2.373000000e-03
1054000000.0 9.978460000e-01 2.220000000e-03
1058500000.0 1.000603000e+00 3.311000000e-03
1063000000.0 9.987100000e-01 -2.853000000e-03
1067500000.0 1.000677000e+00 4.253000000e-03
1072000000.0 1.005886000e+00 -1.669000000e-03
1076500000.0 1.002144000e+00 -6.010000000e-04
1081000000.0 1.005735000e+00 2.251000000e-03
1085500000.0 1.001018000e+00 -7.372000000e-03
1090000000.0 9.987460000e-01 -6.520000000e-04
1094500000.0 1.000836000e+00 -5.643000000e-03
1099000000.0 1.006110000e+00 -7.540000000e-04
1103500000.0 1.001550000e+00 1.201000000e-03
1108000000.0 1.001122000e+00 -5.049000000e-03
1112500000.0 1.004317000e+00 -1.718000000e-03
1117000000.0 1.002432000e+00 -3.915000000e-03
1121500000.0 1.007385000e+00 -3.393000000e-03
1126000000.0 1.006497000e+00 -4.967000000e-03
1130500000.0 1.002690000e+00 -1.496000000e-03
1135000000.0 1.003469000e+00 -8.325000000e-03
1139500000.0 1.006939000e+00 -3.965000000e-03
1144000000.0 1.003373000e+00 -1.316000000e-03
1148500000.0 1.007029000e+00 -1.956000000e-03
1153000000.0 1.002419000e+00 -6.845000000e-03
1157500000.0 1.006030000e+00 -1.360000000e-03
1162000000.0 1.006921000e+00 -2.777000000e-03
1166500000.0 1.004926000e+00 -8.828000000e-03
1171000000.0 1.001963000e+00 -5.914000000e-03
1175500000.0 1.003998000e+00 -5.894000000e-03
1180000000.0 1.002679000e+00 -1.036000000e-03
1184500000.0 1.002109000e+00 -6.453000000e-03
1189000000.0 1.008902000e+00 6.536000000e-03
1193500000.0 1.005704000e+00 4.226000000e-03
1198000000.0 1.005000000e+00 -5.779000000e-03
1202500000.0 1.005860000e+00 2.199000000e-03
1207000000.0 1.001938000e+00 -5.942000000e-03
1211500000.0 1.008815000e+00 -4.644000000e-03
1216000000.0 1.010664000e+00 -2.350000000e-04
1220500000.0 1.008637000e+00 4.070000000e-04
1225000000.0 1.006891000e+00 -6.842000000e-03
1229500000.0 1.000690000e+00 -5.410000000e-04
1234000000.0 1.005740000e+00 -7.434000000e-03
1238500000.0 1.003053000e+00 -6.326000000e-03
1243000000.0 1.010357000e+00 3.167000000e-03
1247500000.0 1.004329000e+00 -1.224000000e-03
1252000000.0 1.010241000e+00 -6.161000000e-03
1256500000.0 1.004076000e+00 -5.838000000e-03
1261000000.0 1.010284000e+00 4.175000000e-03
1265500000.0 1.007753000e+00 -6.830000000e-04
1270000000.0 9.996710000e-01 6.740000000e-04
1274500000.0 1.003528000e+00 4.521000000e-03
1279000000.0 1.001939000e+00 9.907000000e-03
1283500000.0 1.006728000e+00 1.523000000e-03
1288000000.0 1.007941000e+00 6.731000000e-03
1292500000.0 1.007677000e+00 -9.736000000e-03
1297000000.0 1.001133000e+00 -1.069900000e-02
1301500000.0 1.005329000e+00 -8.750000000e-04
1306000000.0 9.869900000e-01 -5.267000000e-03
1310500000.0 1.003381000e+00 2.836000000e-03
1315000000.0 1.007659000e+00 -2.171000000e-03
1319500000.0 1.007073000e+00 -3.523000000e-03
1324000000.0 9.997140000e-01 2.020000000e-04
1328500000.0 1.006637000e+00 7.240000000e-03
1333000000.0 1.008291000e+00 9.022000000e-03
1337500000.0 1.008224000e+00 -8.640000000e-04
1342000000.0 9.998040000e-01 -5.510000000e-04
1346500000.0 9.998590000e-01 -2.073000000e-03
1351000000.0 1.003085000e+00 2.803000000e-03
1355500000.0 1.006496000e+00 2.045400000e-02
1360000000.0 1.008847000e+00 9.721000000e-03
1364500000.0 1.002690000e+00 -9.737000000e-03
1369000000.0 1.001612000e+00 9.719000000e-03
1373500000.0 1.003452000e+00 2.452700000e-02
1378000000.0 1.002436000e+00 1.854000000e-03
1382500000.0 1.005956000e+00 1.026900000e-02
1387000000.0 1.003302000e+00 8.185000000e-03
1391500000.0 1.003075000e+00 3.266300000e-02
1396000000.0 1.000983000e+00 1.393000000e-02
1400500000.0 1.003787000e+00 -3.058000000e-03
1405000000.0 1.006282000e+00 1.434900000e-02
1409500000.0 1.004620000e+00 1.084500000e-02
1414000000.0 1.003995000e+00 1.942900000e-02
1418500000.0 1.004755000e+00 1.247600000e-02
1423000000.0 1.007343000e+00 1.621600000e-02
1427500000.0 1.005629000e+00 1.413400000e-02
1432000000.0 1.002803000e+00 1.237700000e-02
1436500000.0 1.004063000e+00 1.627300000e-02
1441000000.0 9.999080000e-01 1.836900000e-02
1445500000.0 1.002319000e+00 1.147700000e-02
1450000000.0 1.001508000e+00 7.691000000e-03
