! piloto_saltos / abierto_continuo / r04
# HZ S RI R 50
50000.0 1.005383000e+00 -7.047600000e-02
59500.0 1.008979000e+00 -5.737200000e-02
69000.0 1.002694000e+00 -4.157000000e-02
78500.0 1.002543000e+00 -2.978800000e-02
88000.0 1.001346000e+00 -1.658200000e-02
97500.0 1.000702000e+00 -4.331000000e-03
107000.0 1.000231000e+00 7.934000000e-03
116500.0 1.000898000e+00 1.997700000e-02
126000.0 9.984070000e-01 3.236300000e-02
135500.0 1.000032000e+00 4.468900000e-02
145000.0 1.001538000e+00 5.708500000e-02
154500.0 1.001200000e+00 6.975400000e-02
164000.0 1.001595000e+00 8.200100000e-02
173500.0 1.002403000e+00 9.342400000e-02
183000.0 1.002918000e+00 1.048710000e-01
192500.0 1.003433000e+00 1.168240000e-01
202000.0 1.003731000e+00 1.284020000e-01
211500.0 1.003981000e+00 1.395160000e-01
221000.0 1.003497000e+00 1.513320000e-01
230500.0 1.004170000e+00 1.631820000e-01
240000.0 1.003885000e+00 1.737630000e-01
249500.0 1.145815000e+00 1.851830000e-01
259000.0 1.005262000e+00 1.962540000e-01
268500.0 1.005846000e+00 2.081030000e-01
278000.0 1.005617000e+00 2.186750000e-01
287500.0 1.005710000e+00 2.303450000e-01
297000.0 1.006691000e+00 2.410930000e-01
306500.0 1.006335000e+00 2.519150000e-01
316000.0 1.007325000e+00 2.633190000e-01
325500.0 1.006496000e+00 2.740860000e-01
335000.0 1.007338000e+00 2.855070000e-01
344500.0 1.006975000e+00 2.948140000e-01
354000.0 1.007998000e+00 3.053820000e-01
363500.0 1.006868000e+00 3.164840000e-01
373000.0 1.007949000e+00 3.275960000e-01
382500.0 1.008310000e+00 3.370370000e-01
392000.0 1.008800000e+00 3.484160000e-01
401500.0 1.008553000e+00 3.586100000e-01
411000.0 1.008661000e+00 3.693320000e-01
420500.0 1.008781000e+00 3.798410000e-01
430000.0 1.008568000e+00 3.897980000e-01
439500.0 1.009785000e+00 4.001620000e-01
449000.0 1.010267000e+00 4.098500000e-01
458500.0 1.010693000e+00 4.200370000e-01
468000.0 1.010501000e+00 4.301350000e-01
477500.0 1.010403000e+00 4.399890000e-01
487000.0 1.010898000e+00 4.503120000e-01
496500.0 1.011223000e+00 4.599390000e-01
506000.0 1.011703000e+00 4.703050000e-01
515500.0 1.012035000e+00 4.799920000e-01
525000.0 1.012666000e+00 4.907790000e-01
534500.0 1.013161000e+00 5.001450000e-01
544000.0 1.014175000e+00 5.102590000e-01
553500.0 1.014367000e+00 5.203360000e-01
563000.0 1.013584000e+00 5.300870000e-01
572500.0 1.014435000e+00 5.398070000e-01
582000.0 1.014842000e+00 5.498580000e-01
591500.0 1.015559000e+00 5.601110000e-01
601000.0 1.016152000e+00 5.699830000e-01
610500.0 1.016876000e+00 5.790000000e-01
620000.0 1.016456000e+00 5.887380000e-01
629500.0 1.017543000e+00 5.970800000e-01
639000.0 1.018515000e+00 6.072610000e-01
648500.0 1.019452000e+00 6.172810000e-01
658000.0 1.020982000e+00 6.257390000e-01
667500.0 1.020572000e+00 6.363930000e-01
677000.0 1.022329000e+00 6.464140000e-01
686500.0 1.022491000e+00 6.559650000e-01
696000.0 1.021725000e+00 6.641860000e-01
705500.0 1.023843000e+00 6.746470000e-01
715000.0 1.024377000e+00 6.839990000e-01
724500.0 1.025735000e+00 6.936500000e-01
734000.0 1.027532000e+00 7.038420000e-01
743500.0 1.027507000e+00 7.112850000e-01
753000.0 1.029540000e+00 7.220810000e-01
762500.0 1.030409000e+00 7.307930000e-01
772000.0 1.031093000e+00 7.400720000e-01
781500.0 1.032956000e+00 7.484520000e-01
791000.0 1.034106000e+00 7.585990000e-01
800500.0 1.035821000e+00 7.677190000e-01
810000.0 1.036766000e+00 7.763650000e-01
819500.0 1.038309000e+00 7.859960000e-01
829000.0 1.038980000e+00 7.953720000e-01
838500.0 1.041110000e+00 8.038810000e-01
848000.0 1.043892000e+00 8.137150000e-01
857500.0 1.045272000e+00 8.223460000e-01
867000.0 1.047842000e+00 8.306700000e-01
876500.0 1.048608000e+00 8.404760000e-01
886000.0 1.051138000e+00 8.501420000e-01
895500.0 1.052786000e+00 8.586300000e-01
905000.0 1.055081000e+00 8.676130000e-01
914500.0 1.056978000e+00 8.768760000e-01
924000.0 1.058820000e+00 8.854020000e-01
933500.0 1.060992000e+00 8.938340000e-01
943000.0 1.063303000e+00 9.030760000e-01
952500.0 1.067543000e+00 9.114120000e-01
962000.0 1.069358000e+00 9.202920000e-01
971500.0 1.071387000e+00 9.301890000e-01
981000.0 1.073652000e+00 9.382790000e-01
990500.0 1.074712000e+00 9.468150000e-01
1000000.0 1.078654000e+00 9.564630000e-01
1090000.0 1.104775000e+00 1.035763000e+00
1180000.0 1.146525000e+00 1.111429000e+00
1270000.0 1.193975000e+00 1.180631000e+00
1360000.0 1.253767000e+00 1.242975000e+00
1450000.0 1.322688000e+00 1.297972000e+00
1540000.0 1.402595000e+00 1.332986000e+00
1630000.0 1.487525000e+00 1.353278000e+00
1720000.0 1.578139000e+00 1.356428000e+00
1810000.0 1.669256000e+00 1.336850000e+00
1900000.0 1.753825000e+00 1.298328000e+00
1990000.0 1.829284000e+00 1.240221000e+00
2080000.0 1.889033000e+00 1.166271000e+00
2170000.0 1.933356000e+00 1.080089000e+00
2260000.0 1.959036000e+00 9.915820000e-01
2350000.0 1.967751000e+00 9.040360000e-01
2440000.0 1.960717000e+00 8.200910000e-01
2530000.0 1.942836000e+00 7.349790000e-01
2620000.0 1.916231000e+00 6.633810000e-01
2710000.0 1.881091000e+00 5.971630000e-01
2800000.0 1.844096000e+00 5.408790000e-01
2890000.0 1.805271000e+00 4.906550000e-01
2980000.0 1.766106000e+00 4.472420000e-01
3070000.0 1.728243000e+00 4.091370000e-01
3160000.0 1.691519000e+00 3.758520000e-01
3250000.0 1.654448000e+00 3.468060000e-01
3340000.0 1.619284000e+00 3.184580000e-01
3430000.0 1.587807000e+00 2.933260000e-01
3520000.0 1.557640000e+00 2.734050000e-01
3610000.0 1.528688000e+00 2.510750000e-01
3700000.0 1.503375000e+00 2.317000000e-01
3790000.0 1.478146000e+00 2.141370000e-01
3880000.0 1.455518000e+00 1.986240000e-01
3970000.0 1.434191000e+00 1.816900000e-01
4060000.0 1.414974000e+00 1.655930000e-01
4150000.0 1.396681000e+00 1.516180000e-01
4240000.0 1.380415000e+00 1.376540000e-01
4330000.0 1.364989000e+00 1.211190000e-01
4420000.0 1.350468000e+00 1.076400000e-01
4510000.0 1.338131000e+00 9.540400000e-02
4600000.0 1.325471000e+00 8.105800000e-02
4690000.0 1.316471000e+00 6.827500000e-02
4780000.0 1.307023000e+00 5.530300000e-02
4870000.0 1.298455000e+00 4.344300000e-02
4960000.0 1.291372000e+00 3.012600000e-02
5050000.0 1.277148000e+00 1.783900000e-02
5140000.0 1.271917000e+00 5.206000000e-03
5230000.0 1.267331000e+00 -6.775000000e-03
5320000.0 1.261825000e+00 -1.976700000e-02
5410000.0 1.259735000e+00 -3.115900000e-02
5500000.0 1.254215000e+00 -4.276600000e-02
5590000.0 1.251192000e+00 -5.422800000e-02
5680000.0 1.248427000e+00 -6.607700000e-02
5770000.0 1.244670000e+00 -7.604600000e-02
5860000.0 1.242131000e+00 -8.753700000e-02
5950000.0 1.239198000e+00 -9.856200000e-02
6040000.0 1.236603000e+00 -1.080140000e-01
6130000.0 1.234982000e+00 -1.179800000e-01
6220000.0 1.232116000e+00 -1.274000000e-01
6310000.0 1.230668000e+00 -1.351720000e-01
6400000.0 1.228914000e+00 -1.436170000e-01
6490000.0 1.226284000e+00 -1.513020000e-01
6580000.0 1.224493000e+00 -1.592320000e-01
6670000.0 1.224460000e+00 -1.659400000e-01
6760000.0 1.223813000e+00 -1.707130000e-01
6850000.0 1.221508000e+00 -1.779480000e-01
6940000.0 1.221590000e+00 -1.811910000e-01
7030000.0 1.220793000e+00 -1.858630000e-01
7120000.0 1.218904000e+00 -1.895650000e-01
7210000.0 1.218797000e+00 -1.921610000e-01
7300000.0 1.219754000e+00 -1.935630000e-01
7390000.0 1.218804000e+00 -1.943280000e-01
7480000.0 1.219797000e+00 -1.946460000e-01
7570000.0 -2.437160000e-01 -1.258886000e+00
7660000.0 -2.423870000e-01 -1.258616000e+00
7750000.0 -2.410120000e-01 -1.260168000e+00
7840000.0 -2.405860000e-01 -1.259890000e+00
7930000.0 -2.401660000e-01 -1.260162000e+00
8020000.0 -2.400850000e-01 -1.260784000e+00
8110000.0 -2.378010000e-01 -1.260208000e+00
8200000.0 -2.375910000e-01 -1.261547000e+00
8290000.0 -2.369330000e-01 -1.262506000e+00
8380000.0 -2.370500000e-01 -1.262510000e+00
8470000.0 -2.357990000e-01 -1.262985000e+00
8560000.0 -2.348560000e-01 -1.264047000e+00
8650000.0 -2.338710000e-01 -1.263854000e+00
8740000.0 -2.343380000e-01 -1.265886000e+00
8830000.0 -2.334740000e-01 -1.266788000e+00
8920000.0 -2.320590000e-01 -1.267296000e+00
9010000.0 -2.320530000e-01 -1.267198000e+00
9100000.0 -2.305200000e-01 -1.268187000e+00
9190000.0 -2.300420000e-01 -1.268126000e+00
9280000.0 -2.295120000e-01 -1.269731000e+00
9370000.0 -2.301240000e-01 -1.269753000e+00
9460000.0 -2.292050000e-01 -1.270964000e+00
9550000.0 -2.282800000e-01 -1.271528000e+00
9640000.0 -2.268800000e-01 -1.272896000e+00
9730000.0 -2.268500000e-01 -1.272893000e+00
9820000.0 -2.251280000e-01 -1.274651000e+00
9910000.0 -2.257920000e-01 -1.274678000e+00
10000000.0 -2.244450000e-01 -1.275166000e+00
10900000.0 -2.182750000e-01 -1.285632000e+00
11800000.0 -2.121960000e-01 -1.293153000e+00
12700000.0 -2.078890000e-01 -1.304198000e+00
13600000.0 -2.008920000e-01 -1.315505000e+00
14500000.0 -1.952730000e-01 -1.326108000e+00
15400000.0 -1.884140000e-01 -1.337324000e+00
16300000.0 -1.833020000e-01 -1.349591000e+00
17200000.0 -1.752090000e-01 -1.361261000e+00
18100000.0 -1.671360000e-01 -1.371340000e+00
19000000.0 -1.626030000e-01 -1.384310000e+00
19900000.0 -1.530530000e-01 -1.397986000e+00
20800000.0 -1.453620000e-01 -1.410568000e+00
21700000.0 -1.358930000e-01 -1.424055000e+00
22600000.0 -1.281230000e-01 -1.437264000e+00
23500000.0 -1.175290000e-01 -1.448757000e+00
24400000.0 -1.067470000e-01 -1.463260000e+00
25300000.0 -9.856900000e-02 -1.476989000e+00
26200000.0 -8.846200000e-02 -1.490816000e+00
27100000.0 -7.584500000e-02 -1.505724000e+00
28000000.0 -6.426100000e-02 -1.518372000e+00
28900000.0 -5.451000000e-02 -1.523293000e+00
29800000.0 -3.976100000e-02 -1.547781000e+00
30700000.0 -2.497900000e-02 -1.563186000e+00
31600000.0 -1.199200000e-02 -1.576995000e+00
32500000.0 2.653000000e-03 -1.591073000e+00
33400000.0 1.858800000e-02 -1.606187000e+00
34300000.0 3.503500000e-02 -1.620539000e+00
35200000.0 5.194500000e-02 -1.635067000e+00
36100000.0 6.862100000e-02 -1.650061000e+00
37000000.0 8.609500000e-02 -1.665811000e+00
37900000.0 1.061360000e-01 -1.679572000e+00
38800000.0 1.252490000e-01 -1.694973000e+00
39700000.0 1.460960000e-01 -1.708005000e+00
40600000.0 1.671820000e-01 -1.723522000e+00
41500000.0 1.891100000e-01 -1.735798000e+00
42400000.0 2.126760000e-01 -1.750261000e+00
43300000.0 2.356870000e-01 -1.762823000e+00
44200000.0 2.596760000e-01 -1.775560000e+00
45100000.0 2.852490000e-01 -1.789024000e+00
46000000.0 3.126110000e-01 -1.800152000e+00
46900000.0 3.385580000e-01 -1.811979000e+00
47800000.0 3.672010000e-01 -1.822075000e+00
48700000.0 3.962720000e-01 -1.833062000e+00
49600000.0 4.262730000e-01 -1.844468000e+00
50500000.0 4.570520000e-01 -1.851874000e+00
51400000.0 4.890100000e-01 -1.859232000e+00
52300000.0 5.228960000e-01 -1.867996000e+00
53200000.0 5.545250000e-01 -1.872597000e+00
54100000.0 5.895940000e-01 -1.879500000e+00
55000000.0 6.279370000e-01 -1.883155000e+00
55900000.0 6.598940000e-01 -1.887600000e+00
56800000.0 6.981670000e-01 -1.887576000e+00
57700000.0 7.342230000e-01 -1.886853000e+00
58600000.0 7.721570000e-01 -1.885487000e+00
59500000.0 8.100910000e-01 -1.881826000e+00
60400000.0 8.492960000e-01 -1.876238000e+00
61300000.0 8.885700000e-01 -1.870138000e+00
62200000.0 9.267620000e-01 -1.862824000e+00
63100000.0 9.656180000e-01 -1.853802000e+00
64000000.0 1.005530000e+00 -1.841796000e+00
64900000.0 1.046659000e+00 -1.827422000e+00
65800000.0 1.084532000e+00 -1.812735000e+00
66700000.0 1.120673000e+00 -1.794652000e+00
67600000.0 1.159585000e+00 -1.776174000e+00
68500000.0 1.197006000e+00 -1.756694000e+00
69400000.0 1.233139000e+00 -1.733463000e+00
70300000.0 1.270472000e+00 -1.708938000e+00
71200000.0 1.302477000e+00 -1.685258000e+00
72100000.0 1.336505000e+00 -1.657177000e+00
73000000.0 1.366395000e+00 -1.627350000e+00
73900000.0 1.399131000e+00 -1.598015000e+00
74800000.0 1.426823000e+00 -1.566465000e+00
75700000.0 1.455093000e+00 -1.534124000e+00
76600000.0 1.482499000e+00 -1.501859000e+00
77500000.0 1.504638000e+00 -1.466300000e+00
78400000.0 1.526797000e+00 -1.431437000e+00
79300000.0 1.548883000e+00 -1.396333000e+00
80200000.0 1.568020000e+00 -1.358600000e+00
81100000.0 1.583969000e+00 -1.321378000e+00
82000000.0 1.600763000e+00 -1.283847000e+00
82900000.0 1.612266000e+00 -1.248954000e+00
83800000.0 1.625344000e+00 -1.209421000e+00
84700000.0 1.635348000e+00 -1.173069000e+00
85600000.0 1.643582000e+00 -1.135617000e+00
86500000.0 1.651290000e+00 -1.100229000e+00
87400000.0 1.656760000e+00 -1.062099000e+00
88300000.0 1.660513000e+00 -1.027388000e+00
89200000.0 1.664181000e+00 -9.908310000e-01
90100000.0 1.664811000e+00 -9.556990000e-01
91000000.0 1.663354000e+00 -9.229760000e-01
91900000.0 1.662982000e+00 -8.886980000e-01
92800000.0 1.660064000e+00 -8.556180000e-01
93700000.0 1.657575000e+00 -8.221530000e-01
94600000.0 1.653427000e+00 -7.914210000e-01
95500000.0 1.647966000e+00 -7.621970000e-01
96400000.0 1.641212000e+00 -7.315910000e-01
97300000.0 1.634512000e+00 -7.015860000e-01
98200000.0 1.628385000e+00 -6.733650000e-01
99100000.0 1.617593000e+00 -6.477380000e-01
100000000.0 1.608974000e+00 -6.211010000e-01
109000000.0 1.502130000e+00 -3.971130000e-01
118000000.0 1.376070000e+00 -2.448850000e-01
127000000.0 1.256557000e+00 -1.368890000e-01
136000000.0 1.148230000e+00 -6.786800000e-02
145000000.0 1.049803000e+00 -1.959600000e-02
154000000.0 1.000514000e+00 1.360000000e-04
163000000.0 1.001764000e+00 -9.700000000e-05
172000000.0 1.003913000e+00 -2.100000000e-05
181000000.0 1.003409000e+00 -1.232000000e-03
190000000.0 1.004915000e+00 -1.865000000e-03
199000000.0 1.005160000e+00 -2.079000000e-03
208000000.0 1.005131000e+00 -2.631000000e-03
217000000.0 1.006143000e+00 -1.913000000e-03
226000000.0 1.006831000e+00 -1.401000000e-03
235000000.0 1.006650000e+00 -1.498000000e-03
244000000.0 1.006322000e+00 -1.930000000e-03
253000000.0 1.005780000e+00 -1.658000000e-03
262000000.0 1.005533000e+00 -1.324000000e-03
271000000.0 1.004013000e+00 2.260000000e-04
280000000.0 1.003633000e+00 -7.000000000e-05
289000000.0 1.001886000e+00 -1.031000000e-03
298000000.0 1.002234000e+00 3.200000000e-05
307000000.0 1.003304000e+00 1.225000000e-03
316000000.0 1.004078000e+00 6.860000000e-04
325000000.0 1.004791000e+00 2.350000000e-04
334000000.0 1.005746000e+00 7.830000000e-04
343000000.0 1.007055000e+00 5.140000000e-04
352000000.0 1.005687000e+00 -1.065000000e-03
361000000.0 1.007560000e+00 8.680000000e-04
370000000.0 1.013424000e+00 3.804800000e-02
379000000.0 1.002260000e+00 -3.384900000e-02
388000000.0 9.973700000e-01 -3.562100000e-02
397000000.0 9.883470000e-01 -6.963400000e-02
406000000.0 1.004041000e+00 2.637000000e-03
415000000.0 1.011004000e+00 3.680000000e-02
424000000.0 1.003338000e+00 1.123000000e-03
433000000.0 1.001786000e+00 8.590000000e-04
442000000.0 1.000302000e+00 1.652000000e-03
451000000.0 9.986040000e-01 2.980000000e-04
460000000.0 1.001279000e+00 4.515000000e-03
469000000.0 1.002838000e+00 3.977000000e-03
478000000.0 1.004229000e+00 4.872000000e-03
487000000.0 1.005323000e+00 3.978000000e-03
496000000.0 1.007959000e+00 5.329000000e-03
505000000.0 1.008110000e+00 5.473000000e-03
514000000.0 1.007577000e+00 8.526000000e-03
523000000.0 1.008793000e+00 6.364000000e-03
532000000.0 1.008981000e+00 9.264000000e-03
541000000.0 1.010231000e+00 7.143000000e-03
550000000.0 1.007362000e+00 9.635000000e-03
559000000.0 1.006736000e+00 6.340000000e-03
568000000.0 1.006779000e+00 7.486000000e-03
577000000.0 1.006601000e+00 6.808000000e-03
586000000.0 1.005729000e+00 6.512000000e-03
595000000.0 1.006911000e+00 5.345000000e-03
604000000.0 1.003297000e+00 5.127000000e-03
613000000.0 1.008265000e+00 5.212000000e-03
622000000.0 1.009275000e+00 6.660000000e-03
631000000.0 1.012428000e+00 9.572000000e-03
640000000.0 1.012510000e+00 4.687000000e-03
649000000.0 1.013330000e+00 4.855000000e-03
658000000.0 1.016266000e+00 5.069000000e-03
667000000.0 1.017277000e+00 7.356000000e-03
676000000.0 1.013426000e+00 1.076400000e-02
685000000.0 1.017360000e+00 9.964000000e-03
694000000.0 1.014060000e+00 6.695000000e-03
703000000.0 1.013533000e+00 1.239500000e-02
712000000.0 1.008902000e+00 2.589800000e-02
721000000.0 1.011014000e+00 7.222000000e-03
730000000.0 1.007625000e+00 4.828000000e-03
739000000.0 1.003443000e+00 4.578000000e-03
748000000.0 1.002287000e+00 1.876300000e-02
757000000.0 1.004158000e+00 -1.152000000e-03
766000000.0 1.005636000e+00 -1.844700000e-02
775000000.0 1.013015000e+00 -3.324000000e-03
784000000.0 1.014488000e+00 1.331000000e-02
793000000.0 1.015761000e+00 -4.336000000e-03
802000000.0 1.016599000e+00 1.655800000e-02
811000000.0 1.018839000e+00 -6.462000000e-03
820000000.0 1.019782000e+00 -2.735000000e-03
829000000.0 1.017905000e+00 -4.130000000e-03
838000000.0 1.016992000e+00 -9.272000000e-03
847000000.0 1.017024000e+00 -2.461000000e-03
856000000.0 1.012298000e+00 -3.769000000e-03
865000000.0 1.014644000e+00 -7.126000000e-03
874000000.0 1.011236000e+00 -4.131000000e-03
883000000.0 1.009853000e+00 -1.460000000e-04
892000000.0 1.001822000e+00 3.910000000e-04
901000000.0 1.000535000e+00 1.130000000e-03
910000000.0 1.000838000e+00 -3.835000000e-03
919000000.0 1.003573000e+00 -3.970000000e-04
928000000.0 1.002967000e+00 -5.180000000e-03
937000000.0 1.002194000e+00 -7.688000000e-03
946000000.0 1.005399000e+00 -8.364000000e-03
955000000.0 1.003243000e+00 -6.137000000e-03
964000000.0 1.005614000e+00 -1.040000000e-02
973000000.0 1.004303000e+00 -1.516500000e-02
982000000.0 1.003936000e+00 -1.024600000e-02
991000000.0 1.006199000e+00 -8.372000000e-03
1000000000.0 1.002863000e+00 -8.356000000e-03
1004500000.0 1.003161000e+00 -6.075000000e-03
1009000000.0 1.004077000e+00 -1.005400000e-02
1013500000.0 1.002575000e+00 -8.242000000e-03
1018000000.0 1.002077000e+00 -7.771000000e-03
1022500000.0 1.005424000e+00 -7.895000000e-03
1027000000.0 1.001947000e+00 -5.054000000e-03
1031500000.0 1.003344000e+00 -4.364000000e-03
1036000000.0 1.000029000e+00 -5.042000000e-03
1040500000.0 1.000713000e+00 1.748800000e-02
1045000000.0 9.990290000e-01 4.600000000e-05
1049500000.0 9.974510000e-01 -2.373100000e-02
1054000000.0 1.000042000e+00 5.059000000e-03
1058500000.0 1.002341000e+00 1.847900000e-02
1063000000.0 1.003813000e+00 2.449000000e-03
1067500000.0 1.001313000e+00 -2.067400000e-02
1072000000.0 1.000438000e+00 -7.295000000e-03
1076500000.0 9.999860000e-01 2.101500000e-02
1081000000.0 1.004255000e+00 -5.858000000e-03
1085500000.0 1.002710000e+00 -1.365000000e-03
1090000000.0 1.004572000e+00 -2.481000000e-03
1094500000.0 1.003623000e+00 -1.005400000e-02
1099000000.0 1.005356000e+00 -2.601000000e-03
1103500000.0 1.001288000e+00 -1.855000000e-03
1108000000.0 1.004871000e+00 -6.127000000e-03
1112500000.0 1.002242000e+00 -6.521000000e-03
1117000000.0 1.002411000e+00 -2.005000000e-03
1121500000.0 1.004814000e+00 -5.580000000e-04
1126000000.0 1.007992000e+00 -7.242000000e-03
1130500000.0 1.003737000e+00 -9.496000000e-03
1135000000.0 9.940550000e-01 -7.891400000e-02
1139500000.0 1.004988000e+00 2.905000000e-03
1144000000.0 1.003312000e+00 2.940000000e-04
1148500000.0 1.006417000e+00 -9.859000000e-03
1153000000.0 1.007740000e+00 -4.280800000e-02
1157500000.0 1.005848000e+00 -1.054800000e-02
1162000000.0 1.003482000e+00 -6.047000000e-03
1166500000.0 1.007654000e+00 -7.262000000e-03
1171000000.0 1.002623000e+00 -2.129000000e-03
1175500000.0 1.001505000e+00 -5.844000000e-03
1180000000.0 1.004915000e+00 -8.171000000e-03
1184500000.0 1.007800000e+00 2.252000000e-03
1189000000.0 1.009136000e+00 -1.089400000e-02
1193500000.0 1.003038000e+00 -4.468000000e-03
1198000000.0 1.002877000e+00 -2.149000000e-03
1202500000.0 1.002702000e+00 -4.483000000e-03
1207000000.0 1.005812000e+00 -9.141000000e-03
1211500000.0 1.004460000e+00 -8.370000000e-04
1216000000.0 1.004175000e+00 -5.931000000e-03
1220500000.0 1.010381000e+00 -4.551000000e-03
1225000000.0 1.005009000e+00 -7.093000000e-03
1229500000.0 1.003085000e+00 -1.300800000e-02
1234000000.0 1.003054000e+00 -1.372000000e-03
1238500000.0 1.005190000e+00 4.810000000e-04
1243000000.0 1.005005000e+00 -4.850000000e-03
1247500000.0 1.001117000e+00 -8.006000000e-03
1252000000.0 1.003018000e+00 -4.740000000e-04
1256500000.0 1.004655000e+00 -2.051000000e-03
1261000000.0 1.000870000e+00 3.740000000e-04
1265500000.0 1.002196000e+00 1.390000000e-03
1270000000.0 1.006039000e+00 3.090000000e-03
1274500000.0 9.998050000e-01 2.134000000e-03
1279000000.0 1.006618000e+00 2.286000000e-03
1283500000.0 1.003858000e+00 -1.392000000e-03
1288000000.0 1.005101000e+00 7.915000000e-03
1292500000.0 9.981920000e-01 2.125000000e-03
1297000000.0 1.004360000e+00 -1.278000000e-02
1301500000.0 1.003787000e+00 2.190000000e-03
1306000000.0 1.002401000e+00 3.278000000e-03
1310500000.0 1.009277000e+00 7.954000000e-03
1315000000.0 1.007125000e+00 -2.097000000e-03
1319500000.0 1.006626000e+00 -5.040000000e-04
1324000000.0 1.006584000e+00 -3.360000000e-04
1328500000.0 1.002131000e+00 -4.120000000e-03
1333000000.0 1.001530000e+00 4.445000000e-03
1337500000.0 1.006023000e+00 -3.177000000e-03
1342000000.0 1.003972000e+00 1.010000000e-04
1346500000.0 1.002419000e+00 9.805000000e-03
1351000000.0 1.006429000e+00 4.229000000e-03
1355500000.0 1.000749000e+00 -1.797000000e-03
1360000000.0 9.967520000e-01 -2.760000000e-03
1364500000.0 1.007849000e+00 1.544500000e-02
1369000000.0 1.011199000e+00 7.940000000e-03
1373500000.0 1.004680000e+00 1.415400000e-02
1378000000.0 1.000553000e+00 1.095300000e-02
1382500000.0 1.006557000e+00 6.997000000e-03
1387000000.0 1.007771000e+00 7.303000000e-03
1391500000.0 1.004032000e+00 1.721900000e-02
1396000000.0 1.004657000e+00 9.227000000e-03
1400500000.0 1.001757000e+00 1.494600000e-02
1405000000.0 1.006981000e+00 1.273900000e-02
1409500000.0 1.003317000e+00 6.024000000e-03
1414000000.0 9.995810000e-01 1.424900000e-02
1418500000.0 1.014030000e+00 1.459600000e-02
1423000000.0 1.003706000e+00 4.131000000e-03
1427500000.0 1.002457000e+00 1.070900000e-02
1432000000.0 1.002061000e+00 1.646100000e-02
1436500000.0 1.001994000e+00 1.046400000e-02
1441000000.0 9.984000000e-01 1.576300000e-02
1445500000.0 1.000158000e+00 9.012000000e-03
1450000000.0 1.001036000e+00 9.415000000e-03
