! piloto_saltos / abierto_tramosB / r04
# HZ S RI R 50
50000.0 1.005779000e+00 -6.971500000e-02
52500.0 1.005919000e+00 -6.566300000e-02
55000.0 1.006535000e+00 -6.199700000e-02
57500.0 1.006272000e+00 -5.991900000e-02
60000.0 1.000725000e+00 -5.471900000e-02
62500.0 1.005274000e+00 -5.084900000e-02
65000.0 1.005775000e+00 -4.707500000e-02
67500.0 1.004584000e+00 -4.384600000e-02
70000.0 1.004107000e+00 -4.027400000e-02
72500.0 1.005632000e+00 -3.713900000e-02
75000.0 1.002391000e+00 -3.420800000e-02
77500.0 1.002323000e+00 -2.962000000e-02
80000.0 1.002462000e+00 -2.625400000e-02
82500.0 1.002495000e+00 -2.322000000e-02
85000.0 1.001649000e+00 -1.983700000e-02
87500.0 1.001186000e+00 -1.656500000e-02
90000.0 1.002162000e+00 -1.304200000e-02
92500.0 1.001390000e+00 -9.738000000e-03
95000.0 1.000724000e+00 -6.400000000e-03
97500.0 1.001636000e+00 -3.464000000e-03
100000.0 1.000629000e+00 1.770000000e-04
102500.0 1.001097000e+00 2.645000000e-03
105000.0 1.001004000e+00 7.174000000e-03
107500.0 1.001145000e+00 9.353000000e-03
110000.0 1.001006000e+00 1.382700000e-02
112500.0 1.000708000e+00 1.617100000e-02
115000.0 1.000332000e+00 1.993900000e-02
117500.0 1.001010000e+00 2.295200000e-02
120000.0 1.000555000e+00 2.505900000e-02
122500.0 1.000266000e+00 2.918900000e-02
125000.0 1.000924000e+00 3.206500000e-02
127500.0 1.000732000e+00 3.533500000e-02
130000.0 1.001685000e+00 3.894200000e-02
132500.0 1.001304000e+00 4.275400000e-02
135000.0 1.001611000e+00 4.510100000e-02
137500.0 9.990610000e-01 4.712700000e-02
140000.0 1.001160000e+00 5.174400000e-02
142500.0 1.002545000e+00 5.476200000e-02
145000.0 1.001348000e+00 5.857500000e-02
147500.0 1.001124000e+00 6.121100000e-02
150000.0 1.000842000e+00 6.390100000e-02
152500.0 1.001872000e+00 6.776400000e-02
155000.0 1.002443000e+00 7.112400000e-02
157500.0 1.002710000e+00 7.414300000e-02
160000.0 1.002549000e+00 7.696900000e-02
162500.0 1.003310000e+00 8.021100000e-02
165000.0 1.002587000e+00 8.318000000e-02
167500.0 1.003319000e+00 8.720400000e-02
170000.0 1.003105000e+00 8.942500000e-02
172500.0 1.002878000e+00 9.368000000e-02
175000.0 1.002802000e+00 9.613300000e-02
177500.0 1.003340000e+00 9.958200000e-02
180000.0 1.002641000e+00 1.027620000e-01
182500.0 1.002612000e+00 1.054790000e-01
185000.0 1.003266000e+00 1.086550000e-01
187500.0 1.002757000e+00 1.116170000e-01
190000.0 1.004030000e+00 1.142460000e-01
192500.0 1.002933000e+00 1.183130000e-01
195000.0 1.002802000e+00 1.204500000e-01
197500.0 1.003821000e+00 1.243200000e-01
200000.0 1.004005000e+00 1.272800000e-01
202500.0 1.003345000e+00 1.302840000e-01
205000.0 1.003653000e+00 1.339730000e-01
207500.0 1.004336000e+00 1.365260000e-01
210000.0 9.973720000e-01 1.219920000e-01
212500.0 1.004626000e+00 1.431100000e-01
215000.0 1.004306000e+00 1.453550000e-01
217500.0 1.003611000e+00 1.486240000e-01
220000.0 1.004208000e+00 1.517460000e-01
222500.0 1.005069000e+00 1.547200000e-01
225000.0 1.004492000e+00 1.579330000e-01
227500.0 1.005097000e+00 1.612660000e-01
230000.0 1.004374000e+00 1.643940000e-01
232500.0 1.005412000e+00 1.672310000e-01
235000.0 1.004534000e+00 1.695530000e-01
237500.0 1.004540000e+00 1.725190000e-01
240000.0 1.005434000e+00 1.759360000e-01
242500.0 1.005520000e+00 1.788840000e-01
245000.0 1.005062000e+00 1.812380000e-01
247500.0 1.005331000e+00 1.842720000e-01
250000.0 1.004759000e+00 1.879760000e-01
252500.0 1.005881000e+00 1.905860000e-01
255000.0 1.006097000e+00 1.940490000e-01
257500.0 1.005915000e+00 1.966330000e-01
260000.0 1.005725000e+00 2.000270000e-01
262500.0 1.005628000e+00 2.022430000e-01
265000.0 1.006893000e+00 2.049990000e-01
267500.0 1.005637000e+00 2.083820000e-01
270000.0 1.005534000e+00 2.116260000e-01
272500.0 1.006110000e+00 2.143080000e-01
275000.0 1.006791000e+00 2.166370000e-01
277500.0 1.006691000e+00 2.201120000e-01
280000.0 1.006490000e+00 2.230050000e-01
282500.0 1.006832000e+00 2.255550000e-01
285000.0 1.006108000e+00 2.295360000e-01
287500.0 1.005684000e+00 2.312010000e-01
290000.0 1.006320000e+00 2.343630000e-01
292500.0 1.006584000e+00 2.375830000e-01
295000.0 1.007313000e+00 2.407120000e-01
297500.0 1.006982000e+00 2.432330000e-01
300000.0 1.005654000e+00 2.450440000e-01
327000.0 1.005669000e+00 2.754160000e-01
354000.0 1.007201000e+00 3.063190000e-01
381000.0 1.007520000e+00 3.373580000e-01
408000.0 1.008000000e+00 3.672690000e-01
435000.0 1.009695000e+00 3.965340000e-01
462000.0 1.010941000e+00 4.258410000e-01
489000.0 1.011867000e+00 4.538770000e-01
516000.0 1.012787000e+00 4.841070000e-01
543000.0 1.014307000e+00 5.123640000e-01
570000.0 1.015513000e+00 5.407670000e-01
597000.0 1.017100000e+00 5.686450000e-01
624000.0 1.018838000e+00 5.959490000e-01
651000.0 1.020434000e+00 6.237340000e-01
678000.0 1.022593000e+00 6.496720000e-01
705000.0 1.025425000e+00 6.769030000e-01
732000.0 1.028959000e+00 7.043130000e-01
759000.0 1.031936000e+00 7.314750000e-01
786000.0 1.035682000e+00 7.584810000e-01
813000.0 1.039500000e+00 7.848500000e-01
840000.0 1.044640000e+00 8.104920000e-01
867000.0 1.049156000e+00 8.363230000e-01
894000.0 1.054678000e+00 8.612730000e-01
921000.0 1.061900000e+00 8.876270000e-01
948000.0 1.067553000e+00 9.142780000e-01
975000.0 1.075437000e+00 9.378310000e-01
1002000.0 1.082208000e+00 9.624530000e-01
1029000.0 1.091601000e+00 9.865910000e-01
1056000.0 1.100725000e+00 1.011870000e+00
1083000.0 1.112049000e+00 1.036454000e+00
1110000.0 1.121985000e+00 1.058439000e+00
1137000.0 1.134335000e+00 1.080178000e+00
1164000.0 1.146582000e+00 1.105974000e+00
1191000.0 1.161160000e+00 1.128022000e+00
1218000.0 1.173980000e+00 1.150260000e+00
1245000.0 1.189271000e+00 1.169192000e+00
1272000.0 1.208384000e+00 1.188722000e+00
1299000.0 1.224237000e+00 1.209400000e+00
1326000.0 1.242601000e+00 1.225833000e+00
1353000.0 1.260206000e+00 1.244607000e+00
1380000.0 1.281110000e+00 1.259719000e+00
1407000.0 1.301605000e+00 1.277396000e+00
1434000.0 1.323079000e+00 1.292147000e+00
1461000.0 1.346876000e+00 1.303678000e+00
1488000.0 1.369613000e+00 1.315040000e+00
1515000.0 1.394560000e+00 1.327642000e+00
1542000.0 1.419396000e+00 1.336806000e+00
1569000.0 1.443362000e+00 1.342197000e+00
1596000.0 1.471983000e+00 1.346499000e+00
1623000.0 1.499299000e+00 1.351853000e+00
1650000.0 1.525214000e+00 1.353702000e+00
1677000.0 1.549745000e+00 1.357185000e+00
1704000.0 1.577664000e+00 1.354122000e+00
1731000.0 1.605298000e+00 1.351349000e+00
1758000.0 1.635489000e+00 1.347360000e+00
1785000.0 1.661910000e+00 1.338452000e+00
1812000.0 1.688899000e+00 1.330012000e+00
1839000.0 1.715604000e+00 1.317487000e+00
1866000.0 1.739954000e+00 1.306593000e+00
1893000.0 1.762300000e+00 1.290648000e+00
1920000.0 1.786533000e+00 1.274063000e+00
1947000.0 1.807836000e+00 1.258110000e+00
1974000.0 1.829185000e+00 1.240866000e+00
2001000.0 1.848971000e+00 1.219197000e+00
2028000.0 1.866065000e+00 1.196773000e+00
2055000.0 1.890090000e+00 1.174804000e+00
2082000.0 1.902525000e+00 1.149800000e+00
2109000.0 1.915822000e+00 1.124926000e+00
2136000.0 1.926314000e+00 1.098598000e+00
2163000.0 1.938609000e+00 1.071635000e+00
2190000.0 1.946839000e+00 1.048301000e+00
2217000.0 1.954108000e+00 1.017710000e+00
2244000.0 1.961018000e+00 9.938240000e-01
2271000.0 1.963392000e+00 9.661220000e-01
2298000.0 1.968081000e+00 9.385100000e-01
2325000.0 1.966940000e+00 9.123330000e-01
2352000.0 1.968496000e+00 8.863380000e-01
2379000.0 1.966258000e+00 8.635750000e-01
2406000.0 1.965704000e+00 8.330200000e-01
2433000.0 1.958654000e+00 8.096670000e-01
2460000.0 1.953223000e+00 7.872800000e-01
2487000.0 1.951389000e+00 7.584030000e-01
2514000.0 1.944263000e+00 7.368140000e-01
2541000.0 1.934076000e+00 7.155870000e-01
2568000.0 1.926550000e+00 6.920820000e-01
2595000.0 1.919341000e+00 6.719590000e-01
2622000.0 1.908580000e+00 6.527920000e-01
2649000.0 1.896975000e+00 6.302380000e-01
2676000.0 1.889479000e+00 6.123340000e-01
2703000.0 1.877302000e+00 5.957190000e-01
2730000.0 1.864948000e+00 5.757550000e-01
2757000.0 1.855431000e+00 5.587500000e-01
2784000.0 1.844965000e+00 5.449500000e-01
2811000.0 1.832044000e+00 5.280850000e-01
2838000.0 1.819030000e+00 5.140190000e-01
2865000.0 1.809188000e+00 4.978890000e-01
2892000.0 1.797200000e+00 4.822220000e-01
2919000.0 1.786368000e+00 4.691510000e-01
2946000.0 1.774612000e+00 4.561790000e-01
2973000.0 1.760284000e+00 4.454950000e-01
3000000.0 1.750207000e+00 4.337080000e-01
3270000.0 1.640405000e+00 3.347180000e-01
3540000.0 1.546688000e+00 2.648930000e-01
3810000.0 1.468634000e+00 2.090070000e-01
4080000.0 1.406163000e+00 1.618790000e-01
4350000.0 1.359465000e+00 1.193130000e-01
4620000.0 1.322769000e+00 7.862500000e-02
4890000.0 1.295525000e+00 4.043900000e-02
5160000.0 1.269715000e+00 4.067000000e-03
5430000.0 1.256830000e+00 -3.264700000e-02
5700000.0 1.246639000e+00 -6.786600000e-02
5970000.0 1.238052000e+00 -9.932800000e-02
6240000.0 1.229920000e+00 -1.280510000e-01
6510000.0 1.227281000e+00 -1.516110000e-01
6780000.0 1.221826000e+00 -1.712350000e-01
7050000.0 1.220125000e+00 -1.867840000e-01
7320000.0 1.218819000e+00 -1.918760000e-01
7590000.0 -2.424830000e-01 -1.257552000e+00
7860000.0 -2.391640000e-01 -1.259408000e+00
8130000.0 -2.386670000e-01 -1.262042000e+00
8400000.0 -2.356190000e-01 -1.262002000e+00
8670000.0 -2.334560000e-01 -1.264886000e+00
8940000.0 -2.314410000e-01 -1.266937000e+00
9210000.0 -2.296520000e-01 -1.269863000e+00
9480000.0 -2.276100000e-01 -1.271001000e+00
9750000.0 -2.259710000e-01 -1.274303000e+00
10020000.0 -2.236080000e-01 -1.274027000e+00
10290000.0 -2.218780000e-01 -1.277782000e+00
10560000.0 -2.207050000e-01 -1.281187000e+00
10830000.0 -2.176920000e-01 -1.283108000e+00
11100000.0 -2.171030000e-01 -1.287501000e+00
11370000.0 -2.165940000e-01 -1.289442000e+00
11640000.0 -2.139900000e-01 -1.291889000e+00
11910000.0 -2.124730000e-01 -1.294971000e+00
12180000.0 -2.098920000e-01 -1.298613000e+00
12450000.0 -2.086080000e-01 -1.301186000e+00
12720000.0 -2.061330000e-01 -1.303845000e+00
12990000.0 -2.041240000e-01 -1.308041000e+00
13260000.0 -2.035590000e-01 -1.309544000e+00
13530000.0 -2.014370000e-01 -1.313119000e+00
13800000.0 -1.986610000e-01 -1.317097000e+00
14070000.0 -1.973630000e-01 -1.319554000e+00
14340000.0 -1.962380000e-01 -1.323179000e+00
14610000.0 -1.938910000e-01 -1.327002000e+00
14880000.0 -1.915980000e-01 -1.330235000e+00
15150000.0 -1.911780000e-01 -1.333396000e+00
15420000.0 -1.881170000e-01 -1.338043000e+00
15690000.0 -1.864130000e-01 -1.341082000e+00
15960000.0 -1.842990000e-01 -1.344492000e+00
16230000.0 -1.827070000e-01 -1.348187000e+00
16500000.0 -1.811430000e-01 -1.350907000e+00
16770000.0 -1.785100000e-01 -1.354444000e+00
17040000.0 -1.764880000e-01 -1.358127000e+00
17310000.0 -1.742350000e-01 -1.362104000e+00
17580000.0 -1.731750000e-01 -1.366296000e+00
17850000.0 -1.705790000e-01 -1.368950000e+00
18120000.0 -1.683450000e-01 -1.372380000e+00
18390000.0 -1.655220000e-01 -1.376013000e+00
18660000.0 -1.633570000e-01 -1.379196000e+00
18930000.0 -1.621910000e-01 -1.383833000e+00
19200000.0 -1.580580000e-01 -1.387776000e+00
19470000.0 -1.564230000e-01 -1.391306000e+00
19740000.0 -1.545640000e-01 -1.394312000e+00
20010000.0 -1.528980000e-01 -1.399358000e+00
20280000.0 -1.488130000e-01 -1.402897000e+00
20550000.0 -1.476800000e-01 -1.405897000e+00
20820000.0 -1.448150000e-01 -1.409697000e+00
21090000.0 -1.413300000e-01 -1.413216000e+00
21360000.0 -1.400290000e-01 -1.418622000e+00
21630000.0 -1.376030000e-01 -1.421780000e+00
21900000.0 -1.352830000e-01 -1.425018000e+00
22170000.0 -1.327110000e-01 -1.430673000e+00
22440000.0 -1.291620000e-01 -1.434880000e+00
22710000.0 -1.259720000e-01 -1.438584000e+00
22980000.0 -1.238190000e-01 -1.441240000e+00
23250000.0 -1.199910000e-01 -1.444793000e+00
23520000.0 -1.194170000e-01 -1.450246000e+00
23790000.0 -1.152960000e-01 -1.452522000e+00
24060000.0 -1.122690000e-01 -1.457962000e+00
24330000.0 -1.092870000e-01 -1.461670000e+00
24600000.0 -1.057000000e-01 -1.466699000e+00
24870000.0 -1.038400000e-01 -1.469991000e+00
25140000.0 -1.004600000e-01 -1.474555000e+00
25410000.0 -9.661900000e-02 -1.478637000e+00
25680000.0 -9.340800000e-02 -1.482050000e+00
25950000.0 -9.037500000e-02 -1.487149000e+00
26220000.0 -8.474400000e-02 -1.490707000e+00
26490000.0 -8.355800000e-02 -1.496076000e+00
26760000.0 -7.988000000e-02 -1.499049000e+00
27030000.0 -7.737200000e-02 -1.504022000e+00
27300000.0 -7.248500000e-02 -1.507458000e+00
27570000.0 -6.904300000e-02 -1.510668000e+00
27840000.0 -6.484000000e-02 -1.516206000e+00
28110000.0 -6.193500000e-02 -1.520638000e+00
28380000.0 -5.893400000e-02 -1.523827000e+00
28650000.0 -5.520800000e-02 -1.528647000e+00
28920000.0 -5.112200000e-02 -1.531816000e+00
29190000.0 -4.810500000e-02 -1.536434000e+00
29460000.0 -4.295000000e-02 -1.542016000e+00
29730000.0 -3.938000000e-02 -1.545801000e+00
30000000.0 -3.593000000e-02 -1.550910000e+00
32700000.0 8.148000000e-03 -1.594082000e+00
35400000.0 5.413400000e-02 -1.638346000e+00
38100000.0 1.105450000e-01 -1.681598000e+00
40800000.0 1.712160000e-01 -1.724799000e+00
43500000.0 2.402160000e-01 -1.764337000e+00
46200000.0 3.171670000e-01 -1.802606000e+00
48900000.0 4.038670000e-01 -1.835496000e+00
51600000.0 4.958100000e-01 -1.860775000e+00
54300000.0 5.982310000e-01 -1.878976000e+00
57000000.0 7.069980000e-01 -1.885982000e+00
59700000.0 8.201060000e-01 -1.880059000e+00
62400000.0 9.360280000e-01 -1.859534000e+00
65100000.0 1.055646000e+00 -1.825362000e+00
67800000.0 1.171204000e+00 -1.773476000e+00
70500000.0 1.275619000e+00 -1.704559000e+00
73200000.0 1.376353000e+00 -1.619700000e+00
75900000.0 1.461232000e+00 -1.526913000e+00
78600000.0 1.410073000e+00 -1.523374000e+00
81300000.0 1.588171000e+00 -1.313810000e+00
84000000.0 1.628302000e+00 -1.201068000e+00
86700000.0 1.651569000e+00 -1.089491000e+00
89400000.0 1.662999000e+00 -9.837190000e-01
92100000.0 1.660406000e+00 -8.803560000e-01
94800000.0 1.651629000e+00 -7.838390000e-01
97500000.0 1.632737000e+00 -6.962390000e-01
100200000.0 1.610408000e+00 -6.136270000e-01
102900000.0 1.578182000e+00 -5.401300000e-01
105600000.0 1.543829000e+00 -4.737920000e-01
108300000.0 1.511898000e+00 -4.133300000e-01
111000000.0 1.474279000e+00 -3.585150000e-01
113700000.0 1.436837000e+00 -3.096800000e-01
116400000.0 1.399018000e+00 -2.664230000e-01
119100000.0 1.362583000e+00 -2.276760000e-01
121800000.0 1.324642000e+00 -1.943300000e-01
124500000.0 1.289455000e+00 -1.630420000e-01
127200000.0 1.254280000e+00 -1.362770000e-01
129900000.0 1.219876000e+00 -1.115890000e-01
132600000.0 1.185877000e+00 -8.835500000e-02
135300000.0 1.154913000e+00 -7.227400000e-02
138000000.0 1.125250000e+00 -5.525100000e-02
140700000.0 1.094481000e+00 -4.137700000e-02
143400000.0 1.067048000e+00 -2.785300000e-02
146100000.0 1.038360000e+00 -1.471400000e-02
148800000.0 1.012800000e+00 -2.894000000e-03
151500000.0 9.996380000e-01 1.022000000e-03
154200000.0 9.994150000e-01 -1.110000000e-04
156900000.0 9.993180000e-01 6.100000000e-05
159600000.0 1.001710000e+00 1.354000000e-03
162300000.0 1.001800000e+00 -1.018000000e-03
165000000.0 1.001817000e+00 -1.580000000e-04
167700000.0 1.001825000e+00 9.100000000e-04
170400000.0 1.002500000e+00 -8.690000000e-04
173100000.0 1.002926000e+00 -8.920000000e-04
175800000.0 1.002873000e+00 -1.165000000e-03
178500000.0 1.003510000e+00 -1.060000000e-03
181200000.0 1.005399000e+00 -3.450000000e-04
183900000.0 1.003726000e+00 -6.370000000e-04
186600000.0 1.004382000e+00 -1.828000000e-03
189300000.0 1.005613000e+00 -5.510000000e-04
192000000.0 1.004712000e+00 -1.064000000e-03
194700000.0 1.003850000e+00 -1.057000000e-03
197400000.0 1.005768000e+00 -4.810000000e-04
200100000.0 1.005339000e+00 -6.720000000e-04
202800000.0 1.005366000e+00 -2.018000000e-03
205500000.0 1.005645000e+00 -1.680000000e-03
208200000.0 1.006678000e+00 -1.260000000e-04
210900000.0 1.006359000e+00 -9.280000000e-04
213600000.0 1.005915000e+00 -7.630000000e-04
216300000.0 1.006412000e+00 -2.269000000e-03
219000000.0 1.006536000e+00 -6.410000000e-04
221700000.0 1.004932000e+00 4.990000000e-04
224400000.0 1.005620000e+00 -7.190000000e-04
227100000.0 1.005816000e+00 -3.520000000e-04
229800000.0 1.006059000e+00 -1.358000000e-03
232500000.0 1.007021000e+00 -1.888000000e-03
235200000.0 1.004643000e+00 -8.520000000e-04
237900000.0 1.006401000e+00 -1.885000000e-03
240600000.0 1.005844000e+00 -1.182000000e-03
243300000.0 1.004885000e+00 -1.809000000e-03
246000000.0 1.006025000e+00 -1.095000000e-03
248700000.0 1.007443000e+00 -1.090000000e-03
251400000.0 1.005937000e+00 -8.020000000e-04
254100000.0 1.005862000e+00 -1.064000000e-03
256800000.0 1.005383000e+00 -1.976000000e-03
259500000.0 1.005817000e+00 5.500000000e-05
262200000.0 1.006602000e+00 -7.070000000e-04
264900000.0 1.004930000e+00 -9.850000000e-04
267600000.0 1.005744000e+00 4.030000000e-04
270300000.0 1.005582000e+00 -1.907000000e-03
273000000.0 1.003598000e+00 2.640000000e-04
275700000.0 1.003953000e+00 -3.940000000e-04
278400000.0 1.001097000e+00 -1.006000000e-03
281100000.0 1.003322000e+00 -1.727000000e-03
283800000.0 1.005287000e+00 4.750000000e-04
286500000.0 1.003475000e+00 -1.102000000e-03
289200000.0 1.002198000e+00 -3.300000000e-04
291900000.0 1.003111000e+00 1.550000000e-04
294600000.0 1.006466000e+00 3.290000000e-04
297300000.0 1.003324000e+00 1.473000000e-03
300000000.0 1.000826000e+00 -5.690000000e-04
311500000.0 1.003005000e+00 2.110000000e-04
323000000.0 1.003447000e+00 -3.010000000e-04
334500000.0 1.005263000e+00 4.310000000e-04
346000000.0 1.007684000e+00 8.540000000e-04
357500000.0 1.006968000e+00 2.390000000e-04
369000000.0 1.006334000e+00 -1.660000000e-04
380500000.0 1.006323000e+00 1.422000000e-03
392000000.0 1.006490000e+00 7.480000000e-04
403500000.0 1.005048000e+00 3.731000000e-03
415000000.0 1.002796000e+00 -4.450000000e-04
426500000.0 1.002070000e+00 -8.000000000e-06
438000000.0 1.000266000e+00 5.660000000e-04
449500000.0 9.994720000e-01 1.172000000e-03
461000000.0 1.002849000e+00 2.996000000e-03
472500000.0 1.003710000e+00 2.837000000e-03
484000000.0 1.004292000e+00 4.522000000e-03
495500000.0 1.006435000e+00 5.499000000e-03
507000000.0 1.008002000e+00 7.713000000e-03
518500000.0 1.008938000e+00 7.978000000e-03
530000000.0 1.010204000e+00 5.534000000e-03
541500000.0 1.008159000e+00 7.889000000e-03
553000000.0 1.006478000e+00 8.792000000e-03
564500000.0 1.007520000e+00 7.548000000e-03
576000000.0 1.005056000e+00 3.699000000e-03
587500000.0 1.004253000e+00 8.751000000e-03
599000000.0 1.002655000e+00 4.305000000e-03
610500000.0 1.007181000e+00 1.007700000e-02
622000000.0 1.009001000e+00 9.536000000e-03
633500000.0 1.010122000e+00 6.514000000e-03
645000000.0 1.014201000e+00 1.281100000e-02
656500000.0 1.019973000e+00 1.161500000e-02
668000000.0 1.019280000e+00 9.727000000e-03
679500000.0 1.017755000e+00 7.143000000e-03
691000000.0 1.014207000e+00 7.421000000e-03
702500000.0 1.013912000e+00 3.459000000e-03
714000000.0 1.012249000e+00 6.918000000e-03
725500000.0 1.010202000e+00 7.853000000e-03
737000000.0 1.007970000e+00 5.493000000e-03
748500000.0 9.999200000e-01 2.248000000e-03
760000000.0 1.004496000e+00 3.950000000e-04
771500000.0 1.010575000e+00 -5.120000000e-04
783000000.0 1.012776000e+00 -5.335000000e-03
794500000.0 1.016901000e+00 -4.122000000e-03
806000000.0 1.016452000e+00 -4.160000000e-03
817500000.0 1.019669000e+00 -4.091000000e-03
829000000.0 1.018397000e+00 -7.689000000e-03
840500000.0 1.016957000e+00 -3.633000000e-03
852000000.0 1.013988000e+00 -4.872000000e-03
863500000.0 1.012663000e+00 -5.818000000e-03
875000000.0 1.009221000e+00 -1.874000000e-03
886500000.0 1.001107000e+00 8.170000000e-04
898000000.0 1.002599000e+00 -5.277000000e-03
909500000.0 1.004021000e+00 -2.809000000e-03
921000000.0 1.001980000e+00 -3.899000000e-03
932500000.0 1.004696000e+00 -3.287000000e-03
944000000.0 1.004093000e+00 -8.984000000e-03
955500000.0 1.008403000e+00 -5.237000000e-03
967000000.0 1.006276000e+00 -7.932000000e-03
978500000.0 1.004196000e+00 -7.909000000e-03
990000000.0 1.004650000e+00 -9.598000000e-03
1001500000.0 1.006487000e+00 -1.223500000e-02
1013000000.0 1.002128000e+00 -4.343000000e-03
1024500000.0 1.004527000e+00 -4.000000000e-04
1036000000.0 1.002067000e+00 -2.080000000e-03
1047500000.0 9.964550000e-01 2.810000000e-03
1059000000.0 1.000464000e+00 -2.939000000e-03
1070500000.0 1.000753000e+00 2.785000000e-03
1082000000.0 1.001031000e+00 -2.870000000e-04
1093500000.0 1.001674000e+00 -2.533000000e-03
1105000000.0 1.008566000e+00 -1.620000000e-03
1116500000.0 1.006540000e+00 3.212000000e-03
1128000000.0 1.012497000e+00 -3.463600000e-02
1139500000.0 1.002267000e+00 7.120000000e-04
1151000000.0 1.005587000e+00 -5.462000000e-03
1162500000.0 1.005436000e+00 5.430000000e-04
1174000000.0 1.008817000e+00 -8.267000000e-03
1185500000.0 1.004634000e+00 1.298000000e-03
1197000000.0 1.001567000e+00 -6.197000000e-03
1208500000.0 1.002584000e+00 -8.370000000e-04
1220000000.0 1.003915000e+00 -5.810000000e-03
1231500000.0 1.000801000e+00 -1.610000000e-03
1243000000.0 1.000085000e+00 1.760000000e-04
1254500000.0 1.007779000e+00 5.544000000e-03
1266000000.0 1.005139000e+00 -2.153000000e-03
1277500000.0 1.001657000e+00 -2.366000000e-03
1289000000.0 1.003438000e+00 -2.462000000e-03
1300500000.0 1.007448000e+00 -1.655000000e-03
1312000000.0 9.975130000e-01 8.320000000e-03
1323500000.0 1.002332000e+00 -3.699000000e-03
1335000000.0 1.002173000e+00 -1.508000000e-03
1346500000.0 9.977640000e-01 -2.150000000e-04
1358000000.0 1.001899000e+00 -2.942000000e-03
1369500000.0 9.951500000e-01 3.963000000e-03
1381000000.0 9.968730000e-01 9.423000000e-03
1392500000.0 1.005735000e+00 1.164800000e-02
1404000000.0 1.002347000e+00 3.677700000e-02
1415500000.0 1.007794000e+00 1.031500000e-02
1427000000.0 1.003595000e+00 2.049500000e-02
1438500000.0 1.002777000e+00 1.269500000e-02
1450000000.0 1.003244000e+00 1.863800000e-02
