! piloto_saltos / abierto_continuo / r12
# HZ S RI R 50
50000.0 1.006554000e+00 -7.024100000e-02
59500.0 1.007938000e+00 -5.696500000e-02
69000.0 1.003830000e+00 -4.097600000e-02
78500.0 1.002601000e+00 -2.913200000e-02
88000.0 1.001661000e+00 -1.654500000e-02
97500.0 1.001098000e+00 -4.626000000e-03
107000.0 1.000464000e+00 7.934000000e-03
116500.0 1.000586000e+00 1.981600000e-02
126000.0 9.984060000e-01 3.420600000e-02
135500.0 9.996950000e-01 4.537300000e-02
145000.0 1.001517000e+00 5.714000000e-02
154500.0 1.001953000e+00 6.889100000e-02
164000.0 1.001906000e+00 8.131000000e-02
173500.0 1.002600000e+00 9.266200000e-02
183000.0 1.003043000e+00 1.047110000e-01
192500.0 1.002915000e+00 1.157070000e-01
202000.0 1.003555000e+00 1.283430000e-01
211500.0 1.003548000e+00 1.396860000e-01
221000.0 1.003458000e+00 1.507810000e-01
230500.0 1.003577000e+00 1.625960000e-01
240000.0 1.005205000e+00 1.741060000e-01
249500.0 1.004307000e+00 2.036910000e-01
259000.0 1.004330000e+00 1.972310000e-01
268500.0 1.006110000e+00 2.075940000e-01
278000.0 1.005534000e+00 2.181530000e-01
287500.0 1.005514000e+00 2.291710000e-01
297000.0 1.005205000e+00 2.413960000e-01
306500.0 1.006505000e+00 2.525350000e-01
316000.0 1.006984000e+00 2.627900000e-01
325500.0 1.007324000e+00 2.740810000e-01
335000.0 1.006848000e+00 2.838640000e-01
344500.0 1.007254000e+00 2.952120000e-01
354000.0 1.008414000e+00 3.063030000e-01
363500.0 1.007484000e+00 3.163310000e-01
373000.0 1.008014000e+00 3.275050000e-01
382500.0 1.008218000e+00 3.375830000e-01
392000.0 1.008232000e+00 3.482140000e-01
401500.0 1.008432000e+00 3.586920000e-01
411000.0 1.008863000e+00 3.688250000e-01
420500.0 1.010075000e+00 3.791890000e-01
430000.0 1.009359000e+00 3.902460000e-01
439500.0 1.009846000e+00 3.993780000e-01
449000.0 1.010191000e+00 4.104070000e-01
458500.0 1.010032000e+00 4.202700000e-01
468000.0 1.010461000e+00 4.304080000e-01
477500.0 1.011236000e+00 4.405920000e-01
487000.0 1.010518000e+00 4.509650000e-01
496500.0 1.010596000e+00 4.606690000e-01
506000.0 1.011456000e+00 4.703370000e-01
515500.0 1.012860000e+00 4.811440000e-01
525000.0 1.012312000e+00 4.901970000e-01
534500.0 1.012544000e+00 5.011510000e-01
544000.0 1.014146000e+00 5.105140000e-01
553500.0 1.012838000e+00 5.200850000e-01
563000.0 1.014483000e+00 5.307400000e-01
572500.0 1.014587000e+00 5.403570000e-01
582000.0 1.015674000e+00 5.500740000e-01
591500.0 1.016068000e+00 5.596270000e-01
601000.0 1.015830000e+00 5.695900000e-01
610500.0 1.016653000e+00 5.789360000e-01
620000.0 1.017365000e+00 5.891910000e-01
629500.0 1.018571000e+00 5.990760000e-01
639000.0 1.017945000e+00 6.074950000e-01
648500.0 1.019207000e+00 6.186220000e-01
658000.0 1.019098000e+00 6.266590000e-01
667500.0 1.020913000e+00 6.369610000e-01
677000.0 1.021936000e+00 6.458080000e-01
686500.0 1.021779000e+00 6.567570000e-01
696000.0 1.023185000e+00 6.647000000e-01
705500.0 1.024429000e+00 6.746040000e-01
715000.0 1.025762000e+00 6.848700000e-01
724500.0 1.026717000e+00 6.932850000e-01
734000.0 1.027830000e+00 7.023390000e-01
743500.0 1.028358000e+00 7.113780000e-01
753000.0 1.029104000e+00 7.212750000e-01
762500.0 1.030349000e+00 7.324270000e-01
772000.0 1.031126000e+00 7.404070000e-01
781500.0 1.033276000e+00 7.503540000e-01
791000.0 1.033036000e+00 7.581240000e-01
800500.0 1.035418000e+00 7.677530000e-01
810000.0 1.036515000e+00 7.767570000e-01
819500.0 1.038540000e+00 7.858710000e-01
829000.0 1.040292000e+00 7.947290000e-01
838500.0 1.041636000e+00 8.036740000e-01
848000.0 1.043576000e+00 8.142050000e-01
857500.0 1.045293000e+00 8.235560000e-01
867000.0 1.047135000e+00 8.322160000e-01
876500.0 1.048967000e+00 8.412930000e-01
886000.0 1.049830000e+00 8.503880000e-01
895500.0 1.052742000e+00 8.599320000e-01
905000.0 1.054634000e+00 8.685630000e-01
914500.0 1.055980000e+00 8.775990000e-01
924000.0 1.058473000e+00 8.860810000e-01
933500.0 1.059690000e+00 8.951210000e-01
943000.0 1.063471000e+00 9.031580000e-01
952500.0 1.066739000e+00 9.116360000e-01
962000.0 1.068313000e+00 9.212650000e-01
971500.0 1.069596000e+00 9.300720000e-01
981000.0 1.072374000e+00 9.391320000e-01
990500.0 1.075178000e+00 9.461920000e-01
1000000.0 1.077874000e+00 9.552110000e-01
1090000.0 1.107338000e+00 1.035257000e+00
1180000.0 1.146729000e+00 1.110480000e+00
1270000.0 1.195660000e+00 1.182278000e+00
1360000.0 1.254164000e+00 1.243621000e+00
1450000.0 1.323899000e+00 1.295251000e+00
1540000.0 1.402782000e+00 1.333369000e+00
1630000.0 1.489967000e+00 1.354906000e+00
1720000.0 1.581269000e+00 1.356594000e+00
1810000.0 1.669310000e+00 1.338065000e+00
1900000.0 1.756008000e+00 1.298172000e+00
1990000.0 1.829768000e+00 1.237123000e+00
2080000.0 1.887305000e+00 1.165676000e+00
2170000.0 1.931128000e+00 1.081758000e+00
2260000.0 1.957961000e+00 9.937970000e-01
2350000.0 1.966501000e+00 9.030600000e-01
2440000.0 1.961316000e+00 8.158670000e-01
2530000.0 1.939359000e+00 7.367620000e-01
2620000.0 1.913363000e+00 6.617570000e-01
2710000.0 1.881239000e+00 5.980110000e-01
2800000.0 1.842023000e+00 5.416480000e-01
2890000.0 1.806297000e+00 4.905670000e-01
2980000.0 1.767346000e+00 4.461940000e-01
3070000.0 1.727935000e+00 4.086750000e-01
3160000.0 1.689235000e+00 3.752030000e-01
3250000.0 1.653727000e+00 3.452640000e-01
3340000.0 1.619150000e+00 3.194660000e-01
3430000.0 1.587105000e+00 2.933460000e-01
3520000.0 1.557754000e+00 2.702730000e-01
3610000.0 1.530006000e+00 2.527170000e-01
3700000.0 1.502271000e+00 2.330410000e-01
3790000.0 1.478594000e+00 2.145640000e-01
3880000.0 1.455569000e+00 1.985270000e-01
3970000.0 1.435049000e+00 1.821520000e-01
4060000.0 1.414895000e+00 1.658630000e-01
4150000.0 1.395674000e+00 1.491290000e-01
4240000.0 1.380953000e+00 1.361590000e-01
4330000.0 1.364813000e+00 1.232220000e-01
4420000.0 1.349741000e+00 1.082400000e-01
4510000.0 1.337968000e+00 9.483500000e-02
4600000.0 1.327214000e+00 8.153400000e-02
4690000.0 1.315977000e+00 6.738500000e-02
4780000.0 1.306803000e+00 5.467600000e-02
4870000.0 1.298754000e+00 4.243900000e-02
4960000.0 1.292898000e+00 2.972000000e-02
5050000.0 1.277356000e+00 1.715200000e-02
5140000.0 1.271640000e+00 5.574000000e-03
5230000.0 1.267351000e+00 -8.075000000e-03
5320000.0 1.262768000e+00 -1.906500000e-02
5410000.0 1.259665000e+00 -3.162500000e-02
5500000.0 1.253486000e+00 -4.416000000e-02
5590000.0 1.251765000e+00 -5.407300000e-02
5680000.0 1.249053000e+00 -6.605900000e-02
5770000.0 1.243934000e+00 -7.663700000e-02
5860000.0 1.242278000e+00 -8.779300000e-02
5950000.0 1.240093000e+00 -9.815700000e-02
6040000.0 1.236248000e+00 -1.071510000e-01
6130000.0 1.234799000e+00 -1.176800000e-01
6220000.0 1.231691000e+00 -1.266460000e-01
6310000.0 1.230106000e+00 -1.362380000e-01
6400000.0 1.228264000e+00 -1.434020000e-01
6490000.0 1.227406000e+00 -1.522050000e-01
6580000.0 1.225889000e+00 -1.578100000e-01
6670000.0 1.224867000e+00 -1.655500000e-01
6760000.0 1.223606000e+00 -1.708300000e-01
6850000.0 1.221576000e+00 -1.782110000e-01
6940000.0 1.221341000e+00 -1.815680000e-01
7030000.0 1.220131000e+00 -1.855560000e-01
7120000.0 1.219396000e+00 -1.893570000e-01
7210000.0 1.219023000e+00 -1.912290000e-01
7300000.0 1.219193000e+00 -1.927600000e-01
7390000.0 1.218565000e+00 -1.937520000e-01
7480000.0 1.219708000e+00 -1.935880000e-01
7570000.0 -2.434800000e-01 -1.259402000e+00
7660000.0 -2.432520000e-01 -1.259450000e+00
7750000.0 -2.421450000e-01 -1.259935000e+00
7840000.0 -2.399540000e-01 -1.259770000e+00
7930000.0 -2.407480000e-01 -1.260140000e+00
8020000.0 -2.389740000e-01 -1.260782000e+00
8110000.0 -2.389840000e-01 -1.261258000e+00
8200000.0 -2.373640000e-01 -1.261179000e+00
8290000.0 -2.372920000e-01 -1.261647000e+00
8380000.0 -2.368780000e-01 -1.263627000e+00
8470000.0 -2.354690000e-01 -1.264126000e+00
8560000.0 -2.352070000e-01 -1.263807000e+00
8650000.0 -2.339310000e-01 -1.265266000e+00
8740000.0 -2.324270000e-01 -1.265194000e+00
8830000.0 -2.335470000e-01 -1.266082000e+00
8920000.0 -2.321920000e-01 -1.266838000e+00
9010000.0 -2.326690000e-01 -1.267415000e+00
9100000.0 -2.312720000e-01 -1.268416000e+00
9190000.0 -2.301870000e-01 -1.268555000e+00
9280000.0 -2.291100000e-01 -1.268932000e+00
9370000.0 -2.298480000e-01 -1.270399000e+00
9460000.0 -2.285400000e-01 -1.271714000e+00
9550000.0 -2.269840000e-01 -1.271777000e+00
9640000.0 -2.270670000e-01 -1.272008000e+00
9730000.0 -2.261270000e-01 -1.273589000e+00
9820000.0 -2.257600000e-01 -1.274029000e+00
9910000.0 -2.244730000e-01 -1.275700000e+00
10000000.0 -2.251290000e-01 -1.275027000e+00
10900000.0 -2.191930000e-01 -1.283569000e+00
11800000.0 -2.130660000e-01 -1.293454000e+00
12700000.0 -2.071360000e-01 -1.303898000e+00
13600000.0 -2.010280000e-01 -1.315190000e+00
14500000.0 -1.944960000e-01 -1.326549000e+00
15400000.0 -1.884230000e-01 -1.337229000e+00
16300000.0 -1.811540000e-01 -1.348904000e+00
17200000.0 -1.751380000e-01 -1.360426000e+00
18100000.0 -1.682870000e-01 -1.373407000e+00
19000000.0 -1.613710000e-01 -1.384735000e+00
19900000.0 -1.539780000e-01 -1.397785000e+00
20800000.0 -1.454560000e-01 -1.408742000e+00
21700000.0 -1.367950000e-01 -1.422358000e+00
22600000.0 -1.269660000e-01 -1.436007000e+00
23500000.0 -1.177190000e-01 -1.449639000e+00
24400000.0 -1.081900000e-01 -1.464947000e+00
25300000.0 -9.784100000e-02 -1.477528000e+00
26200000.0 -8.704600000e-02 -1.491861000e+00
27100000.0 -7.560700000e-02 -1.504020000e+00
28000000.0 -6.381400000e-02 -1.519638000e+00
28900000.0 -5.326300000e-02 -1.533886000e+00
29800000.0 -4.015100000e-02 -1.546758000e+00
30700000.0 -2.668200000e-02 -1.562077000e+00
31600000.0 -1.128500000e-02 -1.576120000e+00
32500000.0 4.338000000e-03 -1.591231000e+00
33400000.0 1.912600000e-02 -1.606807000e+00
34300000.0 3.480500000e-02 -1.620757000e+00
35200000.0 5.236200000e-02 -1.636618000e+00
36100000.0 6.921000000e-02 -1.650279000e+00
37000000.0 8.750900000e-02 -1.664321000e+00
37900000.0 1.060460000e-01 -1.680562000e+00
38800000.0 1.243140000e-01 -1.694440000e+00
39700000.0 1.456930000e-01 -1.707258000e+00
40600000.0 1.667750000e-01 -1.721581000e+00
41500000.0 1.876720000e-01 -1.736377000e+00
42400000.0 2.118290000e-01 -1.750165000e+00
43300000.0 2.368450000e-01 -1.763841000e+00
44200000.0 2.581620000e-01 -1.775864000e+00
45100000.0 2.858920000e-01 -1.788451000e+00
46000000.0 3.108080000e-01 -1.800743000e+00
46900000.0 3.384790000e-01 -1.812854000e+00
47800000.0 3.675540000e-01 -1.824031000e+00
48700000.0 3.942390000e-01 -1.833611000e+00
49600000.0 4.281630000e-01 -1.843137000e+00
50500000.0 4.593730000e-01 -1.852880000e+00
51400000.0 4.897510000e-01 -1.860117000e+00
52300000.0 5.232020000e-01 -1.867708000e+00
53200000.0 5.553150000e-01 -1.872926000e+00
54100000.0 5.913390000e-01 -1.878373000e+00
55000000.0 6.247130000e-01 -1.882591000e+00
55900000.0 6.597170000e-01 -1.884176000e+00
56800000.0 6.969580000e-01 -1.885873000e+00
57700000.0 7.347810000e-01 -1.886212000e+00
58600000.0 7.722520000e-01 -1.883734000e+00
59500000.0 8.097920000e-01 -1.882187000e+00
60400000.0 8.504820000e-01 -1.876084000e+00
61300000.0 8.880800000e-01 -1.870087000e+00
62200000.0 9.280530000e-01 -1.862427000e+00
63100000.0 9.672500000e-01 -1.853506000e+00
64000000.0 1.004623000e+00 -1.840977000e+00
64900000.0 1.046037000e+00 -1.827525000e+00
65800000.0 1.084949000e+00 -1.811913000e+00
66700000.0 1.124236000e+00 -1.796097000e+00
67600000.0 1.158219000e+00 -1.776289000e+00
68500000.0 1.198142000e+00 -1.754628000e+00
69400000.0 1.235022000e+00 -1.732554000e+00
70300000.0 1.270287000e+00 -1.710874000e+00
71200000.0 1.302589000e+00 -1.685137000e+00
72100000.0 1.336776000e+00 -1.655675000e+00
73000000.0 1.369750000e+00 -1.627319000e+00
73900000.0 1.399104000e+00 -1.598040000e+00
74800000.0 1.430133000e+00 -1.566766000e+00
75700000.0 1.455972000e+00 -1.533964000e+00
76600000.0 1.483626000e+00 -1.502186000e+00
77500000.0 1.505610000e+00 -1.466449000e+00
78400000.0 1.527503000e+00 -1.431564000e+00
79300000.0 1.549604000e+00 -1.394719000e+00
80200000.0 1.567254000e+00 -1.359689000e+00
81100000.0 1.584505000e+00 -1.322691000e+00
82000000.0 1.598355000e+00 -1.286437000e+00
82900000.0 1.611648000e+00 -1.249223000e+00
83800000.0 1.624314000e+00 -1.209657000e+00
84700000.0 1.637655000e+00 -1.174251000e+00
85600000.0 1.642707000e+00 -1.135968000e+00
86500000.0 1.650272000e+00 -1.098038000e+00
87400000.0 1.656890000e+00 -1.063673000e+00
88300000.0 1.660979000e+00 -1.028000000e+00
89200000.0 1.663475000e+00 -9.898570000e-01
90100000.0 1.663912000e+00 -9.543850000e-01
91000000.0 1.647750000e+00 -9.517300000e-01
91900000.0 1.664267000e+00 -8.880520000e-01
92800000.0 1.660735000e+00 -8.565180000e-01
93700000.0 1.657518000e+00 -8.230230000e-01
94600000.0 1.652758000e+00 -7.915640000e-01
95500000.0 1.647799000e+00 -7.600010000e-01
96400000.0 1.642198000e+00 -7.311520000e-01
97300000.0 1.633996000e+00 -7.009180000e-01
98200000.0 1.627044000e+00 -6.737320000e-01
99100000.0 1.620107000e+00 -6.449680000e-01
100000000.0 1.610492000e+00 -6.202530000e-01
109000000.0 1.502898000e+00 -3.988800000e-01
118000000.0 1.376260000e+00 -2.436290000e-01
127000000.0 1.257784000e+00 -1.390490000e-01
136000000.0 1.147987000e+00 -6.972000000e-02
145000000.0 1.049189000e+00 -1.971100000e-02
154000000.0 9.998940000e-01 6.910000000e-04
163000000.0 1.001643000e+00 -4.320000000e-04
172000000.0 1.002383000e+00 3.000000000e-06
181000000.0 1.003832000e+00 -2.070000000e-04
190000000.0 1.004755000e+00 -1.075000000e-03
199000000.0 1.005348000e+00 -1.391000000e-03
208000000.0 1.005012000e+00 -2.186000000e-03
217000000.0 1.005961000e+00 -2.359000000e-03
226000000.0 1.006355000e+00 -1.520000000e-03
235000000.0 1.006359000e+00 -1.227000000e-03
244000000.0 1.005898000e+00 -4.350000000e-04
253000000.0 1.005615000e+00 -6.190000000e-04
262000000.0 1.005272000e+00 -3.620000000e-04
271000000.0 1.003896000e+00 -8.710000000e-04
280000000.0 1.003531000e+00 4.050000000e-04
289000000.0 1.002517000e+00 -9.480000000e-04
298000000.0 1.002856000e+00 -2.290000000e-04
307000000.0 1.002818000e+00 -1.050000000e-04
316000000.0 1.003183000e+00 9.990000000e-04
325000000.0 1.005391000e+00 1.181000000e-03
334000000.0 1.005960000e+00 4.370000000e-04
343000000.0 1.007177000e+00 8.800000000e-05
352000000.0 1.005627000e+00 -9.620000000e-04
361000000.0 1.006319000e+00 3.640000000e-04
370000000.0 1.005860000e+00 1.462000000e-03
379000000.0 9.983950000e-01 -3.365500000e-02
388000000.0 1.007743000e+00 1.881100000e-02
397000000.0 1.004429000e+00 -1.536000000e-03
406000000.0 1.005389000e+00 1.654000000e-03
415000000.0 1.004980000e+00 1.343000000e-03
424000000.0 1.010340000e+00 3.766300000e-02
433000000.0 1.003559000e+00 2.212000000e-03
442000000.0 9.996800000e-01 -1.750800000e-02
451000000.0 1.000327000e+00 2.401000000e-03
460000000.0 1.001241000e+00 1.929600000e-02
469000000.0 1.002957000e+00 1.586000000e-03
478000000.0 1.003129000e+00 -1.570500000e-02
487000000.0 1.005210000e+00 3.913000000e-03
496000000.0 1.008278000e+00 2.391300000e-02
505000000.0 1.007764000e+00 4.345000000e-03
514000000.0 1.008756000e+00 4.503000000e-03
523000000.0 1.008822000e+00 6.219000000e-03
532000000.0 1.008515000e+00 5.805000000e-03
541000000.0 1.010085000e+00 1.019400000e-02
550000000.0 1.010124000e+00 7.794000000e-03
559000000.0 1.007270000e+00 5.604000000e-03
568000000.0 1.007624000e+00 7.387000000e-03
577000000.0 1.007310000e+00 8.805000000e-03
586000000.0 1.003556000e+00 7.063000000e-03
595000000.0 1.001684000e+00 8.537000000e-03
604000000.0 1.005755000e+00 7.163000000e-03
613000000.0 1.005006000e+00 6.197000000e-03
622000000.0 1.010036000e+00 6.312000000e-03
631000000.0 1.008644000e+00 9.150000000e-03
640000000.0 1.014787000e+00 8.883000000e-03
649000000.0 1.014790000e+00 4.715000000e-03
658000000.0 1.014322000e+00 6.161000000e-03
667000000.0 1.012150000e+00 7.048000000e-03
676000000.0 1.016254000e+00 3.316000000e-03
685000000.0 1.016963000e+00 8.718000000e-03
694000000.0 1.015070000e+00 7.291000000e-03
703000000.0 1.017335000e+00 8.969000000e-03
712000000.0 1.012654000e+00 1.210000000e-03
721000000.0 1.011873000e+00 5.460000000e-03
730000000.0 1.007987000e+00 4.817000000e-03
739000000.0 1.004948000e+00 8.850000000e-04
748000000.0 1.000343000e+00 4.820000000e-04
757000000.0 1.001970000e+00 7.420000000e-04
766000000.0 1.008450000e+00 -8.040000000e-04
775000000.0 1.010300000e+00 -3.738000000e-03
784000000.0 1.012275000e+00 -4.595000000e-03
793000000.0 1.013089000e+00 -3.527000000e-03
802000000.0 1.017297000e+00 -4.375000000e-03
811000000.0 1.018630000e+00 -4.542000000e-03
820000000.0 1.018520000e+00 -8.960000000e-03
829000000.0 1.019604000e+00 -8.324000000e-03
838000000.0 1.016989000e+00 -8.213000000e-03
847000000.0 1.015421000e+00 -3.676000000e-03
856000000.0 1.014613000e+00 -5.715000000e-03
865000000.0 1.012628000e+00 -7.801000000e-03
874000000.0 1.009248000e+00 -9.050000000e-04
883000000.0 1.007460000e+00 -4.116000000e-03
892000000.0 1.005302000e+00 -1.481000000e-03
901000000.0 9.999080000e-01 1.717000000e-03
910000000.0 1.000971000e+00 -4.533000000e-03
919000000.0 1.001506000e+00 -2.908000000e-03
928000000.0 1.004353000e+00 -1.062300000e-02
937000000.0 1.006452000e+00 -7.600000000e-03
946000000.0 1.004593000e+00 -5.919000000e-03
955000000.0 1.004614000e+00 -8.490000000e-03
964000000.0 1.006634000e+00 -7.498000000e-03
973000000.0 1.005817000e+00 -7.752000000e-03
982000000.0 1.005563000e+00 -8.079000000e-03
991000000.0 1.002941000e+00 -1.096000000e-02
1000000000.0 1.003953000e+00 -7.006000000e-03
1004500000.0 1.002784000e+00 -5.428000000e-03
1009000000.0 1.003887000e+00 -1.201200000e-02
1013500000.0 1.003760000e+00 -5.435000000e-03
1018000000.0 1.000902000e+00 -6.314000000e-03
1022500000.0 1.004545000e+00 -3.852000000e-03
1027000000.0 1.004870000e+00 -9.925000000e-03
1031500000.0 1.002030000e+00 -5.563000000e-03
1036000000.0 9.993900000e-01 -4.762000000e-03
1040500000.0 9.996810000e-01 -5.782000000e-03
1045000000.0 9.969830000e-01 -2.872000000e-03
1049500000.0 9.986990000e-01 2.517000000e-03
1054000000.0 9.982190000e-01 7.960000000e-04
1058500000.0 9.950750000e-01 1.082000000e-03
1063000000.0 9.991520000e-01 -2.631000000e-03
1067500000.0 1.001660000e+00 -5.903000000e-03
1072000000.0 9.976440000e-01 3.000000000e-05
1076500000.0 1.001239000e+00 -1.356000000e-03
1081000000.0 1.000727000e+00 -1.984000000e-03
1085500000.0 1.001466000e+00 -2.398000000e-03
1090000000.0 9.992280000e-01 1.924000000e-03
1094500000.0 1.009602000e+00 -1.394000000e-03
1099000000.0 1.000255000e+00 -1.356000000e-03
1103500000.0 1.001194000e+00 -1.388000000e-03
1108000000.0 1.001680000e+00 -2.206000000e-03
1112500000.0 1.006828000e+00 -3.137000000e-03
1117000000.0 1.005939000e+00 -4.574000000e-03
1121500000.0 1.001199000e+00 -6.897000000e-03
1126000000.0 1.016184000e+00 7.237900000e-02
1130500000.0 9.983720000e-01 -5.850000000e-03
1135000000.0 1.009115000e+00 -4.811000000e-03
1139500000.0 1.001963000e+00 -7.033000000e-03
1144000000.0 1.008518000e+00 1.578500000e-02
1148500000.0 1.006789000e+00 1.181000000e-03
1153000000.0 9.978680000e-01 -8.068000000e-03
1157500000.0 9.997900000e-01 -7.255000000e-03
1162000000.0 1.016213000e+00 3.114900000e-02
1166500000.0 1.006321000e+00 -6.922000000e-03
1171000000.0 1.003370000e+00 2.048000000e-03
1175500000.0 1.001831000e+00 -8.152000000e-03
1180000000.0 1.004190000e+00 -1.294000000e-03
1184500000.0 1.004674000e+00 -1.545000000e-03
1189000000.0 1.001663000e+00 1.137000000e-03
1193500000.0 1.007437000e+00 -7.256000000e-03
1198000000.0 1.000590000e+00 -4.603000000e-03
1202500000.0 1.008870000e+00 -5.684000000e-03
1207000000.0 1.002871000e+00 3.564000000e-03
1211500000.0 1.004337000e+00 -1.677000000e-03
1216000000.0 1.003917000e+00 -4.381000000e-03
1220500000.0 1.007950000e+00 5.986000000e-03
1225000000.0 9.974900000e-01 -4.310000000e-03
1229500000.0 1.010426000e+00 3.267000000e-03
1234000000.0 1.001808000e+00 -2.841000000e-03
1238500000.0 9.992500000e-01 -6.528000000e-03
1243000000.0 1.002431000e+00 -1.123400000e-02
1247500000.0 1.002525000e+00 3.306000000e-03
1252000000.0 1.005944000e+00 -8.045000000e-03
1256500000.0 1.000897000e+00 -8.323000000e-03
1261000000.0 9.972030000e-01 -6.444000000e-03
1265500000.0 1.002500000e+00 -2.720000000e-03
1270000000.0 1.005941000e+00 4.211000000e-03
1274500000.0 1.001738000e+00 3.719000000e-03
1279000000.0 1.009452000e+00 3.292000000e-03
1283500000.0 1.003700000e+00 -2.257000000e-03
1288000000.0 1.002271000e+00 -7.439000000e-03
1292500000.0 1.001222000e+00 -4.526000000e-03
1297000000.0 1.000459000e+00 -7.935000000e-03
1301500000.0 1.004192000e+00 1.016000000e-03
1306000000.0 1.000290000e+00 -6.080000000e-03
1310500000.0 1.004161000e+00 4.804000000e-03
1315000000.0 1.002784000e+00 3.699000000e-03
1319500000.0 9.987840000e-01 5.429000000e-03
1324000000.0 1.000984000e+00 1.958000000e-03
1328500000.0 1.001839000e+00 8.613000000e-03
1333000000.0 1.005791000e+00 6.994000000e-03
1337500000.0 1.007635000e+00 1.146200000e-02
1342000000.0 1.005671000e+00 2.851000000e-03
1346500000.0 1.000197000e+00 5.326000000e-03
1351000000.0 1.004876000e+00 6.528000000e-03
1355500000.0 1.003304000e+00 1.952000000e-03
1360000000.0 1.005991000e+00 1.017900000e-02
1364500000.0 1.007383000e+00 -3.086000000e-03
1369000000.0 1.007912000e+00 9.908000000e-03
1373500000.0 1.001980000e+00 5.278000000e-03
1378000000.0 9.988260000e-01 1.217900000e-02
1382500000.0 1.007917000e+00 1.098700000e-02
1387000000.0 1.001072000e+00 1.152100000e-02
1391500000.0 9.998810000e-01 1.466800000e-02
1396000000.0 1.004914000e+00 7.756000000e-03
1400500000.0 1.000407000e+00 3.554000000e-03
1405000000.0 1.002319000e+00 1.481300000e-02
1409500000.0 1.009372000e+00 9.031000000e-03
1414000000.0 9.997090000e-01 1.882800000e-02
1418500000.0 1.004630000e+00 1.100800000e-02
1423000000.0 1.004949000e+00 1.733000000e-02
1427500000.0 1.004489000e+00 2.331700000e-02
1432000000.0 1.001821000e+00 1.616900000e-02
1436500000.0 1.001492000e+00 1.905800000e-02
1441000000.0 9.991960000e-01 1.380200000e-02
1445500000.0 1.003191000e+00 1.575400000e-02
1450000000.0 1.002142000e+00 1.079100000e-02
