! piloto_saltos / abierto_tramosA / r01
# HZ S RI R 50
50000.0 1.007431000e+00 -7.020900000e-02
59500.0 1.006754000e+00 -5.574400000e-02
69000.0 1.003992000e+00 -4.202300000e-02
78500.0 1.002284000e+00 -2.927200000e-02
88000.0 1.001902000e+00 -1.634600000e-02
97500.0 9.998860000e-01 -4.226000000e-03
107000.0 1.000861000e+00 8.656000000e-03
116500.0 1.000668000e+00 2.113100000e-02
126000.0 9.994440000e-01 3.307900000e-02
135500.0 1.000954000e+00 4.647100000e-02
145000.0 1.000682000e+00 5.846300000e-02
154500.0 1.001288000e+00 7.049100000e-02
164000.0 1.002251000e+00 8.253300000e-02
173500.0 1.002898000e+00 9.367600000e-02
183000.0 1.002538000e+00 1.064210000e-01
192500.0 1.003404000e+00 1.182650000e-01
202000.0 1.003743000e+00 1.291900000e-01
211500.0 1.004169000e+00 1.412850000e-01
221000.0 1.004230000e+00 1.527100000e-01
230500.0 1.004688000e+00 1.649900000e-01
240000.0 1.005920000e+00 1.761380000e-01
249500.0 1.005139000e+00 1.868960000e-01
259000.0 1.005937000e+00 1.980820000e-01
268500.0 1.006155000e+00 2.105610000e-01
278000.0 1.005037000e+00 2.203780000e-01
287500.0 1.004905000e+00 2.319810000e-01
297000.0 1.006172000e+00 2.429390000e-01
306500.0 1.007643000e+00 2.537130000e-01
316000.0 1.007904000e+00 2.644830000e-01
325500.0 1.007615000e+00 2.760200000e-01
335000.0 1.007833000e+00 2.866300000e-01
344500.0 1.008022000e+00 2.968920000e-01
354000.0 1.007918000e+00 3.078080000e-01
363500.0 1.008557000e+00 3.186500000e-01
373000.0 1.008224000e+00 3.288890000e-01
382500.0 1.008415000e+00 3.405460000e-01
392000.0 1.008684000e+00 3.507850000e-01
401500.0 1.009927000e+00 3.610450000e-01
411000.0 1.009890000e+00 3.718570000e-01
420500.0 1.009668000e+00 3.818460000e-01
430000.0 1.010035000e+00 3.921060000e-01
439500.0 1.010402000e+00 4.025320000e-01
449000.0 1.011674000e+00 4.132290000e-01
458500.0 1.011523000e+00 4.228750000e-01
468000.0 1.011373000e+00 4.323730000e-01
477500.0 1.011739000e+00 4.438950000e-01
487000.0 1.012639000e+00 4.542090000e-01
496500.0 1.012164000e+00 4.648020000e-01
506000.0 1.013239000e+00 4.742510000e-01
515500.0 1.014178000e+00 4.844890000e-01
525000.0 1.014263000e+00 4.940540000e-01
534500.0 1.014679000e+00 5.038510000e-01
544000.0 1.015694000e+00 5.138650000e-01
553500.0 1.014883000e+00 5.253100000e-01
563000.0 1.016548000e+00 5.340050000e-01
572500.0 1.016531000e+00 5.431940000e-01
582000.0 1.016331000e+00 5.531870000e-01
591500.0 1.017057000e+00 5.629570000e-01
601000.0 1.016935000e+00 5.735830000e-01
610500.0 1.017985000e+00 5.824350000e-01
620000.0 1.018767000e+00 5.921280000e-01
629500.0 1.019862000e+00 6.033680000e-01
639000.0 1.019711000e+00 6.116120000e-01
648500.0 1.022136000e+00 6.219130000e-01
658000.0 1.022150000e+00 6.299100000e-01
667500.0 1.023445000e+00 6.405380000e-01
677000.0 1.024197000e+00 6.509180000e-01
686500.0 1.024270000e+00 6.600620000e-01
696000.0 1.025760000e+00 6.697730000e-01
705500.0 1.027157000e+00 6.789480000e-01
715000.0 1.028219000e+00 6.886800000e-01
724500.0 1.028982000e+00 6.979320000e-01
734000.0 1.029457000e+00 7.076300000e-01
743500.0 1.030942000e+00 7.168020000e-01
753000.0 1.031052000e+00 7.267790000e-01
762500.0 1.032053000e+00 7.348220000e-01
772000.0 1.034359000e+00 7.455850000e-01
781500.0 1.037030000e+00 7.543480000e-01
791000.0 1.035640000e+00 7.632130000e-01
800500.0 1.038323000e+00 7.736240000e-01
810000.0 1.040364000e+00 7.817650000e-01
819500.0 1.041252000e+00 7.914930000e-01
829000.0 1.042980000e+00 8.003580000e-01
838500.0 1.044910000e+00 8.089650000e-01
848000.0 1.045875000e+00 8.200140000e-01
857500.0 1.047898000e+00 8.280900000e-01
867000.0 1.050619000e+00 8.374210000e-01
876500.0 1.052936000e+00 8.463620000e-01
886000.0 1.053756000e+00 8.557340000e-01
895500.0 1.055551000e+00 8.659230000e-01
905000.0 1.058598000e+00 8.727080000e-01
914500.0 1.062617000e+00 8.831960000e-01
924000.0 1.063972000e+00 8.922510000e-01
933500.0 1.065039000e+00 9.020060000e-01
943000.0 1.068628000e+00 9.102340000e-01
952500.0 1.069720000e+00 9.189100000e-01
962000.0 1.072712000e+00 9.275920000e-01
971500.0 1.074696000e+00 9.352810000e-01
981000.0 1.077974000e+00 9.442720000e-01
990500.0 1.080193000e+00 9.526790000e-01
1000000.0 1.083520000e+00 9.614610000e-01
1090000.0 1.128852000e+00 1.021882000e+00
1180000.0 1.138261000e+00 1.141722000e+00
1270000.0 1.205644000e+00 1.189300000e+00
1360000.0 1.246505000e+00 1.273941000e+00
1450000.0 1.337520000e+00 1.302203000e+00
1540000.0 1.417853000e+00 1.338264000e+00
1630000.0 1.507302000e+00 1.356354000e+00
1720000.0 1.598886000e+00 1.352044000e+00
1810000.0 1.688699000e+00 1.332205000e+00
1900000.0 1.774436000e+00 1.288337000e+00
1990000.0 1.846431000e+00 1.226433000e+00
2080000.0 1.906522000e+00 1.150089000e+00
2170000.0 1.946646000e+00 1.063412000e+00
2260000.0 1.964938000e+00 9.714400000e-01
2350000.0 1.968776000e+00 8.829000000e-01
2440000.0 1.961742000e+00 7.988540000e-01
2530000.0 1.939458000e+00 7.191380000e-01
2620000.0 1.907377000e+00 6.491190000e-01
2710000.0 1.874313000e+00 5.866740000e-01
2800000.0 1.838049000e+00 5.304360000e-01
2890000.0 1.794944000e+00 4.813770000e-01
2980000.0 1.758697000e+00 4.400630000e-01
3070000.0 1.720568000e+00 4.011700000e-01
3160000.0 1.681834000e+00 3.724580000e-01
3250000.0 1.647799000e+00 3.416750000e-01
3340000.0 1.613166000e+00 3.149780000e-01
3430000.0 1.581880000e+00 2.916050000e-01
3520000.0 1.551324000e+00 2.695570000e-01
3610000.0 1.523895000e+00 2.512390000e-01
3700000.0 1.496678000e+00 2.317160000e-01
3790000.0 1.473820000e+00 2.140980000e-01
3880000.0 1.452014000e+00 1.973230000e-01
3970000.0 1.430389000e+00 1.811000000e-01
4060000.0 1.412174000e+00 1.653300000e-01
4150000.0 1.392568000e+00 1.522890000e-01
4240000.0 1.377381000e+00 1.376770000e-01
4330000.0 1.362002000e+00 1.223180000e-01
4420000.0 1.348284000e+00 1.076670000e-01
4510000.0 1.335244000e+00 9.699800000e-02
4600000.0 1.324339000e+00 8.383900000e-02
4690000.0 1.314168000e+00 6.932900000e-02
4780000.0 1.304381000e+00 5.620300000e-02
4870000.0 1.297200000e+00 4.202600000e-02
4960000.0 1.289409000e+00 2.976400000e-02
5050000.0 1.275088000e+00 1.844400000e-02
5140000.0 1.270185000e+00 5.334000000e-03
5230000.0 1.266451000e+00 -6.242000000e-03
5320000.0 1.261246000e+00 -1.933100000e-02
5410000.0 1.257495000e+00 -3.038400000e-02
5500000.0 1.253280000e+00 -4.268300000e-02
5590000.0 1.251018000e+00 -5.291800000e-02
5680000.0 1.247671000e+00 -6.443300000e-02
5770000.0 1.243572000e+00 -7.547600000e-02
5860000.0 1.240866000e+00 -8.673500000e-02
5950000.0 1.238187000e+00 -9.711100000e-02
6040000.0 1.235170000e+00 -1.077760000e-01
6130000.0 1.233328000e+00 -1.170160000e-01
6220000.0 1.231332000e+00 -1.255690000e-01
6310000.0 1.230264000e+00 -1.354130000e-01
6400000.0 1.227181000e+00 -1.423610000e-01
6490000.0 1.226277000e+00 -1.509330000e-01
6580000.0 1.224527000e+00 -1.588120000e-01
6670000.0 1.223438000e+00 -1.663260000e-01
6760000.0 1.222169000e+00 -1.711750000e-01
6850000.0 1.220028000e+00 -1.764540000e-01
6940000.0 1.220923000e+00 -1.815450000e-01
7030000.0 1.219543000e+00 -1.852190000e-01
7120000.0 1.218848000e+00 -1.891700000e-01
7210000.0 1.219337000e+00 -1.917860000e-01
7300000.0 1.219280000e+00 -1.920980000e-01
7390000.0 1.219541000e+00 -1.928030000e-01
7480000.0 1.219826000e+00 -1.928630000e-01
7570000.0 -2.420940000e-01 -1.259850000e+00
7660000.0 -2.404290000e-01 -1.258718000e+00
7750000.0 -2.411110000e-01 -1.259413000e+00
7840000.0 -2.406780000e-01 -1.259842000e+00
7930000.0 -2.390550000e-01 -1.259691000e+00
8020000.0 -2.392240000e-01 -1.260727000e+00
8110000.0 -2.378300000e-01 -1.260683000e+00
8200000.0 -2.368350000e-01 -1.261853000e+00
8290000.0 -2.360500000e-01 -1.262619000e+00
8380000.0 -2.360810000e-01 -1.263108000e+00
8470000.0 -2.352490000e-01 -1.262547000e+00
8560000.0 -2.336710000e-01 -1.263855000e+00
8650000.0 -2.339440000e-01 -1.265960000e+00
8740000.0 -2.331950000e-01 -1.265381000e+00
8830000.0 -2.328990000e-01 -1.264912000e+00
8920000.0 -2.315040000e-01 -1.265926000e+00
9010000.0 -2.316500000e-01 -1.267254000e+00
9100000.0 -2.297950000e-01 -1.267349000e+00
9190000.0 -2.300070000e-01 -1.268592000e+00
9280000.0 -2.288820000e-01 -1.269427000e+00
9370000.0 -2.279690000e-01 -1.270359000e+00
9460000.0 -2.279080000e-01 -1.270988000e+00
9550000.0 -2.274720000e-01 -1.271902000e+00
9640000.0 -2.267290000e-01 -1.272840000e+00
9730000.0 -2.264150000e-01 -1.272996000e+00
9820000.0 -2.252880000e-01 -1.273996000e+00
9910000.0 -2.246310000e-01 -1.275305000e+00
10000000.0 -2.248280000e-01 -1.274677000e+00
10900000.0 -2.182770000e-01 -1.284182000e+00
11800000.0 -2.123650000e-01 -1.293579000e+00
12700000.0 -2.068830000e-01 -1.303379000e+00
13600000.0 -2.015450000e-01 -1.315355000e+00
14500000.0 -1.947270000e-01 -1.325380000e+00
15400000.0 -1.889370000e-01 -1.336474000e+00
16300000.0 -1.828890000e-01 -1.349194000e+00
17200000.0 -1.746380000e-01 -1.360607000e+00
18100000.0 -1.692170000e-01 -1.371639000e+00
19000000.0 -1.610460000e-01 -1.385307000e+00
19900000.0 -1.528990000e-01 -1.396844000e+00
20800000.0 -1.444410000e-01 -1.409832000e+00
21700000.0 -1.368670000e-01 -1.421375000e+00
22600000.0 -1.274720000e-01 -1.436432000e+00
23500000.0 -1.184100000e-01 -1.449948000e+00
24400000.0 -1.084830000e-01 -1.463419000e+00
25300000.0 -9.929100000e-02 -1.477153000e+00
26200000.0 -8.722200000e-02 -1.489459000e+00
27100000.0 -7.650900000e-02 -1.504516000e+00
28000000.0 -6.426200000e-02 -1.518387000e+00
28900000.0 -5.099100000e-02 -1.533828000e+00
29800000.0 -1.105200000e-02 -1.550583000e+00
30700000.0 -2.560900000e-02 -1.561674000e+00
31600000.0 1.696700000e-02 -1.579230000e+00
32500000.0 -2.527500000e-02 -1.588181000e+00
33400000.0 4.879500000e-02 -1.607770000e+00
34300000.0 3.680000000e-03 -1.617953000e+00
35200000.0 8.320700000e-02 -1.636096000e+00
36100000.0 7.084700000e-02 -1.650732000e+00
37000000.0 8.614500000e-02 -1.664206000e+00
37900000.0 1.061660000e-01 -1.679451000e+00
38800000.0 1.258260000e-01 -1.694676000e+00
39700000.0 1.460330000e-01 -1.709297000e+00
40600000.0 1.676110000e-01 -1.721423000e+00
41500000.0 1.890850000e-01 -1.736593000e+00
42400000.0 2.114280000e-01 -1.749456000e+00
43300000.0 2.361870000e-01 -1.762977000e+00
44200000.0 2.588170000e-01 -1.775186000e+00
45100000.0 2.852550000e-01 -1.789194000e+00
46000000.0 3.116800000e-01 -1.800330000e+00
46900000.0 3.386110000e-01 -1.811689000e+00
47800000.0 3.686900000e-01 -1.822297000e+00
48700000.0 3.967300000e-01 -1.832242000e+00
49600000.0 4.266570000e-01 -1.841866000e+00
50500000.0 4.591780000e-01 -1.852217000e+00
51400000.0 4.874620000e-01 -1.861700000e+00
52300000.0 5.207560000e-01 -1.866506000e+00
53200000.0 5.549010000e-01 -1.872548000e+00
54100000.0 5.909480000e-01 -1.878600000e+00
55000000.0 6.240510000e-01 -1.882059000e+00
55900000.0 6.609540000e-01 -1.884511000e+00
56800000.0 6.966360000e-01 -1.885055000e+00
57700000.0 7.346250000e-01 -1.885070000e+00
58600000.0 7.752720000e-01 -1.883367000e+00
59500000.0 8.088820000e-01 -1.880197000e+00
60400000.0 8.509450000e-01 -1.876857000e+00
61300000.0 8.884040000e-01 -1.868761000e+00
62200000.0 9.287290000e-01 -1.863455000e+00
63100000.0 9.669360000e-01 -1.852863000e+00
64000000.0 1.005460000e+00 -1.840439000e+00
64900000.0 1.043692000e+00 -1.826339000e+00
65800000.0 1.082427000e+00 -1.812484000e+00
66700000.0 1.121928000e+00 -1.796215000e+00
67600000.0 1.159206000e+00 -1.776025000e+00
68500000.0 1.198259000e+00 -1.756011000e+00
69400000.0 1.231943000e+00 -1.734549000e+00
70300000.0 1.267342000e+00 -1.708249000e+00
71200000.0 1.302835000e+00 -1.683920000e+00
72100000.0 1.333842000e+00 -1.658387000e+00
73000000.0 1.368033000e+00 -1.628489000e+00
73900000.0 1.397001000e+00 -1.598837000e+00
74800000.0 1.427256000e+00 -1.565239000e+00
75700000.0 1.455244000e+00 -1.535008000e+00
76600000.0 1.479098000e+00 -1.502428000e+00
77500000.0 1.505790000e+00 -1.466890000e+00
78400000.0 1.525824000e+00 -1.432275000e+00
79300000.0 1.549437000e+00 -1.395267000e+00
80200000.0 1.567814000e+00 -1.358254000e+00
81100000.0 1.583942000e+00 -1.320300000e+00
82000000.0 1.600657000e+00 -1.285580000e+00
82900000.0 1.615068000e+00 -1.248370000e+00
83800000.0 1.623161000e+00 -1.211233000e+00
84700000.0 1.633891000e+00 -1.172015000e+00
85600000.0 1.642716000e+00 -1.135763000e+00
86500000.0 1.651972000e+00 -1.098841000e+00
87400000.0 1.656558000e+00 -1.061685000e+00
88300000.0 1.660029000e+00 -1.028181000e+00
89200000.0 1.662820000e+00 -9.907980000e-01
90100000.0 1.665081000e+00 -9.559580000e-01
91000000.0 1.663939000e+00 -9.219880000e-01
91900000.0 1.664126000e+00 -8.881650000e-01
92800000.0 1.660098000e+00 -8.557930000e-01
93700000.0 1.656168000e+00 -8.226220000e-01
94600000.0 1.652493000e+00 -7.926420000e-01
95500000.0 1.646977000e+00 -7.612480000e-01
96400000.0 1.641358000e+00 -7.312610000e-01
97300000.0 1.633969000e+00 -7.011640000e-01
98200000.0 1.626761000e+00 -6.749860000e-01
99100000.0 1.620317000e+00 -6.472210000e-01
100000000.0 1.609187000e+00 -6.193130000e-01
109000000.0 1.503197000e+00 -3.991690000e-01
118000000.0 1.376643000e+00 -2.452090000e-01
127000000.0 1.256256000e+00 -1.383480000e-01
136000000.0 1.147836000e+00 -6.949300000e-02
145000000.0 1.050466000e+00 -2.003100000e-02
154000000.0 9.998530000e-01 3.160000000e-04
163000000.0 1.002366000e+00 -5.030000000e-04
172000000.0 1.003232000e+00 -1.202000000e-03
181000000.0 1.004058000e+00 -3.830000000e-04
190000000.0 1.004697000e+00 -4.590000000e-04
199000000.0 1.005201000e+00 -1.702000000e-03
208000000.0 1.005434000e+00 -1.085000000e-03
217000000.0 1.005684000e+00 -2.632000000e-03
226000000.0 1.006868000e+00 -1.293000000e-03
235000000.0 1.006856000e+00 -1.189000000e-03
244000000.0 1.005978000e+00 -1.997000000e-03
253000000.0 1.005285000e+00 -1.300000000e-03
262000000.0 1.006465000e+00 -1.391000000e-03
271000000.0 1.004821000e+00 -1.507000000e-03
280000000.0 1.003705000e+00 -1.252000000e-03
289000000.0 1.002705000e+00 -1.033000000e-03
298000000.0 1.002087000e+00 -9.210000000e-04
307000000.0 1.002465000e+00 7.950000000e-04
316000000.0 1.005114000e+00 5.370000000e-04
325000000.0 1.004648000e+00 -1.170000000e-03
334000000.0 1.004754000e+00 1.127000000e-03
343000000.0 1.005632000e+00 1.692000000e-03
352000000.0 1.004847000e+00 -1.724300000e-02
361000000.0 1.007424000e+00 -5.630000000e-04
370000000.0 1.004466000e+00 -1.589800000e-02
379000000.0 1.006296000e+00 -1.960000000e-04
388000000.0 1.006164000e+00 1.410000000e-03
397000000.0 1.005350000e+00 8.630000000e-04
406000000.0 1.005281000e+00 2.860000000e-04
415000000.0 1.011585000e+00 3.693800000e-02
424000000.0 1.002656000e+00 6.530000000e-04
433000000.0 1.001349000e+00 8.230000000e-04
442000000.0 1.000829000e+00 4.140000000e-04
451000000.0 9.970270000e-01 -3.030000000e-04
460000000.0 1.001310000e+00 3.711000000e-03
469000000.0 1.002551000e+00 2.732000000e-03
478000000.0 1.004611000e+00 3.641000000e-03
487000000.0 1.006250000e+00 5.103000000e-03
496000000.0 1.007009000e+00 6.623000000e-03
505000000.0 1.008217000e+00 4.965000000e-03
514000000.0 1.007449000e+00 6.997000000e-03
523000000.0 1.009110000e+00 6.449000000e-03
532000000.0 1.007436000e+00 7.921000000e-03
541000000.0 1.009721000e+00 6.389000000e-03
550000000.0 1.010438000e+00 9.041000000e-03
559000000.0 1.007844000e+00 8.359000000e-03
568000000.0 1.009002000e+00 9.183000000e-03
577000000.0 1.003794000e+00 5.127000000e-03
586000000.0 1.005284000e+00 6.964000000e-03
595000000.0 1.004557000e+00 7.996000000e-03
604000000.0 1.003801000e+00 5.009000000e-03
613000000.0 1.007367000e+00 1.102800000e-02
622000000.0 1.008794000e+00 5.235000000e-03
631000000.0 1.009435000e+00 1.058200000e-02
640000000.0 1.010705000e+00 9.294000000e-03
649000000.0 1.017488000e+00 1.206100000e-02
658000000.0 1.014601000e+00 9.606000000e-03
667000000.0 1.015652000e+00 8.760000000e-03
676000000.0 1.014525000e+00 1.116700000e-02
685000000.0 1.014821000e+00 5.861000000e-03
694000000.0 1.016873000e+00 4.048000000e-03
703000000.0 1.013370000e+00 8.275000000e-03
712000000.0 1.011873000e+00 3.918000000e-03
721000000.0 1.013469000e+00 7.127000000e-03
730000000.0 1.010028000e+00 7.261000000e-03
739000000.0 1.004347000e+00 5.999000000e-03
748000000.0 1.000981000e+00 2.183000000e-03
757000000.0 1.002423000e+00 -3.145000000e-03
766000000.0 1.005817000e+00 -2.466000000e-03
775000000.0 1.009457000e+00 -7.377000000e-03
784000000.0 1.013474000e+00 -3.241000000e-03
793000000.0 1.013671000e+00 -4.465000000e-03
802000000.0 1.015426000e+00 -8.141000000e-03
811000000.0 1.017321000e+00 -6.227000000e-03
820000000.0 1.017124000e+00 -6.724000000e-03
829000000.0 1.019498000e+00 -5.689000000e-03
838000000.0 1.018404000e+00 -1.056300000e-02
847000000.0 1.018820000e+00 -4.686000000e-03
856000000.0 1.016129000e+00 -4.932000000e-03
865000000.0 1.014353000e+00 -4.148000000e-03
874000000.0 1.011803000e+00 -4.323000000e-03
883000000.0 1.007561000e+00 -5.238000000e-03
892000000.0 1.006159000e+00 -4.446000000e-03
901000000.0 1.001054000e+00 -3.240000000e-03
910000000.0 1.004274000e+00 -8.960000000e-04
919000000.0 1.002184000e+00 -6.711000000e-03
928000000.0 1.002188000e+00 -6.305000000e-03
937000000.0 1.004890000e+00 -5.390000000e-03
946000000.0 1.003572000e+00 -8.268000000e-03
955000000.0 1.003171000e+00 -9.360000000e-03
964000000.0 1.003906000e+00 -8.040000000e-03
973000000.0 1.004087000e+00 -6.209000000e-03
982000000.0 1.006459000e+00 -1.228000000e-02
991000000.0 1.004400000e+00 -1.139300000e-02
1000000000.0 1.003953000e+00 -7.906000000e-03
1004500000.0 1.005255000e+00 -1.003200000e-02
1009000000.0 1.002654000e+00 -5.350000000e-03
1013500000.0 1.002117000e+00 -3.508000000e-03
1018000000.0 1.002714000e+00 -4.125000000e-03
1022500000.0 1.006280000e+00 -6.028000000e-03
1027000000.0 1.003019000e+00 -9.200000000e-03
1031500000.0 1.004205000e+00 -2.827000000e-03
1036000000.0 1.001804000e+00 -3.248000000e-03
1040500000.0 1.000740000e+00 -3.024000000e-03
1045000000.0 1.003534000e+00 -4.250000000e-03
1049500000.0 1.001122000e+00 1.972000000e-03
1054000000.0 1.000548000e+00 8.640000000e-03
1058500000.0 1.000718000e+00 -3.942000000e-03
1063000000.0 9.994580000e-01 -1.496000000e-03
1067500000.0 1.002815000e+00 -2.102000000e-03
1072000000.0 9.985300000e-01 -1.224000000e-03
1076500000.0 1.000292000e+00 -3.234000000e-03
1081000000.0 1.005623000e+00 -7.440000000e-04
1085500000.0 1.000940000e+00 -6.133000000e-03
1090000000.0 1.000973000e+00 4.383000000e-03
1094500000.0 1.005073000e+00 -6.964000000e-03
1099000000.0 1.003502000e+00 -1.207000000e-02
1103500000.0 1.002089000e+00 7.840000000e-04
1108000000.0 1.005570000e+00 -5.495000000e-03
1112500000.0 1.003788000e+00 -4.790000000e-03
1117000000.0 1.007922000e+00 -6.909000000e-03
1121500000.0 1.004526000e+00 -6.123000000e-03
1126000000.0 1.004615000e+00 -1.940000000e-04
1130500000.0 1.003909000e+00 2.548000000e-03
1135000000.0 1.006618000e+00 -1.522000000e-03
1139500000.0 1.004508000e+00 -2.621000000e-03
1144000000.0 1.004721000e+00 -2.300200000e-02
1148500000.0 1.009554000e+00 -1.819000000e-03
1153000000.0 1.010114000e+00 1.723700000e-02
1157500000.0 1.006397000e+00 -6.973000000e-03
1162000000.0 1.001679000e+00 -7.793000000e-03
1166500000.0 1.006775000e+00 1.449000000e-03
1171000000.0 1.006620000e+00 -4.276000000e-03
1175500000.0 1.004837000e+00 -2.487000000e-03
1180000000.0 1.004964000e+00 -1.908000000e-03
1184500000.0 1.000441000e+00 1.703000000e-03
1189000000.0 1.007126000e+00 -7.478000000e-03
1193500000.0 9.978610000e-01 -4.408000000e-03
1198000000.0 1.002853000e+00 -9.623000000e-03
1202500000.0 1.007104000e+00 -9.756000000e-03
1207000000.0 1.004958000e+00 6.800000000e-05
1211500000.0 1.004306000e+00 -3.835000000e-03
1216000000.0 1.000148000e+00 -6.999000000e-03
1220500000.0 1.009856000e+00 -2.798000000e-03
1225000000.0 1.010322000e+00 -1.018000000e-03
1229500000.0 1.008816000e+00 -8.120000000e-04
1234000000.0 1.006423000e+00 8.900000000e-05
1238500000.0 1.007868000e+00 -8.285000000e-03
1243000000.0 1.002658000e+00 -5.969000000e-03
1247500000.0 1.000776000e+00 -3.808000000e-03
1252000000.0 1.004879000e+00 -7.749000000e-03
1256500000.0 1.005570000e+00 -7.798000000e-03
1261000000.0 1.003472000e+00 4.252000000e-03
1265500000.0 1.009906000e+00 -1.442000000e-03
1270000000.0 1.001009000e+00 -1.694000000e-03
1274500000.0 9.965720000e-01 1.910000000e-04
1279000000.0 1.004800000e+00 -1.889000000e-03
1283500000.0 1.003860000e+00 -5.443000000e-03
1288000000.0 1.005385000e+00 -1.718000000e-03
1292500000.0 1.006752000e+00 8.279000000e-03
1297000000.0 1.001645000e+00 -2.215000000e-03
1301500000.0 1.006004000e+00 -5.196000000e-03
1306000000.0 1.005464000e+00 -1.685000000e-03
1310500000.0 9.958170000e-01 -1.260000000e-04
1315000000.0 1.003626000e+00 4.751000000e-03
1319500000.0 1.008235000e+00 7.738000000e-03
1324000000.0 1.004270000e+00 2.790000000e-03
1328500000.0 1.005620000e+00 -8.090000000e-04
1333000000.0 1.005466000e+00 5.650000000e-03
1337500000.0 9.949470000e-01 1.352500000e-02
1342000000.0 1.000686000e+00 -1.759000000e-03
1346500000.0 9.977850000e-01 -8.772000000e-03
1351000000.0 1.001173000e+00 7.063000000e-03
1355500000.0 1.000061000e+00 5.927000000e-03
1360000000.0 9.939440000e-01 1.543100000e-02
1364500000.0 1.001066000e+00 6.012000000e-03
1369000000.0 1.005106000e+00 1.650100000e-02
1373500000.0 9.993450000e-01 4.548000000e-03
1378000000.0 1.000689000e+00 1.010200000e-02
1382500000.0 1.007868000e+00 7.350000000e-03
1387000000.0 1.006216000e+00 2.237000000e-03
1391500000.0 1.002685000e+00 1.477500000e-02
1396000000.0 1.003248000e+00 1.337900000e-02
1400500000.0 1.003491000e+00 9.712000000e-03
1405000000.0 1.006041000e+00 1.183400000e-02
1409500000.0 1.001326000e+00 1.344600000e-02
1414000000.0 1.006354000e+00 1.421200000e-02
1418500000.0 1.008492000e+00 6.322000000e-03
1423000000.0 1.002777000e+00 -6.570000000e-04
1427500000.0 1.010015000e+00 2.496400000e-02
1432000000.0 1.001790000e+00 1.421300000e-02
1436500000.0 1.003063000e+00 8.169000000e-03
1441000000.0 1.001620000e+00 1.523200000e-02
1445500000.0 1.001922000e+00 2.011600000e-02
1450000000.0 1.002841000e+00 8.551000000e-03
