! piloto_saltos / abierto_51puntos / r04
# HZ S RI R 50
50000.0 1.008254000e+00 -7.068300000e-02
69000.0 1.003393000e+00 -4.169300000e-02
88000.0 1.002136000e+00 -1.610700000e-02
107000.0 1.000987000e+00 7.927000000e-03
126000.0 1.000253000e+00 3.061000000e-02
145000.0 1.000635000e+00 5.838400000e-02
164000.0 1.001843000e+00 8.181800000e-02
183000.0 1.002546000e+00 1.062150000e-01
202000.0 1.004056000e+00 1.298560000e-01
221000.0 1.004192000e+00 1.527270000e-01
240000.0 1.004481000e+00 1.750110000e-01
259000.0 1.004993000e+00 1.975730000e-01
278000.0 1.005555000e+00 2.200010000e-01
297000.0 1.005785000e+00 2.429160000e-01
316000.0 1.006775000e+00 2.639860000e-01
335000.0 1.006984000e+00 2.861910000e-01
354000.0 1.007623000e+00 3.074360000e-01
373000.0 1.008708000e+00 3.285570000e-01
392000.0 1.008537000e+00 3.501520000e-01
411000.0 1.009916000e+00 3.703750000e-01
430000.0 1.010158000e+00 3.910420000e-01
449000.0 1.009784000e+00 4.119500000e-01
468000.0 1.011532000e+00 4.321330000e-01
487000.0 1.011730000e+00 4.525510000e-01
506000.0 1.007877000e+00 4.396790000e-01
525000.0 1.012979000e+00 4.937150000e-01
544000.0 1.014614000e+00 5.132190000e-01
563000.0 1.015141000e+00 5.337970000e-01
582000.0 1.016471000e+00 5.519210000e-01
601000.0 1.017252000e+00 5.711990000e-01
620000.0 1.018993000e+00 5.918130000e-01
639000.0 1.019962000e+00 6.105610000e-01
658000.0 1.021874000e+00 6.306430000e-01
677000.0 1.023005000e+00 6.500830000e-01
696000.0 1.025331000e+00 6.678890000e-01
715000.0 1.026683000e+00 6.862680000e-01
734000.0 1.028554000e+00 7.050680000e-01
753000.0 1.032090000e+00 7.258440000e-01
772000.0 1.032972000e+00 7.438260000e-01
791000.0 1.036482000e+00 7.627900000e-01
810000.0 1.037893000e+00 7.808670000e-01
829000.0 1.042686000e+00 7.994630000e-01
848000.0 1.045933000e+00 8.173700000e-01
867000.0 1.049497000e+00 8.348190000e-01
886000.0 1.054290000e+00 8.536670000e-01
905000.0 1.056424000e+00 8.723300000e-01
924000.0 1.062249000e+00 8.890100000e-01
943000.0 1.065745000e+00 9.074210000e-01
962000.0 1.071152000e+00 9.244230000e-01
981000.0 1.075379000e+00 9.427000000e-01
1000000.0 1.080889000e+00 9.602950000e-01
1180000.0 1.151117000e+00 1.115277000e+00
1360000.0 1.261125000e+00 1.248779000e+00
1540000.0 1.412608000e+00 1.336610000e+00
1720000.0 1.589559000e+00 1.358339000e+00
1900000.0 1.767356000e+00 1.292692000e+00
2080000.0 1.899305000e+00 1.156221000e+00
2260000.0 1.962058000e+00 9.810440000e-01
2440000.0 1.962254000e+00 8.043840000e-01
2620000.0 1.910552000e+00 6.558920000e-01
2800000.0 1.842578000e+00 5.347150000e-01
2980000.0 1.763041000e+00 4.443490000e-01
3160000.0 1.684565000e+00 3.715970000e-01
3340000.0 1.613161000e+00 3.022540000e-01
3520000.0 1.550653000e+00 2.983000000e-01
3700000.0 1.499588000e+00 2.324160000e-01
3880000.0 1.452887000e+00 1.962900000e-01
4060000.0 1.412311000e+00 1.668550000e-01
4240000.0 1.377470000e+00 1.381640000e-01
4420000.0 1.348627000e+00 1.082530000e-01
4600000.0 1.324321000e+00 8.170000000e-02
4780000.0 1.304685000e+00 5.744500000e-02
4960000.0 1.289446000e+00 3.118200000e-02
5140000.0 1.271459000e+00 5.530000000e-03
5320000.0 1.262054000e+00 -1.858700000e-02
5500000.0 1.254735000e+00 -4.303800000e-02
5680000.0 1.247373000e+00 -6.456000000e-02
5860000.0 1.241203000e+00 -8.656000000e-02
6040000.0 1.236526000e+00 -1.074320000e-01
6220000.0 1.232265000e+00 -1.260130000e-01
6400000.0 1.227401000e+00 -1.435770000e-01
6580000.0 1.224860000e+00 -1.590780000e-01
6760000.0 1.222259000e+00 -1.714960000e-01
6940000.0 1.221485000e+00 -1.811920000e-01
7120000.0 1.219693000e+00 -1.887480000e-01
7300000.0 1.218851000e+00 -1.928390000e-01
7480000.0 1.218793000e+00 -1.931910000e-01
7660000.0 -2.406650000e-01 -1.260017000e+00
7840000.0 -2.408490000e-01 -1.260410000e+00
8020000.0 -2.381120000e-01 -1.259960000e+00
8200000.0 -2.384840000e-01 -1.261901000e+00
8380000.0 -2.355210000e-01 -1.263061000e+00
8560000.0 -2.372830000e-01 -1.260299000e+00
8740000.0 -2.325990000e-01 -1.264833000e+00
8920000.0 -2.314560000e-01 -1.265578000e+00
9100000.0 -2.304630000e-01 -1.266965000e+00
9280000.0 -2.292340000e-01 -1.269898000e+00
9460000.0 -2.278420000e-01 -1.269878000e+00
9640000.0 -2.272300000e-01 -1.270022000e+00
9820000.0 -2.245270000e-01 -1.273246000e+00
10000000.0 -2.235300000e-01 -1.276445000e+00
11800000.0 -2.117150000e-01 -1.293804000e+00
13600000.0 -1.997370000e-01 -1.315042000e+00
15400000.0 -1.890050000e-01 -1.336151000e+00
17200000.0 -1.766320000e-01 -1.361674000e+00
19000000.0 -1.610710000e-01 -1.383822000e+00
20800000.0 -1.449710000e-01 -1.410365000e+00
22600000.0 -1.280660000e-01 -1.434718000e+00
24400000.0 -1.090930000e-01 -1.463307000e+00
26200000.0 -8.672300000e-02 -1.491267000e+00
28000000.0 -6.380600000e-02 -1.517899000e+00
29800000.0 -4.049400000e-02 -1.547013000e+00
31600000.0 -1.092500000e-02 -1.575689000e+00
33400000.0 1.654800000e-02 -1.603314000e+00
35200000.0 4.982100000e-02 -1.631582000e+00
37000000.0 1.494890000e-01 -1.674850000e+00
38800000.0 1.251520000e-01 -1.692801000e+00
40600000.0 1.669310000e-01 -1.721420000e+00
42400000.0 2.112490000e-01 -1.749108000e+00
44200000.0 2.609710000e-01 -1.773490000e+00
46000000.0 3.125110000e-01 -1.799981000e+00
47800000.0 3.699660000e-01 -1.825610000e+00
49600000.0 4.273840000e-01 -1.843954000e+00
51400000.0 4.570990000e-01 -1.865925000e+00
53200000.0 5.555070000e-01 -1.872947000e+00
55000000.0 6.239210000e-01 -1.880758000e+00
56800000.0 6.981590000e-01 -1.884605000e+00
58600000.0 7.716630000e-01 -1.885271000e+00
60400000.0 8.493980000e-01 -1.878207000e+00
62200000.0 9.279670000e-01 -1.862781000e+00
64000000.0 1.006354000e+00 -1.841665000e+00
65800000.0 1.083123000e+00 -1.810349000e+00
67600000.0 1.159076000e+00 -1.776471000e+00
69400000.0 1.232150000e+00 -1.734607000e+00
71200000.0 1.301808000e+00 -1.683058000e+00
73000000.0 1.366384000e+00 -1.629318000e+00
74800000.0 1.425499000e+00 -1.568434000e+00
76600000.0 1.482824000e+00 -1.500229000e+00
78400000.0 1.528345000e+00 -1.430982000e+00
80200000.0 1.568496000e+00 -1.356739000e+00
82000000.0 1.600202000e+00 -1.285499000e+00
83800000.0 1.625228000e+00 -1.210145000e+00
85600000.0 1.644269000e+00 -1.138245000e+00
87400000.0 1.655486000e+00 -1.062554000e+00
89200000.0 1.662202000e+00 -9.925720000e-01
91000000.0 1.662730000e+00 -9.212430000e-01
92800000.0 1.660200000e+00 -8.535170000e-01
94600000.0 1.652587000e+00 -7.923120000e-01
96400000.0 1.640966000e+00 -7.323200000e-01
98200000.0 1.626778000e+00 -6.744210000e-01
100000000.0 1.609256000e+00 -6.197290000e-01
118000000.0 1.377212000e+00 -2.454470000e-01
136000000.0 1.147809000e+00 -6.847200000e-02
154000000.0 1.000699000e+00 3.630000000e-04
172000000.0 1.002057000e+00 -5.550000000e-04
190000000.0 1.004018000e+00 -6.360000000e-04
208000000.0 1.005390000e+00 -2.364000000e-03
226000000.0 1.006498000e+00 -1.792000000e-03
244000000.0 1.006210000e+00 -1.103000000e-03
262000000.0 1.004877000e+00 -8.870000000e-04
280000000.0 1.004466000e+00 4.370000000e-04
298000000.0 1.001361000e+00 -2.850000000e-04
316000000.0 1.002680000e+00 -2.248000000e-03
334000000.0 1.002014000e+00 -1.600500000e-02
352000000.0 1.004987000e+00 1.402000000e-03
370000000.0 1.006618000e+00 3.010000000e-04
388000000.0 1.006566000e+00 1.908000000e-03
406000000.0 1.004954000e+00 5.580000000e-04
424000000.0 1.002235000e+00 3.160000000e-04
442000000.0 1.001912000e+00 2.545000000e-03
460000000.0 1.001643000e+00 3.503000000e-03
478000000.0 1.005825000e+00 4.334000000e-03
496000000.0 1.008400000e+00 4.550000000e-03
514000000.0 1.006943000e+00 6.999000000e-03
532000000.0 1.009172000e+00 1.069800000e-02
550000000.0 1.009982000e+00 8.604000000e-03
568000000.0 1.007739000e+00 5.441000000e-03
586000000.0 1.005198000e+00 7.032000000e-03
604000000.0 1.004355000e+00 8.709000000e-03
622000000.0 1.011066000e+00 9.952000000e-03
640000000.0 1.016010000e+00 1.168000000e-02
658000000.0 1.016274000e+00 6.509000000e-03
676000000.0 1.017830000e+00 4.254000000e-03
694000000.0 1.017941000e+00 7.121000000e-03
712000000.0 1.013581000e+00 2.457000000e-03
730000000.0 1.008121000e+00 4.785000000e-03
748000000.0 1.001263000e+00 2.477000000e-03
766000000.0 1.008507000e+00 -1.666000000e-03
784000000.0 1.014080000e+00 1.066000000e-03
802000000.0 1.016069000e+00 -3.944000000e-03
820000000.0 1.019812000e+00 -6.621000000e-03
838000000.0 1.015728000e+00 -5.009000000e-03
856000000.0 1.015108000e+00 -5.577000000e-03
874000000.0 1.008041000e+00 -6.797000000e-03
892000000.0 1.005436000e+00 -2.230000000e-03
910000000.0 9.992960000e-01 2.394000000e-03
928000000.0 1.001536000e+00 -5.242000000e-03
946000000.0 1.005424000e+00 -4.636000000e-03
964000000.0 1.006632000e+00 -7.731000000e-03
982000000.0 1.007014000e+00 -4.357000000e-03
1000000000.0 1.003928000e+00 -6.195000000e-03
1009000000.0 1.001433000e+00 -8.435000000e-03
1018000000.0 1.003430000e+00 -3.527000000e-03
1027000000.0 1.004014000e+00 -7.107000000e-03
1036000000.0 1.002410000e+00 1.813000000e-03
1045000000.0 1.003338000e+00 1.111000000e-03
1054000000.0 1.000913000e+00 -2.441000000e-03
1063000000.0 1.001519000e+00 1.302000000e-03
1072000000.0 1.000736000e+00 -8.420000000e-04
1081000000.0 9.959590000e-01 -3.636300000e-02
1090000000.0 1.003634000e+00 -1.290000000e-04
1099000000.0 1.006278000e+00 -3.823000000e-03
1108000000.0 1.005197000e+00 2.038000000e-03
1117000000.0 1.005898000e+00 -9.506000000e-03
1126000000.0 1.003273000e+00 -2.318900000e-02
1135000000.0 1.004642000e+00 -4.239000000e-03
1144000000.0 1.003749000e+00 1.317700000e-02
1153000000.0 1.009891000e+00 -2.135000000e-03
1162000000.0 1.005251000e+00 -1.719000000e-03
1171000000.0 1.005235000e+00 -5.148000000e-03
1180000000.0 1.007470000e+00 1.488500000e-02
1189000000.0 1.005982000e+00 -4.145000000e-03
1198000000.0 1.002736000e+00 -2.162000000e-03
1207000000.0 1.004670000e+00 3.087000000e-03
1216000000.0 1.009779000e+00 -2.242000000e-03
1225000000.0 1.002144000e+00 -6.060000000e-03
1234000000.0 1.000783000e+00 -5.784000000e-03
1243000000.0 1.003729000e+00 -1.330400000e-02
1252000000.0 9.998220000e-01 -3.363000000e-03
1261000000.0 1.000315000e+00 5.654000000e-03
1270000000.0 1.002663000e+00 8.990000000e-04
1279000000.0 1.004653000e+00 6.641000000e-03
1288000000.0 9.993190000e-01 -1.859000000e-03
1297000000.0 1.006081000e+00 -2.351000000e-03
1306000000.0 1.002436000e+00 2.300000000e-05
1315000000.0 1.007755000e+00 -4.231000000e-03
1324000000.0 1.009078000e+00 1.867000000e-03
1333000000.0 1.003721000e+00 1.798900000e-02
1342000000.0 1.000064000e+00 4.240000000e-04
1351000000.0 1.000278000e+00 9.960000000e-03
1360000000.0 9.988960000e-01 2.851000000e-03
1369000000.0 1.006415000e+00 1.078000000e-03
1378000000.0 1.007117000e+00 8.350000000e-03
1387000000.0 9.983170000e-01 8.479000000e-03
1396000000.0 1.002617000e+00 1.913300000e-02
1405000000.0 1.008054000e+00 1.217500000e-02
1414000000.0 1.004356000e+00 1.848600000e-02
1423000000.0 1.004470000e+00 1.343300000e-02
1432000000.0 1.002789000e+00 1.194400000e-02
1441000000.0 1.000257000e+00 1.748500000e-02
1450000000.0 1.002263000e+00 1.235600000e-02
