! piloto_saltos / abierto_tramosB / r10
# HZ S RI R 50
50000.0 1.007240000e+00 -6.956100000e-02
52500.0 1.006942000e+00 -6.477600000e-02
55000.0 1.006508000e+00 -6.240300000e-02
57500.0 1.006601000e+00 -5.767700000e-02
60000.0 1.009426000e+00 -5.636700000e-02
62500.0 1.004947000e+00 -5.064700000e-02
65000.0 1.005377000e+00 -4.779000000e-02
67500.0 1.004414000e+00 -4.394800000e-02
70000.0 1.004360000e+00 -4.043300000e-02
72500.0 1.002183000e+00 -3.657700000e-02
75000.0 9.951820000e-01 -6.914700000e-02
77500.0 1.003623000e+00 -2.967000000e-02
80000.0 1.002445000e+00 -2.641900000e-02
82500.0 1.002822000e+00 -2.366600000e-02
85000.0 9.992270000e-01 -3.745700000e-02
87500.0 1.003526000e+00 1.222000000e-03
90000.0 1.001479000e+00 -3.174700000e-02
92500.0 1.003390000e+00 8.511000000e-03
95000.0 9.994750000e-01 -2.452800000e-02
97500.0 1.002398000e+00 1.456500000e-02
100000.0 9.999050000e-01 -1.845800000e-02
102500.0 1.009228000e+00 3.912400000e-02
105000.0 1.000467000e+00 6.205000000e-03
107500.0 9.999400000e-01 9.839000000e-03
110000.0 1.000479000e+00 1.322100000e-02
112500.0 1.000974000e+00 1.655900000e-02
115000.0 1.000862000e+00 1.983700000e-02
117500.0 1.000482000e+00 2.227500000e-02
120000.0 1.001379000e+00 2.615600000e-02
122500.0 1.001475000e+00 2.892400000e-02
125000.0 1.000930000e+00 3.199800000e-02
127500.0 1.000781000e+00 3.734000000e-02
130000.0 1.001280000e+00 3.932900000e-02
132500.0 9.997830000e-01 4.257900000e-02
135000.0 1.001807000e+00 4.533700000e-02
137500.0 9.985740000e-01 4.640900000e-02
140000.0 1.000764000e+00 5.182800000e-02
142500.0 1.001198000e+00 5.405100000e-02
145000.0 1.001388000e+00 5.839700000e-02
147500.0 1.002110000e+00 6.087300000e-02
150000.0 1.002183000e+00 6.458100000e-02
152500.0 1.002327000e+00 6.877000000e-02
155000.0 1.001692000e+00 7.093500000e-02
157500.0 1.001873000e+00 7.527400000e-02
160000.0 1.001641000e+00 7.785400000e-02
162500.0 1.002200000e+00 8.064300000e-02
165000.0 1.003464000e+00 8.355900000e-02
167500.0 1.001919000e+00 8.719600000e-02
170000.0 1.002420000e+00 8.995300000e-02
172500.0 1.003074000e+00 9.327100000e-02
175000.0 1.003250000e+00 9.581700000e-02
177500.0 1.002863000e+00 9.862900000e-02
180000.0 1.003858000e+00 1.021800000e-01
182500.0 1.002775000e+00 1.061830000e-01
185000.0 1.003346000e+00 1.089510000e-01
187500.0 1.004042000e+00 1.123530000e-01
190000.0 1.002922000e+00 1.150390000e-01
192500.0 1.003966000e+00 1.182850000e-01
195000.0 1.002956000e+00 1.207000000e-01
197500.0 1.003465000e+00 1.244790000e-01
200000.0 1.003580000e+00 1.276190000e-01
202500.0 1.004069000e+00 1.300970000e-01
205000.0 1.004433000e+00 1.332460000e-01
207500.0 1.003963000e+00 1.362800000e-01
210000.0 1.003976000e+00 1.391330000e-01
212500.0 1.004527000e+00 1.428700000e-01
215000.0 1.004761000e+00 1.453020000e-01
217500.0 1.004426000e+00 1.481300000e-01
220000.0 1.004258000e+00 1.517630000e-01
222500.0 1.004728000e+00 1.543500000e-01
225000.0 1.004986000e+00 1.576430000e-01
227500.0 1.004047000e+00 1.608600000e-01
230000.0 1.004383000e+00 1.635400000e-01
232500.0 1.005359000e+00 1.666330000e-01
235000.0 1.005053000e+00 1.694150000e-01
237500.0 1.004879000e+00 1.721510000e-01
240000.0 1.005793000e+00 1.758320000e-01
242500.0 1.004658000e+00 1.789410000e-01
245000.0 1.006351000e+00 1.814760000e-01
247500.0 1.005136000e+00 1.851300000e-01
250000.0 1.005436000e+00 1.873910000e-01
252500.0 1.004944000e+00 1.907840000e-01
255000.0 1.005507000e+00 1.941230000e-01
257500.0 1.005938000e+00 1.964390000e-01
260000.0 1.005456000e+00 1.988480000e-01
262500.0 1.004820000e+00 2.020650000e-01
265000.0 1.006268000e+00 2.052470000e-01
267500.0 1.006496000e+00 2.085940000e-01
270000.0 1.006008000e+00 2.105880000e-01
272500.0 1.005806000e+00 2.143200000e-01
275000.0 1.006647000e+00 2.176120000e-01
277500.0 1.005480000e+00 2.197130000e-01
280000.0 1.006320000e+00 2.220980000e-01
282500.0 1.006559000e+00 2.265720000e-01
285000.0 1.006860000e+00 2.292760000e-01
287500.0 1.006215000e+00 2.319700000e-01
290000.0 1.005762000e+00 2.348410000e-01
292500.0 1.006808000e+00 2.379760000e-01
295000.0 1.006628000e+00 2.404870000e-01
297500.0 1.005671000e+00 2.430280000e-01
300000.0 1.006641000e+00 2.465580000e-01
327000.0 1.006044000e+00 2.755970000e-01
354000.0 1.007128000e+00 3.062110000e-01
381000.0 1.007080000e+00 3.376110000e-01
408000.0 1.007962000e+00 3.676900000e-01
435000.0 1.009375000e+00 3.959060000e-01
462000.0 1.009943000e+00 4.261580000e-01
489000.0 1.011888000e+00 4.550410000e-01
516000.0 1.013797000e+00 4.836300000e-01
543000.0 1.014475000e+00 5.116900000e-01
570000.0 1.016624000e+00 5.398210000e-01
597000.0 1.016481000e+00 5.683810000e-01
624000.0 1.019010000e+00 5.954660000e-01
651000.0 1.019276000e+00 6.227480000e-01
678000.0 1.022376000e+00 6.502860000e-01
705000.0 1.025802000e+00 6.778830000e-01
732000.0 1.028481000e+00 7.035180000e-01
759000.0 1.031254000e+00 7.309580000e-01
786000.0 1.036386000e+00 7.569690000e-01
813000.0 1.039530000e+00 7.839080000e-01
840000.0 1.044426000e+00 8.098140000e-01
867000.0 1.049032000e+00 8.359170000e-01
894000.0 1.055913000e+00 8.614280000e-01
921000.0 1.060233000e+00 8.874250000e-01
948000.0 1.067504000e+00 9.128520000e-01
975000.0 1.074681000e+00 9.386250000e-01
1002000.0 1.083265000e+00 9.609980000e-01
1029000.0 1.090245000e+00 9.882780000e-01
1056000.0 1.100951000e+00 1.011253000e+00
1083000.0 1.110886000e+00 1.035710000e+00
1110000.0 1.120735000e+00 1.059371000e+00
1137000.0 1.133903000e+00 1.082701000e+00
1164000.0 1.146159000e+00 1.104815000e+00
1191000.0 1.159870000e+00 1.124173000e+00
1218000.0 1.174752000e+00 1.146100000e+00
1245000.0 1.188738000e+00 1.171145000e+00
1272000.0 1.205413000e+00 1.189987000e+00
1299000.0 1.223278000e+00 1.210339000e+00
1326000.0 1.241319000e+00 1.225899000e+00
1353000.0 1.242142000e+00 1.269092000e+00
1380000.0 1.280062000e+00 1.258762000e+00
1407000.0 1.281416000e+00 1.302618000e+00
1434000.0 1.342511000e+00 1.266335000e+00
1461000.0 1.325358000e+00 1.329848000e+00
1488000.0 1.388832000e+00 1.290895000e+00
1515000.0 1.371522000e+00 1.352453000e+00
1542000.0 1.438196000e+00 1.307194000e+00
1569000.0 1.424888000e+00 1.370993000e+00
1596000.0 1.490439000e+00 1.320487000e+00
1623000.0 1.497094000e+00 1.352342000e+00
1650000.0 1.524732000e+00 1.355161000e+00
1677000.0 1.550186000e+00 1.354837000e+00
1704000.0 1.577900000e+00 1.353418000e+00
1731000.0 1.606031000e+00 1.352754000e+00
1758000.0 1.631569000e+00 1.346511000e+00
1785000.0 1.658600000e+00 1.339308000e+00
1812000.0 1.688376000e+00 1.331814000e+00
1839000.0 1.715558000e+00 1.318938000e+00
1866000.0 1.737442000e+00 1.307403000e+00
1893000.0 1.763321000e+00 1.295803000e+00
1920000.0 1.784862000e+00 1.277968000e+00
1947000.0 1.808616000e+00 1.259806000e+00
1974000.0 1.830433000e+00 1.240416000e+00
2001000.0 1.850668000e+00 1.219079000e+00
2028000.0 1.868419000e+00 1.197392000e+00
2055000.0 1.883777000e+00 1.174316000e+00
2082000.0 1.900802000e+00 1.151901000e+00
2109000.0 1.914597000e+00 1.124142000e+00
2136000.0 1.927632000e+00 1.099864000e+00
2163000.0 1.938629000e+00 1.074604000e+00
2190000.0 1.945313000e+00 1.047508000e+00
2217000.0 1.955054000e+00 1.021312000e+00
2244000.0 1.959871000e+00 9.933750000e-01
2271000.0 1.961746000e+00 9.655890000e-01
2298000.0 1.964569000e+00 9.423240000e-01
2325000.0 1.967593000e+00 9.140220000e-01
2352000.0 1.968146000e+00 8.840390000e-01
2379000.0 1.967181000e+00 8.630050000e-01
2406000.0 1.963374000e+00 8.360020000e-01
2433000.0 1.958151000e+00 8.103210000e-01
2460000.0 1.954229000e+00 7.858150000e-01
2487000.0 1.948120000e+00 7.633230000e-01
2514000.0 1.941569000e+00 7.399730000e-01
2541000.0 1.935410000e+00 7.153580000e-01
2568000.0 1.927247000e+00 6.928100000e-01
2595000.0 1.917163000e+00 6.729380000e-01
2622000.0 1.910056000e+00 6.501010000e-01
2649000.0 1.899391000e+00 6.319800000e-01
2676000.0 1.888170000e+00 6.137450000e-01
2703000.0 1.877559000e+00 5.949140000e-01
2730000.0 1.866918000e+00 5.780100000e-01
2757000.0 1.855220000e+00 5.623360000e-01
2784000.0 1.844224000e+00 5.415970000e-01
2811000.0 1.834628000e+00 5.278130000e-01
2838000.0 1.823980000e+00 5.122180000e-01
2865000.0 1.811593000e+00 4.974780000e-01
2892000.0 1.799977000e+00 4.845570000e-01
2919000.0 1.787178000e+00 4.718300000e-01
2946000.0 1.774846000e+00 4.588430000e-01
2973000.0 1.763119000e+00 4.450830000e-01
3000000.0 1.752296000e+00 4.352700000e-01
3270000.0 1.641730000e+00 3.357350000e-01
3540000.0 1.546605000e+00 2.650750000e-01
3810000.0 1.470101000e+00 2.113030000e-01
4080000.0 1.407542000e+00 1.621730000e-01
4350000.0 1.358833000e+00 1.177930000e-01
4620000.0 1.323071000e+00 7.936000000e-02
4890000.0 1.295143000e+00 4.023200000e-02
5160000.0 1.268905000e+00 1.829000000e-03
5430000.0 1.256963000e+00 -3.301700000e-02
5700000.0 1.246829000e+00 -6.742700000e-02
5970000.0 1.238585000e+00 -9.986500000e-02
6240000.0 1.231393000e+00 -1.281410000e-01
6510000.0 1.226538000e+00 -1.520660000e-01
6780000.0 1.221900000e+00 -1.729120000e-01
7050000.0 1.220329000e+00 -1.858540000e-01
7320000.0 1.219980000e+00 -1.925510000e-01
7590000.0 -2.424910000e-01 -1.258441000e+00
7860000.0 -2.402460000e-01 -1.260449000e+00
8130000.0 -2.378560000e-01 -1.261527000e+00
8400000.0 -2.356240000e-01 -1.262089000e+00
8670000.0 -2.349910000e-01 -1.264932000e+00
8940000.0 -2.321590000e-01 -1.266016000e+00
9210000.0 -2.301010000e-01 -1.268854000e+00
9480000.0 -2.284170000e-01 -1.270086000e+00
9750000.0 -2.264220000e-01 -1.272908000e+00
10020000.0 -2.247110000e-01 -1.275769000e+00
10290000.0 -2.219030000e-01 -1.278848000e+00
10560000.0 -2.208030000e-01 -1.281466000e+00
10830000.0 -2.183970000e-01 -1.283013000e+00
11100000.0 -2.172530000e-01 -1.286129000e+00
11370000.0 -2.145040000e-01 -1.290609000e+00
11640000.0 -2.145480000e-01 -1.291894000e+00
11910000.0 -2.100140000e-01 -1.294799000e+00
12180000.0 -2.100350000e-01 -1.297908000e+00
12450000.0 -2.078270000e-01 -1.301044000e+00
12720000.0 -2.068040000e-01 -1.303171000e+00
12990000.0 -2.038480000e-01 -1.308485000e+00
13260000.0 -2.034970000e-01 -1.310943000e+00
13530000.0 -2.005570000e-01 -1.314170000e+00
13800000.0 -1.997360000e-01 -1.316526000e+00
14070000.0 -1.981530000e-01 -1.320120000e+00
14340000.0 -1.955440000e-01 -1.323680000e+00
14610000.0 -1.937470000e-01 -1.326574000e+00
14880000.0 -1.909090000e-01 -1.330526000e+00
15150000.0 -1.897770000e-01 -1.333800000e+00
15420000.0 -1.879510000e-01 -1.337742000e+00
15690000.0 -1.864710000e-01 -1.340208000e+00
15960000.0 -1.842070000e-01 -1.345015000e+00
16230000.0 -1.820610000e-01 -1.347758000e+00
16500000.0 -1.803070000e-01 -1.352005000e+00
16770000.0 -1.795270000e-01 -1.354735000e+00
17040000.0 -1.753720000e-01 -1.357811000e+00
17310000.0 -1.743960000e-01 -1.362612000e+00
17580000.0 -1.730190000e-01 -1.365009000e+00
17850000.0 -1.691010000e-01 -1.368865000e+00
18120000.0 -1.663730000e-01 -1.372829000e+00
18390000.0 -1.666560000e-01 -1.376046000e+00
18660000.0 -1.647020000e-01 -1.379235000e+00
18930000.0 -1.624690000e-01 -1.383727000e+00
19200000.0 -1.599650000e-01 -1.387321000e+00
19470000.0 -1.570660000e-01 -1.389931000e+00
19740000.0 -1.550170000e-01 -1.394590000e+00
20010000.0 -1.528120000e-01 -1.399346000e+00
20280000.0 -1.491570000e-01 -1.403172000e+00
20550000.0 -1.468860000e-01 -1.406405000e+00
20820000.0 -1.450520000e-01 -1.409582000e+00
21090000.0 -1.419520000e-01 -1.413733000e+00
21360000.0 -1.392170000e-01 -1.418397000e+00
21630000.0 -1.371840000e-01 -1.421433000e+00
21900000.0 -1.345230000e-01 -1.425207000e+00
22170000.0 -1.324570000e-01 -1.429544000e+00
22440000.0 -1.301720000e-01 -1.434327000e+00
22710000.0 -1.261750000e-01 -1.438607000e+00
22980000.0 -1.243410000e-01 -1.441507000e+00
23250000.0 -1.212490000e-01 -1.445295000e+00
23520000.0 -1.187090000e-01 -1.449986000e+00
23790000.0 -1.146550000e-01 -1.453865000e+00
24060000.0 -1.124230000e-01 -1.458421000e+00
24330000.0 -1.089350000e-01 -1.461731000e+00
24600000.0 -1.056380000e-01 -1.465333000e+00
24870000.0 -1.032100000e-01 -1.469172000e+00
25140000.0 -1.004840000e-01 -1.474042000e+00
25410000.0 -9.651100000e-02 -1.478471000e+00
25680000.0 -9.329500000e-02 -1.482927000e+00
25950000.0 -9.053800000e-02 -1.486992000e+00
26220000.0 -8.774800000e-02 -1.490627000e+00
26490000.0 -8.291900000e-02 -1.494102000e+00
26760000.0 -8.067000000e-02 -1.499879000e+00
27030000.0 -7.518600000e-02 -1.502355000e+00
27300000.0 -7.304400000e-02 -1.507344000e+00
27570000.0 -6.992400000e-02 -1.510623000e+00
27840000.0 -6.655600000e-02 -1.517050000e+00
28110000.0 -6.288700000e-02 -1.520414000e+00
28380000.0 -5.822800000e-02 -1.525778000e+00
28650000.0 -5.480600000e-02 -1.528729000e+00
28920000.0 -5.070800000e-02 -1.533563000e+00
29190000.0 -4.820500000e-02 -1.538036000e+00
29460000.0 -4.324800000e-02 -1.543782000e+00
29730000.0 -3.851400000e-02 -1.546286000e+00
30000000.0 -3.557600000e-02 -1.550649000e+00
32700000.0 6.908000000e-03 -1.594737000e+00
35400000.0 5.600200000e-02 -1.639372000e+00
38100000.0 1.104860000e-01 -1.682652000e+00
40800000.0 1.706750000e-01 -1.725249000e+00
43500000.0 2.416630000e-01 -1.767254000e+00
46200000.0 3.178280000e-01 -1.802810000e+00
48900000.0 4.035480000e-01 -1.834238000e+00
51600000.0 4.969100000e-01 -1.861078000e+00
54300000.0 5.972250000e-01 -1.878853000e+00
57000000.0 7.063080000e-01 -1.884202000e+00
59700000.0 8.198130000e-01 -1.879610000e+00
62400000.0 9.366910000e-01 -1.859259000e+00
65100000.0 1.052669000e+00 -1.821788000e+00
67800000.0 1.167305000e+00 -1.772451000e+00
70500000.0 1.277433000e+00 -1.703222000e+00
73200000.0 1.377592000e+00 -1.620958000e+00
75900000.0 1.460020000e+00 -1.526883000e+00
78600000.0 1.532700000e+00 -1.423941000e+00
81300000.0 1.587945000e+00 -1.314250000e+00
84000000.0 1.626703000e+00 -1.200320000e+00
86700000.0 1.651859000e+00 -1.092192000e+00
89400000.0 1.663377000e+00 -9.826660000e-01
92100000.0 1.662647000e+00 -8.798080000e-01
94800000.0 1.650470000e+00 -7.844380000e-01
97500000.0 1.632092000e+00 -6.962600000e-01
100200000.0 1.610054000e+00 -6.150690000e-01
102900000.0 1.578982000e+00 -5.392540000e-01
105600000.0 1.544250000e+00 -4.733860000e-01
108300000.0 1.511876000e+00 -4.144400000e-01
111000000.0 1.474115000e+00 -3.608600000e-01
113700000.0 1.437568000e+00 -3.108660000e-01
116400000.0 1.399937000e+00 -2.681680000e-01
119100000.0 1.361900000e+00 -2.290890000e-01
121800000.0 1.325067000e+00 -1.957780000e-01
124500000.0 1.289525000e+00 -1.644280000e-01
127200000.0 1.254305000e+00 -1.358250000e-01
129900000.0 1.219956000e+00 -1.113090000e-01
132600000.0 1.187239000e+00 -8.964900000e-02
135300000.0 1.156061000e+00 -7.306500000e-02
138000000.0 1.125264000e+00 -5.588700000e-02
140700000.0 1.094076000e+00 -3.983500000e-02
143400000.0 1.066502000e+00 -2.791300000e-02
146100000.0 1.038296000e+00 -1.432200000e-02
148800000.0 1.012212000e+00 -3.943000000e-03
151500000.0 9.997710000e-01 -3.800000000e-05
154200000.0 1.000476000e+00 -4.590000000e-04
156900000.0 1.001454000e+00 7.100000000e-04
159600000.0 1.001863000e+00 7.080000000e-04
162300000.0 1.002464000e+00 1.000000000e-03
165000000.0 1.001811000e+00 -7.040000000e-04
167700000.0 1.002731000e+00 8.460000000e-04
170400000.0 1.002433000e+00 4.800000000e-04
173100000.0 1.003180000e+00 -5.850000000e-04
175800000.0 1.003241000e+00 -1.037000000e-03
178500000.0 1.004057000e+00 -3.850000000e-04
181200000.0 1.002661000e+00 9.600000000e-05
183900000.0 1.003603000e+00 -1.679000000e-03
186600000.0 1.004628000e+00 -1.127000000e-03
189300000.0 1.005503000e+00 6.700000000e-05
192000000.0 1.004847000e+00 -1.049000000e-03
194700000.0 1.004824000e+00 -9.830000000e-04
197400000.0 1.004585000e+00 -2.229000000e-03
200100000.0 1.005342000e+00 -1.409000000e-03
202800000.0 1.006327000e+00 -1.138000000e-03
205500000.0 1.006038000e+00 -2.846000000e-03
208200000.0 1.006297000e+00 -4.590000000e-04
210900000.0 1.005620000e+00 -1.745000000e-03
213600000.0 1.006012000e+00 -1.279000000e-03
216300000.0 1.004947000e+00 -1.181000000e-03
219000000.0 1.006425000e+00 -1.681000000e-03
221700000.0 1.005540000e+00 -2.240000000e-03
224400000.0 1.006488000e+00 -5.050000000e-04
227100000.0 1.005224000e+00 -2.376000000e-03
229800000.0 1.005536000e+00 -1.845000000e-03
232500000.0 1.006721000e+00 -5.650000000e-04
235200000.0 1.007916000e+00 -8.830000000e-04
237900000.0 1.005425000e+00 -1.685000000e-03
240600000.0 1.006178000e+00 -5.710000000e-04
243300000.0 1.007642000e+00 -4.250000000e-04
246000000.0 1.006494000e+00 -1.960000000e-03
248700000.0 1.005556000e+00 -1.891000000e-03
251400000.0 1.005442000e+00 -7.570000000e-04
254100000.0 1.005386000e+00 -1.569000000e-03
256800000.0 1.003940000e+00 -6.320000000e-04
259500000.0 1.005117000e+00 -5.010000000e-04
262200000.0 1.006523000e+00 -1.050000000e-04
264900000.0 1.006118000e+00 -3.080000000e-04
267600000.0 1.005552000e+00 -5.100000000e-04
270300000.0 1.006724000e+00 -7.600000000e-05
273000000.0 1.004462000e+00 -9.840000000e-04
275700000.0 1.003111000e+00 -1.717000000e-03
278400000.0 1.005775000e+00 2.107000000e-03
281100000.0 1.003893000e+00 -1.068000000e-03
283800000.0 1.002752000e+00 -3.040000000e-04
286500000.0 1.003319000e+00 1.100000000e-05
289200000.0 1.003390000e+00 6.210000000e-04
291900000.0 1.002429000e+00 -1.378000000e-03
294600000.0 1.000018000e+00 1.104000000e-03
297300000.0 1.001137000e+00 5.310000000e-04
300000000.0 1.001184000e+00 7.900000000e-05
311500000.0 1.002467000e+00 7.580000000e-04
323000000.0 1.004143000e+00 -3.920000000e-04
334500000.0 1.004675000e+00 -4.650000000e-04
346000000.0 1.006415000e+00 4.480000000e-04
357500000.0 1.006081000e+00 2.710000000e-04
369000000.0 1.006937000e+00 -1.308000000e-03
380500000.0 1.006160000e+00 9.060000000e-04
392000000.0 1.005392000e+00 -3.880000000e-04
403500000.0 1.005168000e+00 2.955000000e-03
415000000.0 1.005167000e+00 1.630000000e-03
426500000.0 1.003187000e+00 8.830000000e-04
438000000.0 1.001518000e+00 -7.690000000e-04
449500000.0 9.989570000e-01 2.520000000e-04
461000000.0 1.000623000e+00 1.319000000e-03
472500000.0 1.002867000e+00 4.084000000e-03
484000000.0 1.006100000e+00 4.532000000e-03
495500000.0 1.006560000e+00 6.162000000e-03
507000000.0 1.006886000e+00 4.494000000e-03
518500000.0 1.009288000e+00 4.026000000e-03
530000000.0 1.011082000e+00 8.313000000e-03
541500000.0 1.009336000e+00 9.002000000e-03
553000000.0 1.010329000e+00 8.521000000e-03
564500000.0 1.007005000e+00 7.275000000e-03
576000000.0 1.004836000e+00 7.662000000e-03
587500000.0 1.004427000e+00 6.164000000e-03
599000000.0 1.001361000e+00 4.099000000e-03
610500000.0 1.005270000e+00 6.933000000e-03
622000000.0 1.007248000e+00 8.334000000e-03
633500000.0 1.012336000e+00 4.836000000e-03
645000000.0 1.005234000e+00 -2.585400000e-02
656500000.0 1.014020000e+00 8.436000000e-03
668000000.0 1.018619000e+00 1.261600000e-02
679500000.0 1.010793000e+00 -2.698000000e-02
691000000.0 1.014586000e+00 -1.248400000e-02
702500000.0 1.019331000e+00 3.997500000e-02
714000000.0 1.005055000e+00 8.424000000e-03
725500000.0 1.008808000e+00 6.401000000e-03
737000000.0 1.005609000e+00 4.481000000e-03
748500000.0 1.002981000e+00 -1.670000000e-03
760000000.0 1.005943000e+00 -3.408000000e-03
771500000.0 1.007324000e+00 -7.600000000e-04
783000000.0 1.013707000e+00 -4.360000000e-03
794500000.0 1.015606000e+00 -6.468000000e-03
806000000.0 1.015815000e+00 -8.802000000e-03
817500000.0 1.014803000e+00 -6.812000000e-03
829000000.0 1.019915000e+00 -5.985000000e-03
840500000.0 1.018208000e+00 -5.890000000e-03
852000000.0 1.014552000e+00 -4.606000000e-03
863500000.0 1.013056000e+00 -6.450000000e-03
875000000.0 1.013596000e+00 -1.483000000e-03
886500000.0 1.004256000e+00 -2.055000000e-03
898000000.0 1.000818000e+00 -5.980000000e-04
909500000.0 1.004425000e+00 -5.849000000e-03
921000000.0 1.002441000e+00 -4.805000000e-03
932500000.0 1.004071000e+00 -5.597000000e-03
944000000.0 1.003602000e+00 -9.164000000e-03
955500000.0 1.007636000e+00 -9.093000000e-03
967000000.0 1.005665000e+00 -7.985000000e-03
978500000.0 1.005271000e+00 -7.121000000e-03
990000000.0 1.003821000e+00 -9.074000000e-03
1001500000.0 1.005774000e+00 -8.105000000e-03
1013000000.0 1.003891000e+00 -4.597000000e-03
1024500000.0 1.000463000e+00 -1.618000000e-03
1036000000.0 1.002142000e+00 -2.161000000e-03
1047500000.0 1.000859000e+00 -4.430000000e-04
1059000000.0 9.993100000e-01 -1.397000000e-03
1070500000.0 1.001364000e+00 9.710000000e-04
1082000000.0 1.003420000e+00 -3.980000000e-03
1093500000.0 1.000477000e+00 -9.150000000e-04
1105000000.0 1.006280000e+00 4.015000000e-03
1116500000.0 1.003669000e+00 -3.603000000e-03
1128000000.0 1.008309000e+00 -1.410000000e-02
1139500000.0 1.002437000e+00 -3.281000000e-03
1151000000.0 1.003459000e+00 -6.113000000e-03
1162500000.0 1.006762000e+00 -2.355000000e-03
1174000000.0 1.001693000e+00 -5.670000000e-03
1185500000.0 1.002598000e+00 -7.475000000e-03
1197000000.0 1.003636000e+00 -6.388000000e-03
1208500000.0 1.001846000e+00 -3.175000000e-03
1220000000.0 1.003740000e+00 3.021000000e-03
1231500000.0 1.002375000e+00 3.356000000e-03
1243000000.0 1.007326000e+00 -6.881000000e-03
1254500000.0 1.007456000e+00 5.991000000e-03
1266000000.0 1.004268000e+00 -6.210000000e-04
1277500000.0 1.001102000e+00 -3.294000000e-03
1289000000.0 1.004941000e+00 -5.635000000e-03
1300500000.0 1.005986000e+00 1.736600000e-02
1312000000.0 1.000340000e+00 -1.793000000e-03
1323500000.0 1.000988000e+00 -6.500000000e-04
1335000000.0 1.006170000e+00 -2.084000000e-03
1346500000.0 1.000254000e+00 1.755000000e-03
1358000000.0 1.003347000e+00 6.925000000e-03
1369500000.0 1.008330000e+00 6.031000000e-03
1381000000.0 1.004012000e+00 1.771800000e-02
1392500000.0 1.004914000e+00 9.987000000e-03
1404000000.0 1.003034000e+00 2.995500000e-02
1415500000.0 1.006169000e+00 1.624300000e-02
1427000000.0 1.008589000e+00 9.293000000e-03
1438500000.0 1.002871000e+00 1.521000000e-02
1450000000.0 1.001599000e+00 1.338900000e-02
