! piloto_saltos / abierto_continuo / r02
# HZ S RI R 50
50000.0 1.002193000e+00 -8.814800000e-02
59500.0 1.008175000e+00 -3.702300000e-02
69000.0 1.001189000e+00 -5.965900000e-02
78500.0 1.012998000e+00 2.498500000e-02
88000.0 1.001593000e+00 -1.687900000e-02
97500.0 1.000975000e+00 -3.944000000e-03
107000.0 1.000522000e+00 7.938000000e-03
116500.0 1.000588000e+00 2.036400000e-02
126000.0 1.002899000e+00 3.114200000e-02
135500.0 1.000422000e+00 4.481700000e-02
145000.0 1.000625000e+00 5.767800000e-02
154500.0 1.002186000e+00 7.003100000e-02
164000.0 1.002134000e+00 8.129600000e-02
173500.0 1.002807000e+00 9.296900000e-02
183000.0 1.003091000e+00 1.051840000e-01
192500.0 1.003281000e+00 1.168400000e-01
202000.0 1.003157000e+00 1.285250000e-01
211500.0 1.003044000e+00 1.398580000e-01
221000.0 1.003489000e+00 1.518170000e-01
230500.0 1.003805000e+00 1.632930000e-01
240000.0 1.005491000e+00 1.741400000e-01
249500.0 1.004847000e+00 1.855310000e-01
259000.0 1.005167000e+00 1.966780000e-01
268500.0 1.005782000e+00 2.080350000e-01
278000.0 1.005855000e+00 2.190530000e-01
287500.0 1.005583000e+00 2.297490000e-01
297000.0 1.006274000e+00 2.405900000e-01
306500.0 1.005938000e+00 2.524730000e-01
316000.0 1.006351000e+00 2.630420000e-01
325500.0 1.006776000e+00 2.738290000e-01
335000.0 1.006747000e+00 2.846670000e-01
344500.0 1.007058000e+00 2.957240000e-01
354000.0 1.008092000e+00 3.057690000e-01
363500.0 1.007904000e+00 3.159730000e-01
373000.0 1.007761000e+00 3.270460000e-01
382500.0 1.008803000e+00 3.378690000e-01
392000.0 1.009032000e+00 3.483510000e-01
401500.0 1.008685000e+00 3.586810000e-01
411000.0 1.008560000e+00 3.684840000e-01
420500.0 1.009417000e+00 3.790660000e-01
430000.0 1.009541000e+00 3.896920000e-01
439500.0 1.009470000e+00 4.003080000e-01
449000.0 1.010280000e+00 4.107000000e-01
458500.0 1.009827000e+00 4.206240000e-01
468000.0 1.009609000e+00 4.312580000e-01
477500.0 1.010797000e+00 4.404010000e-01
487000.0 1.011016000e+00 4.511920000e-01
496500.0 1.010949000e+00 4.612050000e-01
506000.0 1.011273000e+00 4.707300000e-01
515500.0 1.012564000e+00 4.806860000e-01
525000.0 1.012069000e+00 4.912420000e-01
534500.0 1.013107000e+00 5.000420000e-01
544000.0 1.013508000e+00 5.102020000e-01
553500.0 1.013875000e+00 5.199680000e-01
563000.0 1.015018000e+00 5.308050000e-01
572500.0 1.014780000e+00 5.398670000e-01
582000.0 1.015255000e+00 5.503200000e-01
591500.0 1.016520000e+00 5.591470000e-01
601000.0 1.016278000e+00 5.689960000e-01
610500.0 1.017794000e+00 5.788340000e-01
620000.0 1.017647000e+00 5.881520000e-01
629500.0 1.018051000e+00 5.987570000e-01
639000.0 1.019072000e+00 6.074600000e-01
648500.0 1.019272000e+00 6.170690000e-01
658000.0 1.020525000e+00 6.265090000e-01
667500.0 1.020553000e+00 6.375690000e-01
677000.0 1.022540000e+00 6.455280000e-01
686500.0 1.021918000e+00 6.559620000e-01
696000.0 1.022178000e+00 6.660560000e-01
705500.0 1.024647000e+00 6.752930000e-01
715000.0 1.025130000e+00 6.829520000e-01
724500.0 1.026601000e+00 6.932000000e-01
734000.0 1.027510000e+00 7.044370000e-01
743500.0 1.027916000e+00 7.121390000e-01
753000.0 1.029676000e+00 7.224440000e-01
762500.0 1.029819000e+00 7.314430000e-01
772000.0 1.031968000e+00 7.401950000e-01
781500.0 1.032434000e+00 7.498350000e-01
791000.0 1.035334000e+00 7.582850000e-01
800500.0 1.035583000e+00 7.683860000e-01
810000.0 1.035788000e+00 7.770660000e-01
819500.0 1.038361000e+00 7.866700000e-01
829000.0 1.039101000e+00 7.954460000e-01
838500.0 1.042602000e+00 8.054940000e-01
848000.0 1.043444000e+00 8.129240000e-01
857500.0 1.045027000e+00 8.233810000e-01
867000.0 1.047728000e+00 8.319470000e-01
876500.0 1.047364000e+00 8.413270000e-01
886000.0 1.050678000e+00 8.504110000e-01
895500.0 1.052968000e+00 8.588820000e-01
905000.0 1.055113000e+00 8.682380000e-01
914500.0 1.057104000e+00 8.770690000e-01
924000.0 1.058146000e+00 8.871030000e-01
933500.0 1.060989000e+00 8.952990000e-01
943000.0 1.063450000e+00 9.034130000e-01
952500.0 1.066671000e+00 9.132390000e-01
962000.0 1.069271000e+00 9.210610000e-01
971500.0 1.070557000e+00 9.294210000e-01
981000.0 1.072697000e+00 9.396310000e-01
990500.0 1.076504000e+00 9.486380000e-01
1000000.0 1.078717000e+00 9.556310000e-01
1090000.0 1.107314000e+00 1.035475000e+00
1180000.0 1.145783000e+00 1.112031000e+00
1270000.0 1.195022000e+00 1.183268000e+00
1360000.0 1.254688000e+00 1.242852000e+00
1450000.0 1.323726000e+00 1.296116000e+00
1540000.0 1.404712000e+00 1.333505000e+00
1630000.0 1.490286000e+00 1.354088000e+00
1720000.0 1.578980000e+00 1.354972000e+00
1810000.0 1.670830000e+00 1.335631000e+00
1900000.0 1.754296000e+00 1.298083000e+00
1990000.0 1.832294000e+00 1.238642000e+00
2080000.0 1.890009000e+00 1.166675000e+00
2170000.0 1.932833000e+00 1.082432000e+00
2260000.0 1.958368000e+00 9.923450000e-01
2350000.0 1.965962000e+00 9.014040000e-01
2440000.0 1.962057000e+00 8.176240000e-01
2530000.0 1.943504000e+00 7.359070000e-01
2620000.0 1.914881000e+00 6.607170000e-01
2710000.0 1.882622000e+00 5.997830000e-01
2800000.0 1.836853000e+00 5.741170000e-01
2890000.0 1.805363000e+00 4.904270000e-01
2980000.0 1.764936000e+00 4.484000000e-01
3070000.0 1.727028000e+00 4.078250000e-01
3160000.0 1.689535000e+00 3.749460000e-01
3250000.0 1.654975000e+00 3.454870000e-01
3340000.0 1.617764000e+00 3.192070000e-01
3430000.0 1.588017000e+00 2.949360000e-01
3520000.0 1.557944000e+00 2.721610000e-01
3610000.0 1.529380000e+00 2.519060000e-01
3700000.0 1.503806000e+00 2.312640000e-01
3790000.0 1.478774000e+00 2.135000000e-01
3880000.0 1.455440000e+00 1.974770000e-01
3970000.0 1.433844000e+00 1.805720000e-01
4060000.0 1.414785000e+00 1.660740000e-01
4150000.0 1.395706000e+00 1.506580000e-01
4240000.0 1.380973000e+00 1.367150000e-01
4330000.0 1.364484000e+00 1.220990000e-01
4420000.0 1.349761000e+00 1.090060000e-01
4510000.0 1.338523000e+00 9.494800000e-02
4600000.0 1.325697000e+00 8.153100000e-02
4690000.0 1.315861000e+00 6.815100000e-02
4780000.0 1.306854000e+00 5.463600000e-02
4870000.0 1.299083000e+00 4.242100000e-02
4960000.0 1.292011000e+00 3.114500000e-02
5050000.0 1.277838000e+00 1.783900000e-02
5140000.0 1.272463000e+00 4.415000000e-03
5230000.0 1.267206000e+00 -6.834000000e-03
5320000.0 1.263009000e+00 -1.943100000e-02
5410000.0 1.259406000e+00 -3.171000000e-02
5500000.0 1.255040000e+00 -4.242000000e-02
5590000.0 1.251940000e+00 -5.403800000e-02
5680000.0 1.247907000e+00 -6.573000000e-02
5770000.0 1.245342000e+00 -7.674800000e-02
5860000.0 1.242068000e+00 -8.845600000e-02
5950000.0 1.239339000e+00 -9.747400000e-02
6040000.0 1.238598000e+00 -1.081470000e-01
6130000.0 1.233472000e+00 -1.171070000e-01
6220000.0 1.232062000e+00 -1.279080000e-01
6310000.0 1.231204000e+00 -1.344850000e-01
6400000.0 1.229671000e+00 -1.441050000e-01
6490000.0 1.227211000e+00 -1.524520000e-01
6580000.0 1.225861000e+00 -1.580330000e-01
6670000.0 1.224252000e+00 -1.656050000e-01
6760000.0 1.223038000e+00 -1.721500000e-01
6850000.0 1.222570000e+00 -1.770190000e-01
6940000.0 1.221098000e+00 -1.819090000e-01
7030000.0 1.219948000e+00 -1.858920000e-01
7120000.0 1.218630000e+00 -1.900590000e-01
7210000.0 1.218769000e+00 -1.915900000e-01
7300000.0 1.219069000e+00 -1.929320000e-01
7390000.0 1.219382000e+00 -1.938940000e-01
7480000.0 1.220173000e+00 -1.940370000e-01
7570000.0 -2.430050000e-01 -1.259183000e+00
7660000.0 -2.421440000e-01 -1.259098000e+00
7750000.0 -2.414280000e-01 -1.259453000e+00
7840000.0 -2.403530000e-01 -1.259300000e+00
7930000.0 -2.392040000e-01 -1.260913000e+00
8020000.0 -2.394580000e-01 -1.260681000e+00
8110000.0 -2.383720000e-01 -1.261416000e+00
8200000.0 -2.382370000e-01 -1.262681000e+00
8290000.0 -2.367940000e-01 -1.262590000e+00
8380000.0 -2.366460000e-01 -1.262786000e+00
8470000.0 -2.360630000e-01 -1.263377000e+00
8560000.0 -2.340020000e-01 -1.264799000e+00
8650000.0 -2.350930000e-01 -1.264554000e+00
8740000.0 -2.340720000e-01 -1.265327000e+00
8830000.0 -2.325190000e-01 -1.266937000e+00
8920000.0 -2.330470000e-01 -1.265447000e+00
9010000.0 -2.312520000e-01 -1.266669000e+00
9100000.0 -2.304740000e-01 -1.267983000e+00
9190000.0 -2.302740000e-01 -1.269611000e+00
9280000.0 -2.314280000e-01 -1.269407000e+00
9370000.0 -2.285120000e-01 -1.272132000e+00
9460000.0 -2.278550000e-01 -1.271025000e+00
9550000.0 -2.264980000e-01 -1.271750000e+00
9640000.0 -2.278330000e-01 -1.271836000e+00
9730000.0 -2.273830000e-01 -1.273272000e+00
9820000.0 -2.257060000e-01 -1.274350000e+00
9910000.0 -2.258650000e-01 -1.274797000e+00
10000000.0 -2.244700000e-01 -1.275346000e+00
10900000.0 -2.187220000e-01 -1.284990000e+00
11800000.0 -2.131990000e-01 -1.294665000e+00
12700000.0 -2.059400000e-01 -1.303676000e+00
13600000.0 -2.004820000e-01 -1.315485000e+00
14500000.0 -1.946480000e-01 -1.326074000e+00
15400000.0 -1.890770000e-01 -1.336112000e+00
16300000.0 -1.814590000e-01 -1.348300000e+00
17200000.0 -1.757180000e-01 -1.359947000e+00
18100000.0 -1.680750000e-01 -1.372812000e+00
19000000.0 -1.617940000e-01 -1.384525000e+00
19900000.0 -1.533930000e-01 -1.397390000e+00
20800000.0 -1.447940000e-01 -1.409885000e+00
21700000.0 -1.357160000e-01 -1.423659000e+00
22600000.0 -1.267970000e-01 -1.434904000e+00
23500000.0 -1.180130000e-01 -1.449919000e+00
24400000.0 -1.088780000e-01 -1.462126000e+00
25300000.0 -9.776900000e-02 -1.477929000e+00
26200000.0 -8.795800000e-02 -1.491129000e+00
27100000.0 -7.585000000e-02 -1.503966000e+00
28000000.0 -6.470300000e-02 -1.518423000e+00
28900000.0 -5.275200000e-02 -1.534627000e+00
29800000.0 -1.471270000e-01 -1.529090000e+00
30700000.0 -2.486700000e-02 -1.562592000e+00
31600000.0 -1.209300000e-02 -1.576464000e+00
32500000.0 2.802000000e-03 -1.591101000e+00
33400000.0 1.830900000e-02 -1.606548000e+00
34300000.0 3.555900000e-02 -1.620548000e+00
35200000.0 5.109400000e-02 -1.636812000e+00
36100000.0 6.714000000e-02 -1.649926000e+00
37000000.0 8.664000000e-02 -1.664193000e+00
37900000.0 1.063890000e-01 -1.679280000e+00
38800000.0 1.246160000e-01 -1.694050000e+00
39700000.0 1.445920000e-01 -1.708369000e+00
40600000.0 1.681230000e-01 -1.722680000e+00
41500000.0 1.889540000e-01 -1.736083000e+00
42400000.0 2.104450000e-01 -1.749992000e+00
43300000.0 2.352130000e-01 -1.763405000e+00
44200000.0 2.588880000e-01 -1.778007000e+00
45100000.0 2.857230000e-01 -1.788725000e+00
46000000.0 3.118250000e-01 -1.801312000e+00
46900000.0 3.046490000e-01 -1.815597000e+00
47800000.0 3.668000000e-01 -1.823195000e+00
48700000.0 3.600510000e-01 -1.838585000e+00
49600000.0 4.623270000e-01 -1.838073000e+00
50500000.0 4.217980000e-01 -1.858298000e+00
51400000.0 5.266380000e-01 -1.854470000e+00
52300000.0 4.870790000e-01 -1.874801000e+00
53200000.0 5.548960000e-01 -1.874591000e+00
54100000.0 5.536180000e-01 -1.885156000e+00
55000000.0 6.630670000e-01 -1.871664000e+00
55900000.0 6.599710000e-01 -1.885821000e+00
56800000.0 6.968030000e-01 -1.885207000e+00
57700000.0 7.339550000e-01 -1.885319000e+00
58600000.0 7.726360000e-01 -1.883663000e+00
59500000.0 8.110410000e-01 -1.882026000e+00
60400000.0 8.498800000e-01 -1.876589000e+00
61300000.0 8.888420000e-01 -1.869305000e+00
62200000.0 9.266400000e-01 -1.860733000e+00
63100000.0 9.657970000e-01 -1.852880000e+00
64000000.0 1.004316000e+00 -1.842030000e+00
64900000.0 1.044432000e+00 -1.827736000e+00
65800000.0 1.082766000e+00 -1.810668000e+00
66700000.0 1.123767000e+00 -1.798055000e+00
67600000.0 1.157965000e+00 -1.775989000e+00
68500000.0 1.196775000e+00 -1.757383000e+00
69400000.0 1.234633000e+00 -1.734468000e+00
70300000.0 1.268338000e+00 -1.709356000e+00
71200000.0 1.303064000e+00 -1.684175000e+00
72100000.0 1.337958000e+00 -1.658052000e+00
73000000.0 1.369488000e+00 -1.629155000e+00
73900000.0 1.399160000e+00 -1.598680000e+00
74800000.0 1.425849000e+00 -1.565173000e+00
75700000.0 1.455171000e+00 -1.535599000e+00
76600000.0 1.481050000e+00 -1.502373000e+00
77500000.0 1.505568000e+00 -1.466836000e+00
78400000.0 1.526698000e+00 -1.432675000e+00
79300000.0 1.549371000e+00 -1.394732000e+00
80200000.0 1.565721000e+00 -1.360207000e+00
81100000.0 1.582859000e+00 -1.322074000e+00
82000000.0 1.597848000e+00 -1.286519000e+00
82900000.0 1.613786000e+00 -1.248248000e+00
83800000.0 1.625651000e+00 -1.211171000e+00
84700000.0 1.633760000e+00 -1.174155000e+00
85600000.0 1.646505000e+00 -1.136880000e+00
86500000.0 1.650082000e+00 -1.098593000e+00
87400000.0 1.655155000e+00 -1.064326000e+00
88300000.0 1.660277000e+00 -1.026898000e+00
89200000.0 1.663421000e+00 -9.916280000e-01
90100000.0 1.662204000e+00 -9.568470000e-01
91000000.0 1.663261000e+00 -9.212970000e-01
91900000.0 1.664118000e+00 -8.879550000e-01
92800000.0 1.660507000e+00 -8.554720000e-01
93700000.0 1.657422000e+00 -8.235710000e-01
94600000.0 1.653466000e+00 -7.911550000e-01
95500000.0 1.647522000e+00 -7.606040000e-01
96400000.0 1.641712000e+00 -7.294850000e-01
97300000.0 1.635918000e+00 -7.020900000e-01
98200000.0 1.626902000e+00 -6.739610000e-01
99100000.0 1.616306000e+00 -6.465450000e-01
100000000.0 1.609712000e+00 -6.211850000e-01
109000000.0 1.502368000e+00 -3.994480000e-01
118000000.0 1.376398000e+00 -2.446460000e-01
127000000.0 1.256694000e+00 -1.374390000e-01
136000000.0 1.147578000e+00 -6.853500000e-02
145000000.0 1.050283000e+00 -1.940500000e-02
154000000.0 1.000692000e+00 6.370000000e-04
163000000.0 1.000867000e+00 -1.970000000e-04
172000000.0 1.002931000e+00 -1.297000000e-03
181000000.0 1.004024000e+00 -1.520000000e-03
190000000.0 1.005130000e+00 -1.691000000e-03
199000000.0 1.004986000e+00 -1.401000000e-03
208000000.0 1.005675000e+00 -1.590000000e-04
217000000.0 1.005493000e+00 -2.046000000e-03
226000000.0 1.006083000e+00 -1.398000000e-03
235000000.0 1.005946000e+00 -9.340000000e-04
244000000.0 1.006701000e+00 -1.219000000e-03
253000000.0 1.005818000e+00 -6.630000000e-04
262000000.0 1.005929000e+00 -1.731000000e-03
271000000.0 1.004439000e+00 -6.120000000e-04
280000000.0 1.003548000e+00 -1.190000000e-03
289000000.0 1.003439000e+00 -1.229000000e-03
298000000.0 1.001645000e+00 -1.680000000e-04
307000000.0 1.003347000e+00 6.670000000e-04
316000000.0 1.003012000e+00 -1.730000000e-04
325000000.0 1.005235000e+00 -1.308000000e-03
334000000.0 1.006129000e+00 2.570000000e-04
343000000.0 1.006168000e+00 1.239000000e-03
352000000.0 1.006972000e+00 1.846000000e-03
361000000.0 9.977030000e-01 -3.366500000e-02
370000000.0 1.007554000e+00 9.640000000e-04
379000000.0 1.005610000e+00 -5.360000000e-04
388000000.0 9.982150000e-01 -3.426700000e-02
397000000.0 1.005494000e+00 2.014000000e-03
406000000.0 1.007521000e+00 1.983700000e-02
415000000.0 1.003250000e+00 5.980000000e-04
424000000.0 1.003110000e+00 1.237000000e-03
433000000.0 1.002717000e+00 1.168000000e-03
442000000.0 9.997440000e-01 1.263000000e-03
451000000.0 1.001090000e+00 3.700000000e-04
460000000.0 1.000795000e+00 4.891000000e-03
469000000.0 1.001593000e+00 2.866000000e-03
478000000.0 1.003443000e+00 3.152000000e-03
487000000.0 1.005695000e+00 4.733000000e-03
496000000.0 1.006916000e+00 3.876000000e-03
505000000.0 1.006825000e+00 4.295000000e-03
514000000.0 1.009507000e+00 7.013000000e-03
523000000.0 1.007002000e+00 4.653000000e-03
532000000.0 1.008260000e+00 8.089000000e-03
541000000.0 1.008823000e+00 7.838000000e-03
550000000.0 1.009617000e+00 8.910000000e-03
559000000.0 1.008733000e+00 5.780000000e-03
568000000.0 1.007657000e+00 7.390000000e-03
577000000.0 1.004282000e+00 8.772000000e-03
586000000.0 1.004444000e+00 5.864000000e-03
595000000.0 1.004344000e+00 6.413000000e-03
604000000.0 1.004799000e+00 6.219000000e-03
613000000.0 1.005933000e+00 5.701000000e-03
622000000.0 1.008414000e+00 6.591000000e-03
631000000.0 1.009930000e+00 8.780000000e-03
640000000.0 1.013344000e+00 7.955000000e-03
649000000.0 1.013392000e+00 7.609000000e-03
658000000.0 1.019517000e+00 5.669000000e-03
667000000.0 1.015504000e+00 1.255600000e-02
676000000.0 1.018266000e+00 6.896000000e-03
685000000.0 1.017961000e+00 8.877000000e-03
694000000.0 1.017967000e+00 1.007700000e-02
703000000.0 1.013642000e+00 8.322000000e-03
712000000.0 1.007704000e+00 5.761000000e-03
721000000.0 1.009990000e+00 3.523000000e-03
730000000.0 1.007000000e+00 3.322000000e-03
739000000.0 1.003337000e+00 4.658000000e-03
748000000.0 1.000017000e+00 2.309000000e-03
757000000.0 1.001352000e+00 2.430000000e-04
766000000.0 1.006464000e+00 -2.828000000e-03
775000000.0 1.009422000e+00 -3.330000000e-03
784000000.0 1.012737000e+00 -2.546000000e-03
793000000.0 1.015429000e+00 -4.239000000e-03
802000000.0 1.014171000e+00 -5.662000000e-03
811000000.0 1.016980000e+00 -1.069700000e-02
820000000.0 1.018558000e+00 -2.739000000e-03
829000000.0 1.018238000e+00 -5.645000000e-03
838000000.0 1.016028000e+00 -1.002300000e-02
847000000.0 1.017653000e+00 -9.625000000e-03
856000000.0 1.019118000e+00 -3.374000000e-03
865000000.0 1.011180000e+00 -2.600000000e-04
874000000.0 1.010280000e+00 -3.880000000e-03
883000000.0 1.010054000e+00 -3.301000000e-03
892000000.0 1.004622000e+00 1.714000000e-03
901000000.0 1.000273000e+00 4.068000000e-03
910000000.0 1.002449000e+00 4.801000000e-03
919000000.0 1.001545000e+00 -5.286000000e-03
928000000.0 1.005043000e+00 -7.545000000e-03
937000000.0 1.002250000e+00 -7.023000000e-03
946000000.0 1.003116000e+00 -1.133600000e-02
955000000.0 1.003926000e+00 -9.748000000e-03
964000000.0 1.004566000e+00 -4.730000000e-03
973000000.0 1.004289000e+00 -1.484400000e-02
982000000.0 1.007057000e+00 -6.862000000e-03
991000000.0 1.002009000e+00 -1.041200000e-02
1000000000.0 1.004301000e+00 -6.811000000e-03
1004500000.0 1.003266000e+00 -7.905000000e-03
1009000000.0 1.003737000e+00 -3.542000000e-03
1013500000.0 1.001028000e+00 -7.247000000e-03
1018000000.0 1.002860000e+00 -4.724000000e-03
1022500000.0 1.002348000e+00 -5.621000000e-03
1027000000.0 1.006592000e+00 -8.824000000e-03
1031500000.0 1.002943000e+00 -1.011900000e-02
1036000000.0 9.996530000e-01 -2.950000000e-03
1040500000.0 9.988150000e-01 -2.515000000e-03
1045000000.0 1.001670000e+00 -2.433000000e-03
1049500000.0 9.980770000e-01 -1.713000000e-03
1054000000.0 1.002366000e+00 1.978000000e-03
1058500000.0 1.002249000e+00 -4.460000000e-03
1063000000.0 9.993360000e-01 -3.661000000e-03
1067500000.0 1.000334000e+00 1.740000000e-04
1072000000.0 1.000824000e+00 -3.678000000e-03
1076500000.0 1.004745000e+00 -4.852000000e-03
1081000000.0 1.005194000e+00 -3.115000000e-03
1085500000.0 1.000862000e+00 -2.030000000e-04
1090000000.0 9.990860000e-01 -3.830000000e-03
1094500000.0 9.996720000e-01 -3.272000000e-03
1099000000.0 1.003562000e+00 -1.793000000e-03
1103500000.0 1.002449000e+00 -4.362000000e-03
1108000000.0 1.006397000e+00 -1.075000000e-03
1112500000.0 1.004559000e+00 -9.710000000e-04
1117000000.0 1.002029000e+00 -6.240000000e-04
1121500000.0 1.002331000e+00 -5.500000000e-04
1126000000.0 1.007124000e+00 -1.106400000e-02
1130500000.0 1.006386000e+00 3.914600000e-02
1135000000.0 1.004992000e+00 4.200000000e-05
1139500000.0 1.007119000e+00 -3.098000000e-03
1144000000.0 1.002514000e+00 -3.280000000e-04
1148500000.0 1.001802000e+00 -9.282000000e-03
1153000000.0 1.006515000e+00 -5.038000000e-03
1157500000.0 1.011697000e+00 -5.620000000e-03
1162000000.0 1.002536000e+00 -2.402000000e-03
1166500000.0 1.005026000e+00 -1.084600000e-02
1171000000.0 1.000382000e+00 -3.094000000e-03
1175500000.0 1.005764000e+00 -4.732000000e-03
1180000000.0 1.008141000e+00 -4.814000000e-03
1184500000.0 1.005529000e+00 -9.079000000e-03
1189000000.0 1.001490000e+00 2.976000000e-03
1193500000.0 1.002757000e+00 -1.298300000e-02
1198000000.0 1.005812000e+00 -8.895000000e-03
1202500000.0 1.010011000e+00 3.883000000e-03
1207000000.0 1.003868000e+00 -6.030000000e-04
1211500000.0 1.006056000e+00 -6.964000000e-03
1216000000.0 1.007455000e+00 -1.901000000e-03
1220500000.0 9.999180000e-01 -1.041500000e-02
1225000000.0 1.007815000e+00 -8.228000000e-03
1229500000.0 1.005831000e+00 -8.900000000e-04
1234000000.0 1.001794000e+00 -4.736000000e-03
1238500000.0 1.004252000e+00 -3.415000000e-03
1243000000.0 9.995930000e-01 2.672000000e-03
1247500000.0 1.000963000e+00 -1.009600000e-02
1252000000.0 1.009012000e+00 -3.700000000e-03
1256500000.0 1.003852000e+00 8.990000000e-04
1261000000.0 1.003390000e+00 1.320000000e-03
1265500000.0 9.979240000e-01 -5.838000000e-03
1270000000.0 1.006507000e+00 1.722000000e-03
1274500000.0 1.008689000e+00 1.875000000e-03
1279000000.0 1.004958000e+00 -2.519000000e-03
1283500000.0 1.007502000e+00 -4.174000000e-03
1288000000.0 1.003320000e+00 -9.730000000e-04
1292500000.0 1.001664000e+00 5.178000000e-03
1297000000.0 1.010261000e+00 1.882000000e-03
1301500000.0 1.138720000e+00 7.776300000e-02
1306000000.0 1.001887000e+00 2.392000000e-03
1310500000.0 1.004902000e+00 -4.580000000e-04
1315000000.0 9.973930000e-01 1.300000000e-03
1319500000.0 1.003037000e+00 3.012000000e-03
1324000000.0 1.007108000e+00 1.426000000e-03
1328500000.0 1.008963000e+00 3.746000000e-03
1333000000.0 9.999650000e-01 -2.990000000e-04
1337500000.0 9.987730000e-01 2.094000000e-03
1342000000.0 9.992600000e-01 6.439000000e-03
1346500000.0 1.007443000e+00 -2.947000000e-03
1351000000.0 1.008396000e+00 3.100000000e-05
1355500000.0 1.006404000e+00 1.253000000e-03
1360000000.0 1.003115000e+00 8.172000000e-03
1364500000.0 1.002110000e+00 -1.180000000e-04
1369000000.0 9.975430000e-01 2.278400000e-02
1373500000.0 1.002125000e+00 1.067600000e-02
1378000000.0 1.003196000e+00 1.276200000e-02
1382500000.0 1.008898000e+00 7.430000000e-03
1387000000.0 1.002058000e+00 1.090300000e-02
1391500000.0 1.001582000e+00 9.623000000e-03
1396000000.0 1.008006000e+00 9.034000000e-03
1400500000.0 1.004536000e+00 1.307900000e-02
1405000000.0 1.002701000e+00 1.263000000e-02
1409500000.0 1.008465000e+00 2.148100000e-02
1414000000.0 1.004994000e+00 1.286500000e-02
1418500000.0 1.004973000e+00 2.277500000e-02
1423000000.0 9.959690000e-01 -1.289000000e-03
1427500000.0 1.003623000e+00 1.407700000e-02
1432000000.0 1.005577000e+00 3.381600000e-02
1436500000.0 1.002660000e+00 1.127100000e-02
1441000000.0 9.982210000e-01 -7.621000000e-03
1445500000.0 1.005661000e+00 1.420400000e-02
1450000000.0 1.004797000e+00 2.696200000e-02
