! piloto_saltos / abierto_101puntos / r07
# HZ S RI R 50
50000.0 1.004844000e+00 -6.975100000e-02
59500.0 1.007667000e+00 -5.621600000e-02
69000.0 1.005561000e+00 -4.301600000e-02
78500.0 1.003085000e+00 -2.945500000e-02
88000.0 1.000922000e+00 -1.562700000e-02
97500.0 1.000190000e+00 -3.926000000e-03
107000.0 1.000035000e+00 9.166000000e-03
116500.0 9.998440000e-01 2.115300000e-02
126000.0 1.003363000e+00 3.387900000e-02
135500.0 1.001353000e+00 4.583500000e-02
145000.0 1.001458000e+00 5.791300000e-02
154500.0 1.002155000e+00 7.051800000e-02
164000.0 1.002391000e+00 8.187400000e-02
173500.0 1.002337000e+00 9.388700000e-02
183000.0 1.002089000e+00 1.053230000e-01
192500.0 1.003702000e+00 1.174890000e-01
202000.0 1.004196000e+00 1.296550000e-01
211500.0 1.003085000e+00 1.404960000e-01
221000.0 1.003499000e+00 1.523100000e-01
230500.0 1.004969000e+00 1.635480000e-01
240000.0 1.003895000e+00 1.750760000e-01
249500.0 1.005047000e+00 1.858600000e-01
259000.0 1.004998000e+00 1.983220000e-01
268500.0 1.005352000e+00 2.083180000e-01
278000.0 1.005264000e+00 2.203100000e-01
287500.0 1.006113000e+00 2.318640000e-01
297000.0 1.006773000e+00 2.416750000e-01
306500.0 1.007071000e+00 2.528910000e-01
316000.0 1.007270000e+00 2.650260000e-01
325500.0 1.007774000e+00 2.755460000e-01
335000.0 1.006521000e+00 2.867980000e-01
344500.0 1.007671000e+00 2.967430000e-01
354000.0 1.007992000e+00 3.072310000e-01
363500.0 1.008620000e+00 3.182170000e-01
373000.0 1.008660000e+00 3.291580000e-01
382500.0 1.009547000e+00 3.399620000e-01
392000.0 1.008916000e+00 3.499300000e-01
401500.0 1.008214000e+00 3.600350000e-01
411000.0 1.010370000e+00 3.711190000e-01
420500.0 1.009200000e+00 3.813280000e-01
430000.0 1.009272000e+00 3.913970000e-01
439500.0 1.011072000e+00 4.019120000e-01
449000.0 1.010200000e+00 4.122620000e-01
458500.0 1.010714000e+00 4.221920000e-01
468000.0 1.010561000e+00 4.324800000e-01
477500.0 1.011141000e+00 4.419140000e-01
487000.0 1.012312000e+00 4.521470000e-01
496500.0 1.011727000e+00 4.628810000e-01
506000.0 1.013167000e+00 4.726660000e-01
515500.0 1.012776000e+00 4.823240000e-01
525000.0 1.013266000e+00 4.933800000e-01
534500.0 1.013571000e+00 5.036460000e-01
544000.0 1.014244000e+00 5.124670000e-01
553500.0 1.016524000e+00 5.226980000e-01
563000.0 1.015998000e+00 5.333190000e-01
572500.0 1.015428000e+00 5.423690000e-01
582000.0 1.016269000e+00 5.521510000e-01
591500.0 1.016208000e+00 5.629120000e-01
601000.0 1.017182000e+00 5.724140000e-01
610500.0 1.018767000e+00 5.824270000e-01
620000.0 1.018561000e+00 5.908160000e-01
629500.0 1.019050000e+00 6.007190000e-01
639000.0 1.019121000e+00 6.106060000e-01
648500.0 1.020198000e+00 6.194200000e-01
658000.0 1.020184000e+00 6.298040000e-01
667500.0 1.020989000e+00 6.401700000e-01
677000.0 1.022931000e+00 6.486330000e-01
686500.0 1.023565000e+00 6.589400000e-01
696000.0 1.025663000e+00 6.688590000e-01
705500.0 1.024958000e+00 6.770760000e-01
715000.0 1.025911000e+00 6.866160000e-01
724500.0 1.026839000e+00 6.969260000e-01
734000.0 1.027654000e+00 7.062750000e-01
743500.0 1.028374000e+00 7.158160000e-01
753000.0 1.031886000e+00 7.239050000e-01
762500.0 1.032633000e+00 7.326450000e-01
772000.0 1.032453000e+00 7.430170000e-01
781500.0 1.034621000e+00 7.531450000e-01
791000.0 1.034889000e+00 7.620150000e-01
800500.0 1.036912000e+00 7.715260000e-01
810000.0 1.039577000e+00 7.795370000e-01
819500.0 1.040255000e+00 7.899400000e-01
829000.0 1.042143000e+00 7.991360000e-01
838500.0 1.045124000e+00 8.075940000e-01
848000.0 1.044160000e+00 8.166650000e-01
857500.0 1.045604000e+00 8.254150000e-01
867000.0 1.049423000e+00 8.346580000e-01
876500.0 1.049788000e+00 8.466140000e-01
886000.0 1.052860000e+00 8.527200000e-01
895500.0 1.055497000e+00 8.618000000e-01
905000.0 1.057424000e+00 8.714160000e-01
914500.0 1.059229000e+00 8.804830000e-01
924000.0 1.060475000e+00 8.897740000e-01
933500.0 1.062330000e+00 8.988920000e-01
943000.0 1.067255000e+00 9.081780000e-01
952500.0 1.068657000e+00 9.153150000e-01
962000.0 1.069332000e+00 9.241160000e-01
971500.0 1.076490000e+00 9.338510000e-01
981000.0 1.077667000e+00 9.431000000e-01
990500.0 1.078246000e+00 9.501900000e-01
1000000.0 1.080586000e+00 9.595320000e-01
1090000.0 1.109946000e+00 1.039386000e+00
1180000.0 1.149869000e+00 1.114893000e+00
1270000.0 1.201551000e+00 1.186188000e+00
1360000.0 1.259946000e+00 1.249258000e+00
1450000.0 1.330608000e+00 1.300043000e+00
1540000.0 1.413047000e+00 1.335079000e+00
1630000.0 1.500555000e+00 1.355886000e+00
1720000.0 1.590763000e+00 1.353661000e+00
1810000.0 1.681692000e+00 1.334437000e+00
1900000.0 1.763474000e+00 1.289652000e+00
1990000.0 1.842476000e+00 1.229210000e+00
2080000.0 1.899005000e+00 1.156441000e+00
2170000.0 1.938483000e+00 1.073578000e+00
2260000.0 1.963502000e+00 9.810210000e-01
2350000.0 1.970202000e+00 8.906800000e-01
2440000.0 1.958769000e+00 8.038470000e-01
2530000.0 1.938567000e+00 7.262870000e-01
2620000.0 1.912309000e+00 6.549800000e-01
2710000.0 1.878757000e+00 5.911640000e-01
2800000.0 1.842887000e+00 4.636520000e-01
2890000.0 1.801460000e+00 4.857860000e-01
2980000.0 1.760489000e+00 4.427590000e-01
3070000.0 1.721148000e+00 4.055420000e-01
3160000.0 1.684623000e+00 3.723900000e-01
3250000.0 1.650439000e+00 3.431040000e-01
3340000.0 1.617355000e+00 3.161880000e-01
3430000.0 1.584166000e+00 2.928950000e-01
3520000.0 1.555116000e+00 2.700820000e-01
3610000.0 1.526282000e+00 2.504900000e-01
3700000.0 1.500013000e+00 2.310320000e-01
3790000.0 1.475354000e+00 2.142740000e-01
3880000.0 1.451392000e+00 1.962800000e-01
3970000.0 1.432915000e+00 1.821970000e-01
4060000.0 1.412282000e+00 1.650490000e-01
4150000.0 1.394348000e+00 1.508610000e-01
4240000.0 1.378031000e+00 1.369210000e-01
4330000.0 1.364157000e+00 1.223200000e-01
4420000.0 1.347865000e+00 1.082450000e-01
4510000.0 1.335673000e+00 9.531200000e-02
4600000.0 1.324825000e+00 8.153200000e-02
4690000.0 1.315108000e+00 6.951300000e-02
4780000.0 1.305364000e+00 5.697000000e-02
4870000.0 1.297484000e+00 4.318400000e-02
4960000.0 1.290474000e+00 3.097900000e-02
5050000.0 1.275863000e+00 1.727400000e-02
5140000.0 1.271420000e+00 5.295000000e-03
5230000.0 1.266495000e+00 -6.794000000e-03
5320000.0 1.262275000e+00 -1.790300000e-02
5410000.0 1.258093000e+00 -3.067500000e-02
5500000.0 1.255116000e+00 -4.205400000e-02
5590000.0 1.252185000e+00 -5.378400000e-02
5680000.0 1.247615000e+00 -6.581600000e-02
5770000.0 1.244401000e+00 -7.577100000e-02
5860000.0 1.242547000e+00 -8.611300000e-02
5950000.0 1.238261000e+00 -9.712500000e-02
6040000.0 1.237204000e+00 -1.077740000e-01
6130000.0 1.233431000e+00 -1.174880000e-01
6220000.0 1.232708000e+00 -1.262760000e-01
6310000.0 1.229957000e+00 -1.344310000e-01
6400000.0 1.228248000e+00 -1.432150000e-01
6490000.0 1.226497000e+00 -1.509650000e-01
6580000.0 1.224604000e+00 -1.586390000e-01
6670000.0 1.222742000e+00 -1.661810000e-01
6760000.0 1.221755000e+00 -1.707810000e-01
6850000.0 1.221372000e+00 -1.751130000e-01
6940000.0 1.221119000e+00 -1.812600000e-01
7030000.0 1.220486000e+00 -1.859330000e-01
7120000.0 1.218908000e+00 -1.890240000e-01
7210000.0 1.219843000e+00 -1.911130000e-01
7300000.0 1.219339000e+00 -1.931360000e-01
7390000.0 1.218917000e+00 -1.931910000e-01
7480000.0 1.217851000e+00 -1.929130000e-01
7570000.0 -2.423450000e-01 -1.258538000e+00
7660000.0 -2.410480000e-01 -1.259254000e+00
7750000.0 -2.418510000e-01 -1.259244000e+00
7840000.0 -2.402240000e-01 -1.259187000e+00
7930000.0 -2.397950000e-01 -1.260607000e+00
8020000.0 -2.379480000e-01 -1.261049000e+00
8110000.0 -2.372850000e-01 -1.260785000e+00
8200000.0 -2.371680000e-01 -1.262005000e+00
8290000.0 -2.355040000e-01 -1.262753000e+00
8380000.0 -2.361960000e-01 -1.262813000e+00
8470000.0 -2.357110000e-01 -1.263154000e+00
8560000.0 -2.342720000e-01 -1.264151000e+00
8650000.0 -2.329600000e-01 -1.265401000e+00
8740000.0 -2.326670000e-01 -1.264299000e+00
8830000.0 -2.320830000e-01 -1.267378000e+00
8920000.0 -2.318710000e-01 -1.267614000e+00
9010000.0 -2.316770000e-01 -1.266385000e+00
9100000.0 -2.305570000e-01 -1.268401000e+00
9190000.0 -2.301390000e-01 -1.269475000e+00
9280000.0 -2.294090000e-01 -1.269048000e+00
9370000.0 -2.281320000e-01 -1.269088000e+00
9460000.0 -2.283770000e-01 -1.270193000e+00
9550000.0 -2.272610000e-01 -1.271387000e+00
9640000.0 -2.259910000e-01 -1.272965000e+00
9730000.0 -2.275070000e-01 -1.273352000e+00
9820000.0 -2.251030000e-01 -1.274484000e+00
9910000.0 -2.254740000e-01 -1.275001000e+00
10000000.0 -2.233480000e-01 -1.275364000e+00
10900000.0 -2.188760000e-01 -1.283360000e+00
11800000.0 -2.125700000e-01 -1.294057000e+00
12700000.0 -2.065930000e-01 -1.303780000e+00
13600000.0 -2.001190000e-01 -1.315248000e+00
14500000.0 -1.938450000e-01 -1.325934000e+00
15400000.0 -1.873040000e-01 -1.337116000e+00
16300000.0 -1.816920000e-01 -1.348051000e+00
17200000.0 -1.763870000e-01 -1.359474000e+00
18100000.0 -1.687270000e-01 -1.372602000e+00
19000000.0 -1.619530000e-01 -1.385102000e+00
19900000.0 -1.537100000e-01 -1.396512000e+00
20800000.0 -1.455550000e-01 -1.410598000e+00
21700000.0 -1.363430000e-01 -1.422738000e+00
22600000.0 -1.284370000e-01 -1.435357000e+00
23500000.0 -1.176920000e-01 -1.449851000e+00
24400000.0 -1.079030000e-01 -1.462427000e+00
25300000.0 -9.662000000e-02 -1.476571000e+00
26200000.0 -8.768600000e-02 -1.490378000e+00
27100000.0 -7.577100000e-02 -1.504740000e+00
28000000.0 -6.481700000e-02 -1.518681000e+00
28900000.0 -5.149700000e-02 -1.534022000e+00
29800000.0 -2.024750000e-01 -1.406057000e+00
30700000.0 -2.533900000e-02 -1.561220000e+00
31600000.0 -1.040700000e-02 -1.576795000e+00
32500000.0 3.550000000e-03 -1.590184000e+00
33400000.0 1.901600000e-02 -1.604791000e+00
34300000.0 3.481900000e-02 -1.618464000e+00
35200000.0 5.330700000e-02 -1.634885000e+00
36100000.0 7.138300000e-02 -1.649532000e+00
37000000.0 8.867000000e-02 -1.664144000e+00
37900000.0 1.056370000e-01 -1.678754000e+00
38800000.0 1.255920000e-01 -1.693362000e+00
39700000.0 1.467280000e-01 -1.708331000e+00
40600000.0 1.666590000e-01 -1.723090000e+00
41500000.0 1.873060000e-01 -1.735736000e+00
42400000.0 2.113530000e-01 -1.749750000e+00
43300000.0 2.371470000e-01 -1.761980000e+00
44200000.0 2.598750000e-01 -1.775242000e+00
45100000.0 2.857920000e-01 -1.788167000e+00
46000000.0 3.123980000e-01 -1.800839000e+00
46900000.0 3.383230000e-01 -1.810430000e+00
47800000.0 3.676390000e-01 -1.823009000e+00
48700000.0 3.974670000e-01 -1.833362000e+00
49600000.0 4.250720000e-01 -1.841785000e+00
50500000.0 4.588820000e-01 -1.850653000e+00
51400000.0 4.895660000e-01 -1.860063000e+00
52300000.0 5.229360000e-01 -1.866574000e+00
53200000.0 5.545400000e-01 -1.872300000e+00
54100000.0 5.904340000e-01 -1.876781000e+00
55000000.0 6.263220000e-01 -1.879220000e+00
55900000.0 6.602720000e-01 -1.884363000e+00
56800000.0 6.977830000e-01 -1.886477000e+00
57700000.0 7.352760000e-01 -1.885284000e+00
58600000.0 7.738160000e-01 -1.884069000e+00
59500000.0 8.108460000e-01 -1.882894000e+00
60400000.0 8.505260000e-01 -1.874582000e+00
61300000.0 8.888190000e-01 -1.869637000e+00
62200000.0 9.272930000e-01 -1.863909000e+00
63100000.0 9.658540000e-01 -1.852905000e+00
64000000.0 1.004966000e+00 -1.840172000e+00
64900000.0 1.044435000e+00 -1.828881000e+00
65800000.0 1.083827000e+00 -1.813062000e+00
66700000.0 1.122651000e+00 -1.794655000e+00
67600000.0 1.160267000e+00 -1.776542000e+00
68500000.0 1.198641000e+00 -1.755365000e+00
69400000.0 1.233920000e+00 -1.734945000e+00
70300000.0 1.267235000e+00 -1.710456000e+00
71200000.0 1.303613000e+00 -1.682430000e+00
72100000.0 1.336696000e+00 -1.657426000e+00
73000000.0 1.368008000e+00 -1.628601000e+00
73900000.0 1.399323000e+00 -1.598276000e+00
74800000.0 1.426870000e+00 -1.564648000e+00
75700000.0 1.454362000e+00 -1.536269000e+00
76600000.0 1.481780000e+00 -1.500420000e+00
77500000.0 1.504517000e+00 -1.465067000e+00
78400000.0 1.528152000e+00 -1.429508000e+00
79300000.0 1.546990000e+00 -1.394570000e+00
80200000.0 1.566912000e+00 -1.357635000e+00
81100000.0 1.584856000e+00 -1.322401000e+00
82000000.0 1.600427000e+00 -1.285176000e+00
82900000.0 1.613651000e+00 -1.248691000e+00
83800000.0 1.624998000e+00 -1.210838000e+00
84700000.0 1.636576000e+00 -1.172370000e+00
85600000.0 1.643886000e+00 -1.134280000e+00
86500000.0 1.650407000e+00 -1.098248000e+00
87400000.0 1.657155000e+00 -1.064772000e+00
88300000.0 1.660389000e+00 -1.026946000e+00
89200000.0 1.662540000e+00 -9.890750000e-01
90100000.0 1.663495000e+00 -9.560680000e-01
91000000.0 1.663371000e+00 -9.228130000e-01
91900000.0 1.662616000e+00 -8.882530000e-01
92800000.0 1.660675000e+00 -8.538490000e-01
93700000.0 1.656026000e+00 -8.221440000e-01
94600000.0 1.651808000e+00 -7.908770000e-01
95500000.0 1.646082000e+00 -7.612080000e-01
96400000.0 1.641138000e+00 -7.304760000e-01
97300000.0 1.633068000e+00 -7.009790000e-01
98200000.0 1.627582000e+00 -6.732510000e-01
99100000.0 1.618883000e+00 -6.458850000e-01
100000000.0 1.609552000e+00 -6.199520000e-01
109000000.0 1.502849000e+00 -3.971530000e-01
118000000.0 1.377423000e+00 -2.407080000e-01
127000000.0 1.255819000e+00 -1.385420000e-01
136000000.0 1.149950000e+00 -4.880100000e-02
145000000.0 1.049780000e+00 -1.863600000e-02
154000000.0 9.992420000e-01 -1.685800000e-02
163000000.0 1.001826000e+00 9.900000000e-05
172000000.0 1.003088000e+00 1.759300000e-02
181000000.0 1.003262000e+00 -6.170000000e-04
190000000.0 1.004349000e+00 -1.336000000e-03
199000000.0 1.004538000e+00 -2.686000000e-03
208000000.0 1.005509000e+00 -1.780000000e-03
217000000.0 1.006551000e+00 -9.170000000e-04
226000000.0 1.007168000e+00 -1.270000000e-03
235000000.0 1.006522000e+00 -6.300000000e-04
244000000.0 1.006186000e+00 -1.210000000e-03
253000000.0 1.006044000e+00 -1.193000000e-03
262000000.0 1.006368000e+00 -8.160000000e-04
271000000.0 1.004445000e+00 1.960000000e-04
280000000.0 1.004307000e+00 -1.207000000e-03
289000000.0 1.002535000e+00 -1.180000000e-03
298000000.0 1.001925000e+00 -1.320000000e-03
307000000.0 1.002715000e+00 1.960000000e-04
316000000.0 1.005741000e+00 -4.300000000e-05
325000000.0 1.002920000e+00 -3.390000000e-04
334000000.0 1.006828000e+00 5.150000000e-04
343000000.0 1.006058000e+00 1.163000000e-03
352000000.0 1.005128000e+00 -2.014000000e-03
361000000.0 1.007599000e+00 2.280000000e-04
370000000.0 9.968480000e-01 -5.240500000e-02
379000000.0 1.006191000e+00 2.972000000e-03
388000000.0 1.005944000e+00 9.440000000e-04
397000000.0 1.004579000e+00 -1.620600000e-02
406000000.0 1.005435000e+00 4.870000000e-04
415000000.0 1.004562000e+00 1.326000000e-03
424000000.0 9.932980000e-01 -3.555200000e-02
433000000.0 1.001562000e+00 1.058000000e-03
442000000.0 1.001959000e+00 1.022000000e-03
451000000.0 1.000212000e+00 4.533000000e-03
460000000.0 1.002267000e+00 2.468000000e-03
469000000.0 1.003085000e+00 1.885000000e-03
478000000.0 1.005079000e+00 3.356000000e-03
487000000.0 1.006673000e+00 6.841000000e-03
496000000.0 1.006956000e+00 6.868000000e-03
505000000.0 1.007750000e+00 5.803000000e-03
514000000.0 1.008848000e+00 6.216000000e-03
523000000.0 1.008072000e+00 6.697000000e-03
532000000.0 1.009997000e+00 7.840000000e-03
541000000.0 1.006631000e+00 5.678000000e-03
550000000.0 1.009841000e+00 1.034400000e-02
559000000.0 1.010120000e+00 8.410000000e-03
568000000.0 1.007249000e+00 7.954000000e-03
577000000.0 1.005498000e+00 9.839000000e-03
586000000.0 1.006119000e+00 9.437000000e-03
595000000.0 1.005106000e+00 2.602000000e-03
604000000.0 1.003447000e+00 9.130000000e-03
613000000.0 1.008101000e+00 6.777000000e-03
622000000.0 1.009853000e+00 6.490000000e-03
631000000.0 1.010111000e+00 9.163000000e-03
640000000.0 1.015167000e+00 1.038900000e-02
649000000.0 1.016133000e+00 1.106900000e-02
658000000.0 1.013388000e+00 7.559000000e-03
667000000.0 1.015803000e+00 1.053700000e-02
676000000.0 1.013562000e+00 2.973000000e-03
685000000.0 1.016073000e+00 4.849000000e-03
694000000.0 1.015016000e+00 4.339000000e-03
703000000.0 1.015118000e+00 1.136100000e-02
712000000.0 1.011576000e+00 5.970000000e-04
721000000.0 1.010872000e+00 1.281700000e-02
730000000.0 1.011081000e+00 4.464000000e-03
739000000.0 1.002283000e+00 1.108000000e-03
748000000.0 1.001197000e+00 9.159000000e-03
757000000.0 1.002065000e+00 2.799000000e-03
766000000.0 1.005395000e+00 -2.937000000e-03
775000000.0 1.008453000e+00 -3.365000000e-03
784000000.0 1.011209000e+00 -1.476000000e-03
793000000.0 1.015634000e+00 -2.852000000e-03
802000000.0 1.016044000e+00 -7.763000000e-03
811000000.0 1.015824000e+00 -1.910000000e-03
820000000.0 1.016769000e+00 -7.379000000e-03
829000000.0 1.016078000e+00 7.770000000e-04
838000000.0 1.016803000e+00 -3.332000000e-03
847000000.0 1.019779000e+00 -8.885000000e-03
856000000.0 1.014934000e+00 -7.261000000e-03
865000000.0 1.010073000e+00 -3.605000000e-03
874000000.0 1.012619000e+00 -1.108000000e-03
883000000.0 1.008805000e+00 -1.009000000e-03
892000000.0 1.003330000e+00 -3.730000000e-04
901000000.0 9.990070000e-01 3.481000000e-03
910000000.0 9.993690000e-01 -1.247000000e-03
919000000.0 1.002120000e+00 -1.280000000e-04
928000000.0 1.003085000e+00 -4.445000000e-03
937000000.0 1.006694000e+00 -5.345000000e-03
946000000.0 1.005766000e+00 -9.559000000e-03
955000000.0 1.004499000e+00 -7.301000000e-03
964000000.0 1.001777000e+00 -7.600000000e-03
973000000.0 1.005541000e+00 -9.975000000e-03
982000000.0 1.003356000e+00 -8.056000000e-03
991000000.0 1.003681000e+00 -6.087000000e-03
1000000000.0 1.004002000e+00 -8.581000000e-03
1004500000.0 1.004166000e+00 -4.258000000e-03
1009000000.0 1.003347000e+00 -1.073300000e-02
1013500000.0 1.003544000e+00 -5.310000000e-04
1018000000.0 1.001577000e+00 -4.486000000e-03
1022500000.0 1.002723000e+00 -2.718000000e-03
1027000000.0 1.002343000e+00 -5.001000000e-03
1031500000.0 1.000102000e+00 -1.922000000e-03
1036000000.0 9.999290000e-01 -3.972000000e-03
1040500000.0 9.984230000e-01 -3.147000000e-03
1045000000.0 1.003401000e+00 -6.943000000e-03
1049500000.0 1.000234000e+00 5.350000000e-04
1054000000.0 1.000645000e+00 -2.126000000e-03
1058500000.0 1.000007000e+00 -1.886000000e-03
1063000000.0 9.987630000e-01 -6.110000000e-03
1067500000.0 1.000113000e+00 -1.791000000e-03
1072000000.0 1.002894000e+00 -2.244000000e-03
1076500000.0 1.005905000e+00 -1.860000000e-03
1081000000.0 1.005779000e+00 -2.040000000e-03
1085500000.0 1.000726000e+00 -1.601000000e-03
1090000000.0 1.005358000e+00 -2.922000000e-03
1094500000.0 1.001760000e+00 -2.039000000e-03
1099000000.0 1.004749000e+00 -3.782000000e-03
1103500000.0 1.004872000e+00 -3.315000000e-03
1108000000.0 1.001659000e+00 -6.490000000e-03
1112500000.0 1.002399000e+00 -4.961000000e-03
1117000000.0 9.986390000e-01 2.049000000e-03
1121500000.0 1.003185000e+00 -2.717000000e-03
1126000000.0 1.006684000e+00 -3.763000000e-03
1130500000.0 1.005598000e+00 4.955000000e-03
1135000000.0 1.013357000e+00 3.590700000e-02
1139500000.0 1.004681000e+00 -6.090000000e-03
1144000000.0 1.001957000e+00 -5.249000000e-03
1148500000.0 9.977430000e-01 -4.752000000e-03
1153000000.0 1.002999000e+00 -5.443000000e-03
1157500000.0 1.009575000e+00 -1.392000000e-03
1162000000.0 1.004060000e+00 9.377000000e-03
1166500000.0 1.003458000e+00 -9.695000000e-03
1171000000.0 1.003954000e+00 -6.957000000e-03
1175500000.0 1.006453000e+00 -7.711000000e-03
1180000000.0 1.004111000e+00 1.383000000e-03
1184500000.0 1.003190000e+00 3.007000000e-03
1189000000.0 1.008984000e+00 -4.623000000e-03
1193500000.0 1.000210000e+00 -1.139600000e-02
1198000000.0 1.004879000e+00 8.040000000e-04
1202500000.0 1.006270000e+00 2.405000000e-03
1207000000.0 1.003308000e+00 -1.121700000e-02
1211500000.0 1.004481000e+00 -3.564000000e-03
1216000000.0 1.008134000e+00 -4.921000000e-03
1220500000.0 1.005987000e+00 -2.014000000e-03
1225000000.0 1.007095000e+00 -5.180000000e-04
1229500000.0 1.002730000e+00 -7.751000000e-03
1234000000.0 1.002237000e+00 -1.430000000e-03
1238500000.0 1.001448000e+00 -2.691000000e-03
1243000000.0 1.005487000e+00 1.622000000e-03
1247500000.0 1.002367000e+00 -4.802000000e-03
1252000000.0 1.003260000e+00 -5.141000000e-03
1256500000.0 1.001579000e+00 -7.725000000e-03
1261000000.0 9.968340000e-01 -5.119000000e-03
1265500000.0 1.010393000e+00 -7.813000000e-03
1270000000.0 1.004960000e+00 -3.207000000e-03
1274500000.0 1.005615000e+00 8.680000000e-03
1279000000.0 1.002802000e+00 -7.108000000e-03
1283500000.0 1.005140000e+00 3.252000000e-03
1288000000.0 1.008844000e+00 -2.147000000e-03
1292500000.0 1.005912000e+00 2.790000000e-04
1297000000.0 1.008989000e+00 4.824000000e-03
1301500000.0 1.004564000e+00 2.603000000e-03
1306000000.0 1.003552000e+00 4.437000000e-03
1310500000.0 1.000873000e+00 8.994000000e-03
1315000000.0 1.003510000e+00 1.175000000e-03
1319500000.0 1.008676000e+00 4.727000000e-03
1324000000.0 1.006235000e+00 6.343000000e-03
1328500000.0 9.986500000e-01 4.130000000e-03
1333000000.0 9.989020000e-01 -1.050000000e-03
1337500000.0 1.007178000e+00 1.051900000e-02
1342000000.0 1.004319000e+00 2.059000000e-03
1346500000.0 1.007736000e+00 -6.681000000e-03
1351000000.0 1.010939000e+00 3.925000000e-03
1355500000.0 9.986300000e-01 6.440000000e-04
1360000000.0 1.006549000e+00 3.927000000e-03
1364500000.0 9.997570000e-01 5.586000000e-03
1369000000.0 1.004974000e+00 4.558000000e-03
1373500000.0 1.006084000e+00 1.286300000e-02
1378000000.0 1.002652000e+00 1.406900000e-02
1382500000.0 1.000370000e+00 1.647000000e-03
1387000000.0 1.000154000e+00 1.065100000e-02
1391500000.0 1.004037000e+00 1.401100000e-02
1396000000.0 1.004610000e+00 1.235700000e-02
1400500000.0 1.007605000e+00 1.406700000e-02
1405000000.0 9.967570000e-01 7.045000000e-03
1409500000.0 9.996550000e-01 6.508000000e-03
1414000000.0 1.006055000e+00 1.016300000e-02
1418500000.0 1.007265000e+00 1.466700000e-02
1423000000.0 1.003755000e+00 1.115800000e-02
1427500000.0 1.012351000e+00 9.402000000e-03
1432000000.0 1.002572000e+00 1.537900000e-02
1436500000.0 1.005274000e+00 1.590600000e-02
1441000000.0 1.004149000e+00 1.167000000e-02
1445500000.0 1.003561000e+00 1.816400000e-02
1450000000.0 1.003724000e+00 1.083100000e-02
