! piloto_saltos / abierto_51puntos / r09
# HZ S RI R 50
50000.0 1.007478000e+00 -6.982100000e-02
69000.0 1.005266000e+00 -4.385300000e-02
88000.0 1.001579000e+00 -1.652800000e-02
107000.0 1.000584000e+00 8.311000000e-03
126000.0 1.002836000e+00 3.480700000e-02
145000.0 1.001232000e+00 5.754700000e-02
164000.0 1.002590000e+00 8.169400000e-02
183000.0 1.002835000e+00 1.061680000e-01
202000.0 1.003579000e+00 1.288670000e-01
221000.0 1.003746000e+00 1.522000000e-01
240000.0 1.005449000e+00 1.753750000e-01
259000.0 1.004459000e+00 1.983580000e-01
278000.0 1.005539000e+00 2.196860000e-01
297000.0 1.006325000e+00 2.416930000e-01
316000.0 1.006729000e+00 2.641240000e-01
335000.0 1.006266000e+00 2.858320000e-01
354000.0 1.007908000e+00 3.075420000e-01
373000.0 1.007984000e+00 3.286630000e-01
392000.0 1.010196000e+00 3.501980000e-01
411000.0 1.008712000e+00 3.712200000e-01
430000.0 1.009943000e+00 3.918800000e-01
449000.0 1.010437000e+00 4.119760000e-01
468000.0 1.010925000e+00 4.328680000e-01
487000.0 9.898720000e-01 3.539170000e-01
506000.0 1.008521000e+00 4.395230000e-01
525000.0 1.013551000e+00 4.933600000e-01
544000.0 1.013723000e+00 5.121030000e-01
563000.0 1.015705000e+00 5.335190000e-01
582000.0 1.017686000e+00 5.529690000e-01
601000.0 1.017398000e+00 5.717870000e-01
620000.0 1.019098000e+00 5.908040000e-01
639000.0 1.020358000e+00 6.110640000e-01
658000.0 1.021376000e+00 6.307690000e-01
677000.0 1.023566000e+00 6.493610000e-01
696000.0 1.025237000e+00 6.682240000e-01
715000.0 1.027426000e+00 6.869580000e-01
734000.0 1.029152000e+00 7.058060000e-01
753000.0 1.031223000e+00 7.247160000e-01
772000.0 1.033796000e+00 7.425900000e-01
791000.0 1.035678000e+00 7.620900000e-01
810000.0 1.039251000e+00 7.803850000e-01
829000.0 1.043021000e+00 7.995530000e-01
848000.0 1.044823000e+00 8.173960000e-01
867000.0 1.050015000e+00 8.337610000e-01
886000.0 1.053184000e+00 8.532650000e-01
905000.0 1.057216000e+00 8.714990000e-01
924000.0 1.060540000e+00 8.893430000e-01
943000.0 1.067409000e+00 9.070170000e-01
962000.0 1.070662000e+00 9.249270000e-01
981000.0 1.076060000e+00 9.422020000e-01
1000000.0 1.081932000e+00 9.585680000e-01
1180000.0 1.152165000e+00 1.114528000e+00
1360000.0 1.260118000e+00 1.248293000e+00
1540000.0 1.411965000e+00 1.335017000e+00
1720000.0 1.591739000e+00 1.357067000e+00
1900000.0 1.768330000e+00 1.292636000e+00
2080000.0 1.899693000e+00 1.157479000e+00
2260000.0 1.964291000e+00 9.800800000e-01
2440000.0 1.958380000e+00 8.073010000e-01
2620000.0 1.910689000e+00 6.519640000e-01
2800000.0 1.840704000e+00 5.333260000e-01
2980000.0 1.760626000e+00 4.423320000e-01
3160000.0 1.685599000e+00 3.721950000e-01
3340000.0 1.615036000e+00 2.712920000e-01
3520000.0 1.550577000e+00 2.868900000e-01
3700000.0 1.499713000e+00 2.309050000e-01
3880000.0 1.452080000e+00 1.963170000e-01
4060000.0 1.412267000e+00 1.653480000e-01
4240000.0 1.377081000e+00 1.368880000e-01
4420000.0 1.349675000e+00 1.081660000e-01
4600000.0 1.324112000e+00 8.183200000e-02
4780000.0 1.306625000e+00 5.629200000e-02
4960000.0 1.289801000e+00 2.948000000e-02
5140000.0 1.270885000e+00 5.382000000e-03
5320000.0 1.263767000e+00 -1.892900000e-02
5500000.0 1.253921000e+00 -4.205700000e-02
5680000.0 1.247269000e+00 -6.482700000e-02
5860000.0 1.241165000e+00 -8.747400000e-02
6040000.0 1.237066000e+00 -1.078010000e-01
6220000.0 1.231318000e+00 -1.256620000e-01
6400000.0 1.227749000e+00 -1.435890000e-01
6580000.0 1.224402000e+00 -1.575460000e-01
6760000.0 1.223245000e+00 -1.719170000e-01
6940000.0 1.220857000e+00 -1.817700000e-01
7120000.0 1.220208000e+00 -1.893670000e-01
7300000.0 1.219268000e+00 -1.939940000e-01
7480000.0 1.219430000e+00 -1.923090000e-01
7660000.0 -2.420630000e-01 -1.259126000e+00
7840000.0 -2.394940000e-01 -1.260042000e+00
8020000.0 -2.381650000e-01 -1.259696000e+00
8200000.0 -2.368710000e-01 -1.260841000e+00
8380000.0 -2.373940000e-01 -1.262506000e+00
8560000.0 -2.362500000e-01 -1.263743000e+00
8740000.0 -2.335410000e-01 -1.264215000e+00
8920000.0 -2.317180000e-01 -1.266312000e+00
9100000.0 -2.307770000e-01 -1.268661000e+00
9280000.0 -2.283820000e-01 -1.268493000e+00
9460000.0 -2.263520000e-01 -1.269628000e+00
9640000.0 -2.264100000e-01 -1.272413000e+00
9820000.0 -2.246170000e-01 -1.273171000e+00
10000000.0 -2.248660000e-01 -1.276986000e+00
11800000.0 -2.119300000e-01 -1.292781000e+00
13600000.0 -2.002680000e-01 -1.314956000e+00
15400000.0 -1.881060000e-01 -1.337328000e+00
17200000.0 -1.747680000e-01 -1.360659000e+00
19000000.0 -1.612220000e-01 -1.385661000e+00
20800000.0 -1.451690000e-01 -1.409900000e+00
22600000.0 -1.284380000e-01 -1.436489000e+00
24400000.0 -1.096500000e-01 -1.462535000e+00
26200000.0 -8.741900000e-02 -1.490634000e+00
28000000.0 -6.428800000e-02 -1.518299000e+00
29800000.0 -3.718700000e-02 -1.546667000e+00
31600000.0 -1.104700000e-02 -1.576201000e+00
33400000.0 4.881300000e-02 -1.607621000e+00
35200000.0 8.179000000e-02 -1.637571000e+00
37000000.0 2.822100000e-02 -1.654229000e+00
38800000.0 1.253450000e-01 -1.694444000e+00
40600000.0 1.680420000e-01 -1.723369000e+00
42400000.0 2.109710000e-01 -1.748769000e+00
44200000.0 2.595750000e-01 -1.775664000e+00
46000000.0 3.110750000e-01 -1.799641000e+00
47800000.0 3.668840000e-01 -1.821345000e+00
49600000.0 4.268210000e-01 -1.842079000e+00
51400000.0 4.924480000e-01 -1.861854000e+00
53200000.0 5.570830000e-01 -1.872866000e+00
55000000.0 6.242770000e-01 -1.883178000e+00
56800000.0 6.969360000e-01 -1.886875000e+00
58600000.0 7.738630000e-01 -1.883411000e+00
60400000.0 8.496120000e-01 -1.876362000e+00
62200000.0 9.294470000e-01 -1.861539000e+00
64000000.0 1.004492000e+00 -1.838858000e+00
65800000.0 1.085842000e+00 -1.812779000e+00
67600000.0 1.160050000e+00 -1.777454000e+00
69400000.0 1.233618000e+00 -1.733935000e+00
71200000.0 1.303437000e+00 -1.683236000e+00
73000000.0 1.367159000e+00 -1.629740000e+00
74800000.0 1.428128000e+00 -1.566443000e+00
76600000.0 1.479790000e+00 -1.499269000e+00
78400000.0 1.527072000e+00 -1.429627000e+00
80200000.0 1.567127000e+00 -1.357470000e+00
82000000.0 1.600312000e+00 -1.282888000e+00
83800000.0 1.624992000e+00 -1.210460000e+00
85600000.0 1.644505000e+00 -1.134684000e+00
87400000.0 1.655290000e+00 -1.063346000e+00
89200000.0 1.663012000e+00 -9.909080000e-01
91000000.0 1.663141000e+00 -9.231830000e-01
92800000.0 1.662708000e+00 -8.545950000e-01
94600000.0 1.654362000e+00 -7.909770000e-01
96400000.0 1.639464000e+00 -7.321890000e-01
98200000.0 1.627264000e+00 -6.719540000e-01
100000000.0 1.611114000e+00 -6.203960000e-01
118000000.0 1.378071000e+00 -2.422520000e-01
136000000.0 1.147678000e+00 -6.856800000e-02
154000000.0 1.000303000e+00 5.600000000e-04
172000000.0 1.002812000e+00 -1.560000000e-04
190000000.0 1.004228000e+00 -1.660000000e-03
208000000.0 1.005863000e+00 -7.560000000e-04
226000000.0 1.006533000e+00 -5.460000000e-04
244000000.0 1.005991000e+00 -1.003000000e-03
262000000.0 1.003968000e+00 -9.250000000e-04
280000000.0 1.003410000e+00 -1.513000000e-03
298000000.0 9.989170000e-01 -1.875900000e-02
316000000.0 1.003462000e+00 5.180000000e-04
334000000.0 1.005319000e+00 7.640000000e-04
352000000.0 1.006019000e+00 2.730000000e-04
370000000.0 1.005996000e+00 6.000000000e-04
388000000.0 1.007239000e+00 -3.040000000e-04
406000000.0 1.007153000e+00 2.560000000e-03
424000000.0 1.002253000e+00 1.440000000e-03
442000000.0 1.000579000e+00 -1.820000000e-04
460000000.0 1.000403000e+00 2.833000000e-03
478000000.0 1.003760000e+00 5.399000000e-03
496000000.0 1.007144000e+00 5.985000000e-03
514000000.0 1.008444000e+00 5.626000000e-03
532000000.0 1.009834000e+00 8.254000000e-03
550000000.0 1.006637000e+00 8.223000000e-03
568000000.0 1.007098000e+00 6.303000000e-03
586000000.0 1.006881000e+00 6.022000000e-03
604000000.0 1.004579000e+00 6.310000000e-03
622000000.0 1.011729000e+00 8.594000000e-03
640000000.0 1.016928000e+00 8.380000000e-03
658000000.0 1.014298000e+00 8.145000000e-03
676000000.0 1.017651000e+00 9.186000000e-03
694000000.0 1.011435000e+00 7.609000000e-03
712000000.0 1.009711000e+00 3.558000000e-03
730000000.0 1.006523000e+00 6.851000000e-03
748000000.0 1.001408000e+00 7.450000000e-04
766000000.0 1.007569000e+00 7.580000000e-04
784000000.0 1.012238000e+00 -5.253000000e-03
802000000.0 1.015621000e+00 -5.666000000e-03
820000000.0 1.015236000e+00 -7.290000000e-03
838000000.0 1.016872000e+00 -9.399000000e-03
856000000.0 1.014435000e+00 -7.752000000e-03
874000000.0 1.007706000e+00 -4.849000000e-03
892000000.0 1.004621000e+00 1.507000000e-03
910000000.0 9.987780000e-01 -5.187000000e-03
928000000.0 1.005060000e+00 -1.606000000e-03
946000000.0 1.001640000e+00 -7.281000000e-03
964000000.0 1.004976000e+00 -7.055000000e-03
982000000.0 1.004562000e+00 -8.206000000e-03
1000000000.0 1.004074000e+00 -7.548000000e-03
1009000000.0 1.006251000e+00 -3.373000000e-03
1018000000.0 1.004116000e+00 -5.593000000e-03
1027000000.0 1.001125000e+00 -3.824000000e-03
1036000000.0 1.002499000e+00 -6.110000000e-04
1045000000.0 1.003778000e+00 6.247000000e-03
1054000000.0 1.000019000e+00 2.295000000e-03
1063000000.0 9.984920000e-01 -4.784000000e-03
1072000000.0 1.001550000e+00 4.360000000e-04
1081000000.0 1.002771000e+00 -2.426000000e-02
1090000000.0 1.007565000e+00 3.048400000e-02
1099000000.0 1.001763000e+00 5.620000000e-04
1108000000.0 1.000828000e+00 -5.255000000e-03
1117000000.0 1.003642000e+00 -1.046800000e-02
1126000000.0 1.005101000e+00 -7.818000000e-03
1135000000.0 1.007190000e+00 -2.512000000e-03
1144000000.0 1.005364000e+00 1.282000000e-03
1153000000.0 1.005883000e+00 -1.225600000e-02
1162000000.0 1.007724000e+00 -5.391000000e-03
1171000000.0 1.007830000e+00 -8.927000000e-03
1180000000.0 1.006070000e+00 -7.637000000e-03
1189000000.0 1.006348000e+00 -5.374000000e-03
1198000000.0 1.005074000e+00 -4.325000000e-03
1207000000.0 1.009253000e+00 -4.070000000e-04
1216000000.0 1.005435000e+00 -9.129000000e-03
1225000000.0 1.005536000e+00 -4.936000000e-03
1234000000.0 1.003872000e+00 3.522000000e-03
1243000000.0 9.989750000e-01 4.830000000e-03
1252000000.0 1.007048000e+00 -2.450000000e-03
1261000000.0 1.001165000e+00 -7.030000000e-04
1270000000.0 1.005018000e+00 7.513000000e-03
1279000000.0 1.000278000e+00 -6.480000000e-04
1288000000.0 1.002409000e+00 -9.490000000e-04
1297000000.0 1.006716000e+00 3.439000000e-03
1306000000.0 9.990210000e-01 6.454000000e-03
1315000000.0 1.008978000e+00 2.461000000e-03
1324000000.0 1.004798000e+00 7.358000000e-03
1333000000.0 9.962820000e-01 -9.283000000e-03
1342000000.0 1.004177000e+00 6.824000000e-03
1351000000.0 1.008132000e+00 4.253000000e-03
1360000000.0 1.007080000e+00 3.132000000e-03
1369000000.0 9.988470000e-01 1.391000000e-02
1378000000.0 1.002517000e+00 8.720000000e-03
1387000000.0 9.967930000e-01 5.720000000e-03
1396000000.0 9.958470000e-01 1.303200000e-02
1405000000.0 9.045870000e-01 -4.340500000e-02
1414000000.0 1.005574000e+00 1.694800000e-02
1423000000.0 9.984840000e-01 3.217000000e-03
1432000000.0 1.002387000e+00 1.440000000e-02
1441000000.0 1.003316000e+00 6.355000000e-03
1450000000.0 1.003410000e+00 9.050000000e-03
