! piloto_saltos / abierto_pausado / r04
# HZ S RI R 50
50000.0 1.006295000e+00 -7.053100000e-02
59500.0 1.002497000e+00 -5.601400000e-02
69000.0 1.002665000e+00 -4.194400000e-02
78500.0 1.002567000e+00 -2.920400000e-02
88000.0 1.002277000e+00 -1.659200000e-02
97500.0 1.000410000e+00 -4.190000000e-03
107000.0 9.996580000e-01 7.933000000e-03
116500.0 1.000718000e+00 2.060300000e-02
126000.0 1.001516000e+00 3.091600000e-02
135500.0 9.932210000e-01 8.954000000e-03
145000.0 1.000891000e+00 5.698200000e-02
154500.0 1.001722000e+00 6.869800000e-02
164000.0 1.001517000e+00 8.027500000e-02
173500.0 1.002275000e+00 9.300000000e-02
183000.0 1.003371000e+00 1.047230000e-01
192500.0 1.002592000e+00 1.169540000e-01
202000.0 1.002815000e+00 1.277810000e-01
211500.0 1.004298000e+00 1.396750000e-01
221000.0 1.003557000e+00 1.508540000e-01
230500.0 1.004840000e+00 1.629480000e-01
240000.0 1.004503000e+00 1.736420000e-01
249500.0 1.004815000e+00 1.853290000e-01
259000.0 1.004582000e+00 1.968900000e-01
268500.0 1.005163000e+00 2.076690000e-01
278000.0 1.005767000e+00 2.189420000e-01
287500.0 1.005279000e+00 2.294990000e-01
297000.0 1.006389000e+00 2.407790000e-01
306500.0 1.006550000e+00 2.525990000e-01
316000.0 1.007254000e+00 2.636420000e-01
325500.0 1.007317000e+00 2.731770000e-01
335000.0 1.006837000e+00 2.836270000e-01
344500.0 1.006999000e+00 2.955960000e-01
354000.0 1.007694000e+00 3.058760000e-01
363500.0 1.008062000e+00 3.163740000e-01
373000.0 1.007841000e+00 3.272410000e-01
382500.0 1.008228000e+00 3.381000000e-01
392000.0 1.008318000e+00 3.478160000e-01
401500.0 1.008933000e+00 3.576080000e-01
411000.0 1.008998000e+00 3.683730000e-01
420500.0 1.009726000e+00 3.790130000e-01
430000.0 1.009049000e+00 3.889240000e-01
439500.0 1.008608000e+00 4.000000000e-01
449000.0 1.009731000e+00 4.100270000e-01
458500.0 1.009705000e+00 4.199710000e-01
468000.0 1.011356000e+00 4.297910000e-01
477500.0 1.010919000e+00 4.400050000e-01
487000.0 1.012270000e+00 4.506070000e-01
496500.0 1.011300000e+00 4.609520000e-01
506000.0 1.011773000e+00 4.699690000e-01
515500.0 1.011812000e+00 4.803120000e-01
525000.0 1.013075000e+00 4.901030000e-01
534500.0 1.013227000e+00 5.006130000e-01
544000.0 1.012905000e+00 5.107410000e-01
553500.0 1.014298000e+00 5.201530000e-01
563000.0 1.014713000e+00 5.298550000e-01
572500.0 1.014522000e+00 5.400170000e-01
582000.0 1.015916000e+00 5.494840000e-01
591500.0 1.016381000e+00 5.588990000e-01
601000.0 1.015741000e+00 5.696440000e-01
610500.0 1.016546000e+00 5.787920000e-01
620000.0 1.017353000e+00 5.883090000e-01
629500.0 1.017830000e+00 5.982900000e-01
639000.0 1.018274000e+00 6.080910000e-01
648500.0 1.019562000e+00 6.177220000e-01
658000.0 1.019486000e+00 6.278900000e-01
667500.0 1.020432000e+00 6.362160000e-01
677000.0 1.020832000e+00 6.464710000e-01
686500.0 1.022209000e+00 6.554170000e-01
696000.0 1.023038000e+00 6.651350000e-01
705500.0 1.025066000e+00 6.739790000e-01
715000.0 1.023680000e+00 6.830590000e-01
724500.0 1.025718000e+00 6.927190000e-01
734000.0 1.026820000e+00 7.034710000e-01
743500.0 1.027956000e+00 7.119510000e-01
753000.0 1.029501000e+00 7.209450000e-01
762500.0 1.029853000e+00 7.314620000e-01
772000.0 1.030505000e+00 7.399950000e-01
781500.0 1.032299000e+00 7.486470000e-01
791000.0 1.034295000e+00 7.588070000e-01
800500.0 1.034803000e+00 7.677960000e-01
810000.0 1.037438000e+00 7.761080000e-01
819500.0 1.037260000e+00 7.855460000e-01
829000.0 1.039235000e+00 7.950470000e-01
838500.0 1.042762000e+00 8.042990000e-01
848000.0 1.043628000e+00 8.133270000e-01
857500.0 1.045084000e+00 8.220490000e-01
867000.0 1.046243000e+00 8.320140000e-01
876500.0 1.047953000e+00 8.402820000e-01
886000.0 1.049340000e+00 8.490900000e-01
895500.0 1.053952000e+00 8.579940000e-01
905000.0 1.055367000e+00 8.680070000e-01
914500.0 1.057143000e+00 8.771080000e-01
924000.0 1.059129000e+00 8.854900000e-01
933500.0 1.060505000e+00 8.951870000e-01
943000.0 1.063697000e+00 9.025720000e-01
952500.0 1.066278000e+00 9.117670000e-01
962000.0 1.069069000e+00 9.213350000e-01
971500.0 1.070383000e+00 9.300440000e-01
981000.0 1.073547000e+00 9.384950000e-01
990500.0 1.077303000e+00 9.478480000e-01
1000000.0 1.078644000e+00 9.553080000e-01
1090000.0 1.106393000e+00 1.034658000e+00
1180000.0 1.145527000e+00 1.110612000e+00
1270000.0 1.195363000e+00 1.181851000e+00
1360000.0 1.253610000e+00 1.242688000e+00
1450000.0 1.323884000e+00 1.292778000e+00
1540000.0 1.400488000e+00 1.332423000e+00
1630000.0 1.488526000e+00 1.354322000e+00
1720000.0 1.580323000e+00 1.352256000e+00
1810000.0 1.669708000e+00 1.338805000e+00
1900000.0 1.755537000e+00 1.298429000e+00
1990000.0 1.828888000e+00 1.240485000e+00
2080000.0 1.891416000e+00 1.165076000e+00
2170000.0 1.932680000e+00 1.081578000e+00
2260000.0 1.957619000e+00 9.915790000e-01
2350000.0 1.966354000e+00 9.039120000e-01
2440000.0 1.959316000e+00 8.165500000e-01
2530000.0 1.941537000e+00 7.373160000e-01
2620000.0 1.914167000e+00 6.646730000e-01
2710000.0 1.881848000e+00 5.985700000e-01
2800000.0 1.842941000e+00 5.417520000e-01
2890000.0 1.805379000e+00 4.914050000e-01
2980000.0 1.768734000e+00 4.501530000e-01
3070000.0 1.727578000e+00 4.088070000e-01
3160000.0 1.690435000e+00 3.745770000e-01
3250000.0 1.653983000e+00 3.457590000e-01
3340000.0 1.619102000e+00 3.187580000e-01
3430000.0 1.588266000e+00 2.957360000e-01
3520000.0 1.557632000e+00 2.732980000e-01
3610000.0 1.528530000e+00 2.513970000e-01
3700000.0 1.502632000e+00 2.317180000e-01
3790000.0 1.478974000e+00 2.145120000e-01
3880000.0 1.457066000e+00 1.989210000e-01
3970000.0 1.434841000e+00 1.815400000e-01
4060000.0 1.415579000e+00 1.661030000e-01
4150000.0 1.397324000e+00 1.504660000e-01
4240000.0 1.380072000e+00 1.355680000e-01
4330000.0 1.364417000e+00 1.239250000e-01
4420000.0 1.351471000e+00 1.080340000e-01
4510000.0 1.338681000e+00 9.562700000e-02
4600000.0 1.326013000e+00 8.098500000e-02
4690000.0 1.314909000e+00 6.477100000e-02
4780000.0 1.306995000e+00 5.548100000e-02
4870000.0 1.298326000e+00 4.408800000e-02
4960000.0 1.291517000e+00 2.908300000e-02
5050000.0 1.277350000e+00 1.710700000e-02
5140000.0 1.271499000e+00 4.717000000e-03
5230000.0 1.267222000e+00 -7.943000000e-03
5320000.0 1.261927000e+00 -1.921600000e-02
5410000.0 1.259278000e+00 -3.129400000e-02
5500000.0 1.254739000e+00 -4.259600000e-02
5590000.0 1.252984000e+00 -5.431600000e-02
5680000.0 1.247413000e+00 -6.518300000e-02
5770000.0 1.244310000e+00 -7.693700000e-02
5860000.0 1.241977000e+00 -8.754800000e-02
5950000.0 1.238769000e+00 -9.813200000e-02
6040000.0 1.237282000e+00 -1.074280000e-01
6130000.0 1.234580000e+00 -1.182140000e-01
6220000.0 1.232135000e+00 -1.273370000e-01
6310000.0 1.230811000e+00 -1.352990000e-01
6400000.0 1.228069000e+00 -1.443260000e-01
6490000.0 1.227508000e+00 -1.518120000e-01
6580000.0 1.225999000e+00 -1.590620000e-01
6670000.0 1.224749000e+00 -1.664980000e-01
6760000.0 1.222897000e+00 -1.713070000e-01
6850000.0 1.221399000e+00 -1.769580000e-01
6940000.0 1.221388000e+00 -1.812260000e-01
7030000.0 1.220310000e+00 -1.861720000e-01
7120000.0 1.218936000e+00 -1.900380000e-01
7210000.0 1.219620000e+00 -1.913420000e-01
7300000.0 1.219699000e+00 -1.921350000e-01
7390000.0 1.219124000e+00 -1.937250000e-01
7480000.0 1.218531000e+00 -1.941570000e-01
7570000.0 -2.437520000e-01 -1.259924000e+00
7660000.0 -2.421830000e-01 -1.258413000e+00
7750000.0 -2.409730000e-01 -1.259705000e+00
7840000.0 -2.407210000e-01 -1.259301000e+00
7930000.0 -2.391680000e-01 -1.259657000e+00
8020000.0 -2.392700000e-01 -1.261838000e+00
8110000.0 -2.387400000e-01 -1.261609000e+00
8200000.0 -2.384140000e-01 -1.262562000e+00
8290000.0 -2.355120000e-01 -1.262706000e+00
8380000.0 -2.356340000e-01 -1.263590000e+00
8470000.0 -2.367640000e-01 -1.263970000e+00
8560000.0 -2.339880000e-01 -1.266104000e+00
8650000.0 -2.342700000e-01 -1.264746000e+00
8740000.0 -2.337070000e-01 -1.265603000e+00
8830000.0 -2.337060000e-01 -1.265951000e+00
8920000.0 -2.323100000e-01 -1.267757000e+00
9010000.0 -2.307460000e-01 -1.267285000e+00
9100000.0 -2.304910000e-01 -1.269250000e+00
9190000.0 -2.304010000e-01 -1.269816000e+00
9280000.0 -2.295870000e-01 -1.268370000e+00
9370000.0 -2.295920000e-01 -1.270712000e+00
9460000.0 -2.274320000e-01 -1.271675000e+00
9550000.0 -2.270680000e-01 -1.271561000e+00
9640000.0 -2.267460000e-01 -1.272275000e+00
9730000.0 -2.267500000e-01 -1.272585000e+00
9820000.0 -2.265550000e-01 -1.274680000e+00
9910000.0 -2.252910000e-01 -1.274952000e+00
10000000.0 -2.257070000e-01 -1.274131000e+00
10900000.0 -2.184670000e-01 -1.285859000e+00
11800000.0 -2.127050000e-01 -1.294232000e+00
12700000.0 -2.075400000e-01 -1.303934000e+00
13600000.0 -2.001140000e-01 -1.315183000e+00
14500000.0 -1.953940000e-01 -1.325915000e+00
15400000.0 -1.892300000e-01 -1.336336000e+00
16300000.0 -1.816450000e-01 -1.348202000e+00
17200000.0 -1.746860000e-01 -1.360536000e+00
18100000.0 -1.671760000e-01 -1.372352000e+00
19000000.0 -1.617720000e-01 -1.384889000e+00
19900000.0 -1.539190000e-01 -1.397115000e+00
20800000.0 -1.458720000e-01 -1.410427000e+00
21700000.0 -1.354610000e-01 -1.423321000e+00
22600000.0 -1.268660000e-01 -1.436822000e+00
23500000.0 -1.179520000e-01 -1.449729000e+00
24400000.0 -1.084300000e-01 -1.463045000e+00
25300000.0 -9.826900000e-02 -1.477526000e+00
26200000.0 -8.738100000e-02 -1.489840000e+00
27100000.0 -7.567300000e-02 -1.505085000e+00
28000000.0 -6.417100000e-02 -1.519707000e+00
28900000.0 -5.181100000e-02 -1.532499000e+00
29800000.0 -3.904700000e-02 -1.546495000e+00
30700000.0 -2.468200000e-02 -1.562048000e+00
31600000.0 -1.142300000e-02 -1.576914000e+00
32500000.0 3.040000000e-03 -1.590456000e+00
33400000.0 1.794000000e-02 -1.605621000e+00
34300000.0 3.498000000e-02 -1.620886000e+00
35200000.0 5.107700000e-02 -1.636979000e+00
36100000.0 6.894100000e-02 -1.649617000e+00
37000000.0 8.545200000e-02 -1.665031000e+00
37900000.0 1.053730000e-01 -1.679969000e+00
38800000.0 1.239310000e-01 -1.693510000e+00
39700000.0 1.453990000e-01 -1.708751000e+00
40600000.0 1.666170000e-01 -1.722408000e+00
41500000.0 1.889680000e-01 -1.736968000e+00
42400000.0 2.121950000e-01 -1.750377000e+00
43300000.0 2.348520000e-01 -1.762598000e+00
44200000.0 2.605120000e-01 -1.775460000e+00
45100000.0 2.843230000e-01 -1.788217000e+00
46000000.0 3.123260000e-01 -1.800754000e+00
46900000.0 3.396280000e-01 -1.811736000e+00
47800000.0 3.673200000e-01 -1.824005000e+00
48700000.0 3.963430000e-01 -1.834272000e+00
49600000.0 4.270710000e-01 -1.843551000e+00
50500000.0 4.569560000e-01 -1.851696000e+00
51400000.0 4.897090000e-01 -1.859774000e+00
52300000.0 5.217160000e-01 -1.867066000e+00
53200000.0 5.541560000e-01 -1.872528000e+00
54100000.0 5.893290000e-01 -1.877769000e+00
55000000.0 6.239110000e-01 -1.880984000e+00
55900000.0 6.600940000e-01 -1.885464000e+00
56800000.0 6.973260000e-01 -1.887589000e+00
57700000.0 7.360690000e-01 -1.885662000e+00
58600000.0 7.728560000e-01 -1.881512000e+00
59500000.0 8.102630000e-01 -1.881376000e+00
60400000.0 8.130630000e-01 -1.889638000e+00
61300000.0 8.876700000e-01 -1.870767000e+00
62200000.0 9.255210000e-01 -1.862299000e+00
63100000.0 9.661440000e-01 -1.852409000e+00
64000000.0 1.002883000e+00 -1.841216000e+00
64900000.0 1.044236000e+00 -1.826830000e+00
65800000.0 1.083106000e+00 -1.811676000e+00
66700000.0 1.122604000e+00 -1.795205000e+00
67600000.0 1.159103000e+00 -1.777429000e+00
68500000.0 1.195950000e+00 -1.755992000e+00
69400000.0 1.233264000e+00 -1.735477000e+00
70300000.0 1.268827000e+00 -1.709066000e+00
71200000.0 1.302013000e+00 -1.683714000e+00
72100000.0 1.336619000e+00 -1.657700000e+00
73000000.0 1.367495000e+00 -1.629273000e+00
73900000.0 1.397193000e+00 -1.598723000e+00
74800000.0 1.428090000e+00 -1.567198000e+00
75700000.0 1.453819000e+00 -1.534434000e+00
76600000.0 1.480740000e+00 -1.502889000e+00
77500000.0 1.505828000e+00 -1.468104000e+00
78400000.0 1.527851000e+00 -1.432616000e+00
79300000.0 1.549462000e+00 -1.395605000e+00
80200000.0 1.567872000e+00 -1.359576000e+00
81100000.0 1.583359000e+00 -1.321234000e+00
82000000.0 1.598779000e+00 -1.286402000e+00
82900000.0 1.613425000e+00 -1.246518000e+00
83800000.0 1.625388000e+00 -1.209320000e+00
84700000.0 1.633639000e+00 -1.172035000e+00
85600000.0 1.646621000e+00 -1.135303000e+00
86500000.0 1.651603000e+00 -1.098408000e+00
87400000.0 1.656494000e+00 -1.062741000e+00
88300000.0 1.659955000e+00 -1.026327000e+00
89200000.0 1.661861000e+00 -9.915310000e-01
90100000.0 1.663610000e+00 -9.560650000e-01
91000000.0 1.664881000e+00 -9.219150000e-01
91900000.0 1.662548000e+00 -8.886160000e-01
92800000.0 1.662653000e+00 -8.547810000e-01
93700000.0 1.657214000e+00 -8.233850000e-01
94600000.0 1.653352000e+00 -7.919720000e-01
95500000.0 1.647836000e+00 -7.587910000e-01
96400000.0 1.641359000e+00 -7.321430000e-01
97300000.0 1.634440000e+00 -7.024420000e-01
98200000.0 1.626211000e+00 -6.740350000e-01
99100000.0 1.618681000e+00 -6.471720000e-01
100000000.0 1.610166000e+00 -6.209730000e-01
109000000.0 1.495143000e+00 -4.249650000e-01
118000000.0 1.377107000e+00 -2.444780000e-01
127000000.0 1.258430000e+00 -1.388180000e-01
136000000.0 1.148180000e+00 -6.788500000e-02
145000000.0 1.049233000e+00 -1.983000000e-02
154000000.0 1.000503000e+00 1.037000000e-03
163000000.0 1.002150000e+00 -1.650000000e-04
172000000.0 1.002869000e+00 -8.170000000e-04
181000000.0 1.003341000e+00 -1.247000000e-03
190000000.0 1.004606000e+00 -2.027000000e-03
199000000.0 1.004636000e+00 -1.085000000e-03
208000000.0 1.005756000e+00 -2.623000000e-03
217000000.0 1.006758000e+00 -1.412000000e-03
226000000.0 1.006822000e+00 -1.680000000e-03
235000000.0 1.005570000e+00 7.920000000e-04
244000000.0 1.006156000e+00 -1.275000000e-03
253000000.0 1.005463000e+00 -5.830000000e-04
262000000.0 1.004699000e+00 -1.335000000e-03
271000000.0 1.004393000e+00 -1.158000000e-03
280000000.0 1.002661000e+00 -3.550000000e-04
289000000.0 1.003493000e+00 6.030000000e-04
298000000.0 1.000299000e+00 1.010000000e-04
307000000.0 1.002762000e+00 -1.398000000e-03
316000000.0 1.003505000e+00 2.440000000e-04
325000000.0 1.005640000e+00 2.100000000e-05
334000000.0 1.005213000e+00 3.650000000e-04
343000000.0 1.005809000e+00 6.000000000e-06
352000000.0 1.007076000e+00 -8.640000000e-04
361000000.0 1.029037000e+00 4.923400000e-02
370000000.0 9.980370000e-01 -3.389900000e-02
379000000.0 1.006570000e+00 2.410000000e-03
388000000.0 1.006105000e+00 7.100000000e-04
397000000.0 1.004808000e+00 1.091000000e-03
406000000.0 1.005720000e+00 1.768100000e-02
415000000.0 1.003808000e+00 -1.710000000e-04
424000000.0 1.001787000e+00 2.457000000e-03
433000000.0 1.001240000e+00 1.202000000e-03
442000000.0 1.000822000e+00 2.445000000e-03
451000000.0 9.976730000e-01 1.270000000e-04
460000000.0 1.001678000e+00 2.196000000e-03
469000000.0 1.002892000e+00 2.833000000e-03
478000000.0 1.004400000e+00 3.853000000e-03
487000000.0 1.004920000e+00 3.944000000e-03
496000000.0 1.007334000e+00 5.404000000e-03
505000000.0 1.007848000e+00 5.309000000e-03
514000000.0 1.006654000e+00 9.018000000e-03
523000000.0 1.006388000e+00 8.550000000e-03
532000000.0 1.009163000e+00 8.257000000e-03
541000000.0 1.008415000e+00 4.408000000e-03
550000000.0 1.006750000e+00 7.191000000e-03
559000000.0 1.008461000e+00 9.288000000e-03
568000000.0 1.008125000e+00 9.959000000e-03
577000000.0 1.007273000e+00 9.842000000e-03
586000000.0 1.004282000e+00 1.073400000e-02
595000000.0 1.001996000e+00 8.466000000e-03
604000000.0 1.004926000e+00 6.069000000e-03
613000000.0 1.004207000e+00 5.536000000e-03
622000000.0 1.009352000e+00 9.338000000e-03
631000000.0 1.009159000e+00 4.964000000e-03
640000000.0 1.013163000e+00 8.699000000e-03
649000000.0 1.014601000e+00 8.410000000e-03
658000000.0 1.017750000e+00 9.140000000e-03
667000000.0 1.014419000e+00 4.820000000e-04
676000000.0 1.018440000e+00 8.369000000e-03
685000000.0 1.014968000e+00 1.079400000e-02
694000000.0 1.017682000e+00 3.318000000e-03
703000000.0 1.016262000e+00 2.555000000e-03
712000000.0 1.011111000e+00 1.667000000e-03
721000000.0 1.010656000e+00 2.935000000e-03
730000000.0 1.008151000e+00 2.793000000e-03
739000000.0 1.005965000e+00 3.051000000e-03
748000000.0 1.002679000e+00 3.470000000e-04
757000000.0 1.002117000e+00 3.440000000e-04
766000000.0 1.005717000e+00 -4.880000000e-04
775000000.0 1.008692000e+00 -7.455000000e-03
784000000.0 1.012398000e+00 -1.283000000e-03
793000000.0 1.017415000e+00 -3.774000000e-03
802000000.0 1.017734000e+00 -6.001000000e-03
811000000.0 1.017422000e+00 -5.372000000e-03
820000000.0 1.019131000e+00 -2.751000000e-03
829000000.0 1.017881000e+00 -5.718000000e-03
838000000.0 1.015740000e+00 -8.014000000e-03
847000000.0 1.016745000e+00 -4.566000000e-03
856000000.0 1.014653000e+00 -4.156000000e-03
865000000.0 1.014599000e+00 -4.943000000e-03
874000000.0 1.009309000e+00 -1.103000000e-03
883000000.0 1.007501000e+00 -7.530000000e-04
892000000.0 1.002648000e+00 2.223000000e-03
901000000.0 1.001486000e+00 2.349000000e-03
910000000.0 1.002430000e+00 -5.693000000e-03
919000000.0 1.003933000e+00 -6.688000000e-03
928000000.0 1.003821000e+00 -5.289000000e-03
937000000.0 1.003735000e+00 -1.967000000e-03
946000000.0 1.005175000e+00 -7.556000000e-03
955000000.0 1.004836000e+00 -8.160000000e-03
964000000.0 1.002977000e+00 -1.161300000e-02
973000000.0 1.004029000e+00 -8.417000000e-03
982000000.0 1.005485000e+00 -1.486600000e-02
991000000.0 1.002063000e+00 -8.443000000e-03
1000000000.0 1.002123000e+00 -1.155800000e-02
1004500000.0 1.002672000e+00 -8.592000000e-03
1009000000.0 1.005181000e+00 -9.505000000e-03
1013500000.0 1.004648000e+00 -7.727000000e-03
1018000000.0 1.001417000e+00 -5.707000000e-03
1022500000.0 1.001906000e+00 -4.649000000e-03
1027000000.0 1.001542000e+00 -2.951000000e-03
1031500000.0 1.000747000e+00 -2.200000000e-04
1036000000.0 1.001597000e+00 1.359000000e-03
1040500000.0 1.001715000e+00 -5.100000000e-05
1045000000.0 9.987450000e-01 -2.172000000e-03
1049500000.0 9.979280000e-01 3.085000000e-03
1054000000.0 1.000499000e+00 1.135000000e-03
1058500000.0 9.983010000e-01 -4.295000000e-03
1063000000.0 1.002823000e+00 -2.305000000e-03
1067500000.0 1.001859000e+00 2.150000000e-03
1072000000.0 1.004074000e+00 -4.854000000e-03
1076500000.0 1.001082000e+00 1.750000000e-03
1081000000.0 1.005781000e+00 -2.480000000e-03
1085500000.0 1.004620000e+00 -2.907000000e-03
1090000000.0 1.004078000e+00 -1.257000000e-03
1094500000.0 1.007300000e+00 -4.169000000e-03
1099000000.0 1.001053000e+00 -1.789000000e-03
1103500000.0 1.002758000e+00 -2.107000000e-03
1108000000.0 1.005724000e+00 5.259000000e-03
1112500000.0 1.006660000e+00 -2.618000000e-03
1117000000.0 1.003646000e+00 -9.370000000e-04
1121500000.0 1.009312000e+00 -2.147000000e-03
1126000000.0 1.007766000e+00 7.808000000e-03
1130500000.0 1.012538000e+00 -4.257000000e-03
1135000000.0 1.005992000e+00 -4.941000000e-03
1139500000.0 1.005602000e+00 -2.911000000e-03
1144000000.0 1.008938000e+00 3.216600000e-02
1148500000.0 1.006037000e+00 3.721100000e-02
1153000000.0 1.002483000e+00 -1.421900000e-02
1157500000.0 1.009105000e+00 -2.597000000e-03
1162000000.0 1.003708000e+00 -4.942000000e-03
1166500000.0 1.005807000e+00 -3.656000000e-03
1171000000.0 1.005866000e+00 -1.067100000e-02
1175500000.0 1.005543000e+00 -3.932000000e-03
1180000000.0 1.005425000e+00 -8.083000000e-03
1184500000.0 1.004951000e+00 -5.881000000e-03
1189000000.0 1.005840000e+00 -5.749000000e-03
1193500000.0 1.001238000e+00 -1.089900000e-02
1198000000.0 1.001508000e+00 2.960000000e-04
1202500000.0 1.002510000e+00 -1.125500000e-02
1207000000.0 1.004757000e+00 6.380000000e-04
1211500000.0 1.007834000e+00 -4.971000000e-03
1216000000.0 1.003993000e+00 -2.799000000e-03
1220500000.0 1.005021000e+00 -9.259000000e-03
1225000000.0 1.000065000e+00 1.218000000e-03
1229500000.0 1.007735000e+00 -6.989000000e-03
1234000000.0 1.003405000e+00 -1.235000000e-03
1238500000.0 1.001738000e+00 -3.605000000e-03
1243000000.0 1.003988000e+00 3.738000000e-03
1247500000.0 1.004134000e+00 9.840000000e-04
1252000000.0 9.995290000e-01 -1.471000000e-03
1256500000.0 1.001282000e+00 -9.690000000e-04
1261000000.0 1.007393000e+00 5.810000000e-04
1265500000.0 1.005327000e+00 -1.079000000e-03
1270000000.0 1.005250000e+00 -3.187000000e-03
1274500000.0 1.009135000e+00 -4.995000000e-03
1279000000.0 1.004624000e+00 6.020000000e-04
1283500000.0 1.004151000e+00 1.126000000e-03
1288000000.0 1.005194000e+00 -1.979000000e-03
1292500000.0 9.988420000e-01 1.186000000e-03
1297000000.0 9.974590000e-01 3.095000000e-03
1301500000.0 1.001852000e+00 2.489000000e-03
1306000000.0 1.117582000e+00 1.448930000e-01
1310500000.0 1.000131000e+00 3.385000000e-03
1315000000.0 9.963310000e-01 -1.439000000e-03
1319500000.0 1.004414000e+00 -1.763000000e-03
1324000000.0 1.004017000e+00 5.011000000e-03
1328500000.0 1.002803000e+00 -5.926000000e-03
1333000000.0 1.007157000e+00 6.680000000e-03
1337500000.0 1.004202000e+00 1.115500000e-02
1342000000.0 1.000830000e+00 -1.044000000e-03
1346500000.0 1.008739000e+00 -1.188000000e-03
1351000000.0 1.005061000e+00 1.293400000e-02
1355500000.0 1.002669000e+00 -1.036000000e-03
1360000000.0 1.002452000e+00 -4.700000000e-03
1364500000.0 1.000961000e+00 8.645000000e-03
1369000000.0 1.009596000e+00 1.166800000e-02
1373500000.0 1.000013000e+00 1.250900000e-02
1378000000.0 1.001067000e+00 6.877000000e-03
1382500000.0 9.982800000e-01 1.074600000e-02
1387000000.0 1.000804000e+00 1.526200000e-02
1391500000.0 1.004483000e+00 8.108000000e-03
1396000000.0 1.000793000e+00 1.887400000e-02
1400500000.0 1.001821000e+00 1.379500000e-02
1405000000.0 1.002291000e+00 1.607500000e-02
1409500000.0 1.005992000e+00 1.442800000e-02
1414000000.0 1.001672000e+00 1.435900000e-02
1418500000.0 1.009427000e+00 5.835000000e-03
1423000000.0 1.005815000e+00 1.670800000e-02
1427500000.0 1.008933000e+00 2.131700000e-02
1432000000.0 1.000438000e+00 1.275100000e-02
1436500000.0 1.002179000e+00 1.457700000e-02
1441000000.0 1.004646000e+00 1.769800000e-02
1445500000.0 1.001816000e+00 1.111400000e-02
1450000000.0 1.002226000e+00 1.337100000e-02
