! piloto_saltos / abierto_continuo / r09
# HZ S RI R 50
50000.0 1.007401000e+00 -7.018600000e-02
59500.0 1.009062000e+00 -5.699700000e-02
69000.0 1.003123000e+00 -4.180500000e-02
78500.0 1.002551000e+00 -2.938700000e-02
88000.0 1.000972000e+00 -1.736400000e-02
97500.0 1.001445000e+00 -3.492000000e-03
107000.0 9.991520000e-01 7.596000000e-03
116500.0 1.000698000e+00 2.068200000e-02
126000.0 9.996970000e-01 3.443600000e-02
135500.0 1.000813000e+00 4.552500000e-02
145000.0 1.001612000e+00 5.781700000e-02
154500.0 1.001566000e+00 6.859400000e-02
164000.0 1.003121000e+00 8.097300000e-02
173500.0 1.002385000e+00 9.355500000e-02
183000.0 1.002575000e+00 1.046560000e-01
192500.0 1.003359000e+00 1.169590000e-01
202000.0 1.003323000e+00 1.285010000e-01
211500.0 1.004659000e+00 1.397990000e-01
221000.0 1.003782000e+00 1.513770000e-01
230500.0 1.004440000e+00 1.620720000e-01
240000.0 1.004357000e+00 1.735170000e-01
249500.0 1.004812000e+00 1.855090000e-01
259000.0 1.005022000e+00 1.972130000e-01
268500.0 1.005295000e+00 2.080040000e-01
278000.0 1.005933000e+00 2.193230000e-01
287500.0 1.006025000e+00 2.297500000e-01
297000.0 1.006563000e+00 2.414560000e-01
306500.0 1.006727000e+00 2.520890000e-01
316000.0 1.006616000e+00 2.627820000e-01
325500.0 1.006618000e+00 2.735680000e-01
335000.0 1.006523000e+00 2.842960000e-01
344500.0 1.007697000e+00 2.948050000e-01
354000.0 1.007281000e+00 3.060530000e-01
363500.0 1.008151000e+00 3.167400000e-01
373000.0 1.008755000e+00 3.270890000e-01
382500.0 1.008699000e+00 3.369290000e-01
392000.0 1.008125000e+00 3.478200000e-01
401500.0 1.008771000e+00 3.575530000e-01
411000.0 1.009527000e+00 3.685440000e-01
420500.0 1.009357000e+00 3.791210000e-01
430000.0 1.009889000e+00 3.893920000e-01
439500.0 1.008948000e+00 3.995720000e-01
449000.0 1.010157000e+00 4.104500000e-01
458500.0 1.009909000e+00 4.210840000e-01
468000.0 1.011003000e+00 4.303370000e-01
477500.0 1.010863000e+00 4.401360000e-01
487000.0 1.010697000e+00 4.505780000e-01
496500.0 1.011335000e+00 4.605740000e-01
506000.0 1.011559000e+00 4.713860000e-01
515500.0 1.012779000e+00 4.811920000e-01
525000.0 1.012871000e+00 4.905100000e-01
534500.0 1.013595000e+00 5.010770000e-01
544000.0 1.012962000e+00 5.095680000e-01
553500.0 1.013137000e+00 5.196810000e-01
563000.0 1.014113000e+00 5.306030000e-01
572500.0 1.014004000e+00 5.394940000e-01
582000.0 1.015047000e+00 5.496410000e-01
591500.0 1.015145000e+00 5.594850000e-01
601000.0 1.016677000e+00 5.691790000e-01
610500.0 1.017146000e+00 5.790000000e-01
620000.0 1.017377000e+00 5.880470000e-01
629500.0 1.018616000e+00 5.975170000e-01
639000.0 1.018082000e+00 6.082740000e-01
648500.0 1.018445000e+00 6.170760000e-01
658000.0 1.019899000e+00 6.272320000e-01
667500.0 1.021079000e+00 6.365010000e-01
677000.0 1.021567000e+00 6.463920000e-01
686500.0 1.021907000e+00 6.550890000e-01
696000.0 1.024069000e+00 6.646070000e-01
705500.0 1.023680000e+00 6.741900000e-01
715000.0 1.026422000e+00 6.839410000e-01
724500.0 1.025693000e+00 6.935340000e-01
734000.0 1.026567000e+00 7.034390000e-01
743500.0 1.028270000e+00 7.121220000e-01
753000.0 1.029249000e+00 7.212880000e-01
762500.0 1.030812000e+00 7.306100000e-01
772000.0 1.031182000e+00 7.395650000e-01
781500.0 1.033634000e+00 7.499050000e-01
791000.0 1.033865000e+00 7.584820000e-01
800500.0 1.036390000e+00 7.674640000e-01
810000.0 1.037727000e+00 7.766530000e-01
819500.0 1.038541000e+00 7.861420000e-01
829000.0 1.039300000e+00 7.945600000e-01
838500.0 1.041340000e+00 8.057170000e-01
848000.0 1.043800000e+00 8.142540000e-01
857500.0 1.045240000e+00 8.223950000e-01
867000.0 1.047726000e+00 8.317210000e-01
876500.0 1.047344000e+00 8.408880000e-01
886000.0 1.049509000e+00 8.488920000e-01
895500.0 1.052318000e+00 8.576740000e-01
905000.0 1.053520000e+00 8.660260000e-01
914500.0 1.056834000e+00 8.764630000e-01
924000.0 1.058059000e+00 8.865660000e-01
933500.0 1.059246000e+00 8.938990000e-01
943000.0 1.063105000e+00 9.024740000e-01
952500.0 1.064123000e+00 9.117600000e-01
962000.0 1.068674000e+00 9.216860000e-01
971500.0 1.070069000e+00 9.296270000e-01
981000.0 1.074016000e+00 9.381320000e-01
990500.0 1.076615000e+00 9.468200000e-01
1000000.0 1.078940000e+00 9.545570000e-01
1090000.0 1.106101000e+00 1.035078000e+00
1180000.0 1.145459000e+00 1.109824000e+00
1270000.0 1.194920000e+00 1.181599000e+00
1360000.0 1.254844000e+00 1.242820000e+00
1450000.0 1.322088000e+00 1.295292000e+00
1540000.0 1.404041000e+00 1.330499000e+00
1630000.0 1.489643000e+00 1.352588000e+00
1720000.0 1.579906000e+00 1.358161000e+00
1810000.0 1.671582000e+00 1.336048000e+00
1900000.0 1.755110000e+00 1.299076000e+00
1990000.0 1.825323000e+00 1.238856000e+00
2080000.0 1.890088000e+00 1.167115000e+00
2170000.0 1.932781000e+00 1.081916000e+00
2260000.0 1.958016000e+00 9.927890000e-01
2350000.0 1.968650000e+00 9.036470000e-01
2440000.0 1.960783000e+00 8.174620000e-01
2530000.0 1.942376000e+00 7.359750000e-01
2620000.0 1.915383000e+00 6.632520000e-01
2710000.0 1.881732000e+00 5.989610000e-01
2800000.0 1.843556000e+00 5.436170000e-01
2890000.0 1.805624000e+00 4.924480000e-01
2980000.0 1.765898000e+00 4.488590000e-01
3070000.0 1.727469000e+00 4.097650000e-01
3160000.0 1.688618000e+00 3.760860000e-01
3250000.0 1.655316000e+00 3.465970000e-01
3340000.0 1.620114000e+00 3.184920000e-01
3430000.0 1.588169000e+00 2.951770000e-01
3520000.0 1.558079000e+00 2.709690000e-01
3610000.0 1.530210000e+00 2.493270000e-01
3700000.0 1.504511000e+00 2.315770000e-01
3790000.0 1.478298000e+00 2.141330000e-01
3880000.0 1.454680000e+00 1.976960000e-01
3970000.0 1.434425000e+00 1.808650000e-01
4060000.0 1.415271000e+00 1.659160000e-01
4150000.0 1.396076000e+00 1.508830000e-01
4240000.0 1.379652000e+00 1.360620000e-01
4330000.0 1.364627000e+00 1.227720000e-01
4420000.0 1.350004000e+00 1.093640000e-01
4510000.0 1.339039000e+00 9.598600000e-02
4600000.0 1.326500000e+00 8.216600000e-02
4690000.0 1.315966000e+00 6.784800000e-02
4780000.0 1.307312000e+00 5.452300000e-02
4870000.0 1.298166000e+00 4.327700000e-02
4960000.0 1.291332000e+00 3.083800000e-02
5050000.0 1.277005000e+00 1.704300000e-02
5140000.0 1.272180000e+00 5.418000000e-03
5230000.0 1.267707000e+00 -6.663000000e-03
5320000.0 1.263099000e+00 -1.935700000e-02
5410000.0 1.259896000e+00 -3.081800000e-02
5500000.0 1.254969000e+00 -4.300600000e-02
5590000.0 1.251302000e+00 -5.508900000e-02
5680000.0 1.248935000e+00 -6.549300000e-02
5770000.0 1.245081000e+00 -7.747600000e-02
5860000.0 1.242174000e+00 -8.757700000e-02
5950000.0 1.240541000e+00 -9.760400000e-02
6040000.0 1.236683000e+00 -1.079360000e-01
6130000.0 1.234075000e+00 -1.182070000e-01
6220000.0 1.232517000e+00 -1.267500000e-01
6310000.0 1.231157000e+00 -1.348780000e-01
6400000.0 1.228406000e+00 -1.439700000e-01
6490000.0 1.226507000e+00 -1.522010000e-01
6580000.0 1.225523000e+00 -1.585780000e-01
6670000.0 1.223838000e+00 -1.660450000e-01
6760000.0 1.223769000e+00 -1.713400000e-01
6850000.0 1.221298000e+00 -1.770220000e-01
6940000.0 1.220591000e+00 -1.814920000e-01
7030000.0 1.219768000e+00 -1.869850000e-01
7120000.0 1.220025000e+00 -1.886370000e-01
7210000.0 1.219413000e+00 -1.908270000e-01
7300000.0 1.218408000e+00 -1.928460000e-01
7390000.0 1.219389000e+00 -1.938140000e-01
7480000.0 1.219284000e+00 -1.931610000e-01
7570000.0 -2.432870000e-01 -1.258243000e+00
7660000.0 -2.411230000e-01 -1.259169000e+00
7750000.0 -2.409300000e-01 -1.260970000e+00
7840000.0 -2.406540000e-01 -1.260034000e+00
7930000.0 -2.391480000e-01 -1.260489000e+00
8020000.0 -2.390680000e-01 -1.259800000e+00
8110000.0 -2.382460000e-01 -1.262905000e+00
8200000.0 -2.382090000e-01 -1.262698000e+00
8290000.0 -2.375000000e-01 -1.262602000e+00
8380000.0 -2.369740000e-01 -1.263110000e+00
8470000.0 -2.350480000e-01 -1.264392000e+00
8560000.0 -2.352400000e-01 -1.263127000e+00
8650000.0 -2.342600000e-01 -1.264840000e+00
8740000.0 -2.337130000e-01 -1.265353000e+00
8830000.0 -2.329680000e-01 -1.265551000e+00
8920000.0 -2.315180000e-01 -1.267514000e+00
9010000.0 -2.323810000e-01 -1.267525000e+00
9100000.0 -2.312140000e-01 -1.268415000e+00
9190000.0 -2.294540000e-01 -1.268165000e+00
9280000.0 -2.290100000e-01 -1.269789000e+00
9370000.0 -2.290010000e-01 -1.270731000e+00
9460000.0 -2.292750000e-01 -1.271194000e+00
9550000.0 -2.272210000e-01 -1.272568000e+00
9640000.0 -2.271420000e-01 -1.271906000e+00
9730000.0 -2.269560000e-01 -1.273920000e+00
9820000.0 -2.246590000e-01 -1.274777000e+00
9910000.0 -2.255000000e-01 -1.275186000e+00
10000000.0 -2.243610000e-01 -1.276306000e+00
10900000.0 -2.183540000e-01 -1.284147000e+00
11800000.0 -2.129400000e-01 -1.293551000e+00
12700000.0 -2.065240000e-01 -1.303566000e+00
13600000.0 -2.009650000e-01 -1.315073000e+00
14500000.0 -1.959080000e-01 -1.325483000e+00
15400000.0 -1.883410000e-01 -1.336530000e+00
16300000.0 -1.818250000e-01 -1.348690000e+00
17200000.0 -1.748070000e-01 -1.360235000e+00
18100000.0 -1.678460000e-01 -1.372010000e+00
19000000.0 -1.615510000e-01 -1.385383000e+00
19900000.0 -1.535750000e-01 -1.396947000e+00
20800000.0 -1.448850000e-01 -1.411712000e+00
21700000.0 -1.366880000e-01 -1.423219000e+00
22600000.0 -1.272810000e-01 -1.435841000e+00
23500000.0 -1.192880000e-01 -1.450125000e+00
24400000.0 -1.086510000e-01 -1.462961000e+00
25300000.0 -9.898300000e-02 -1.476775000e+00
26200000.0 -8.895500000e-02 -1.490945000e+00
27100000.0 -7.531200000e-02 -1.504472000e+00
28000000.0 -6.356100000e-02 -1.518676000e+00
28900000.0 -5.152200000e-02 -1.533078000e+00
29800000.0 -3.923500000e-02 -1.547258000e+00
30700000.0 -2.482500000e-02 -1.562488000e+00
31600000.0 -1.183600000e-02 -1.577771000e+00
32500000.0 1.044000000e-03 -1.590817000e+00
33400000.0 1.958700000e-02 -1.605603000e+00
34300000.0 3.467800000e-02 -1.619464000e+00
35200000.0 5.183000000e-02 -1.635438000e+00
36100000.0 6.811500000e-02 -1.649853000e+00
37000000.0 8.759500000e-02 -1.665597000e+00
37900000.0 1.052700000e-01 -1.679508000e+00
38800000.0 1.253730000e-01 -1.693267000e+00
39700000.0 1.444000000e-01 -1.707895000e+00
40600000.0 1.661560000e-01 -1.720587000e+00
41500000.0 1.895560000e-01 -1.736514000e+00
42400000.0 2.112420000e-01 -1.750190000e+00
43300000.0 2.351570000e-01 -1.762246000e+00
44200000.0 2.596260000e-01 -1.775798000e+00
45100000.0 2.865880000e-01 -1.788559000e+00
46000000.0 3.108750000e-01 -1.800759000e+00
46900000.0 3.412850000e-01 -1.813256000e+00
47800000.0 3.669270000e-01 -1.822809000e+00
48700000.0 3.983910000e-01 -1.834059000e+00
49600000.0 4.258530000e-01 -1.842274000e+00
50500000.0 4.564680000e-01 -1.851465000e+00
51400000.0 4.879310000e-01 -1.858591000e+00
52300000.0 5.217210000e-01 -1.868237000e+00
53200000.0 5.551140000e-01 -1.872898000e+00
54100000.0 5.892960000e-01 -1.877253000e+00
55000000.0 6.251670000e-01 -1.882248000e+00
55900000.0 6.619910000e-01 -1.884930000e+00
56800000.0 6.981740000e-01 -1.884725000e+00
57700000.0 7.341150000e-01 -1.886046000e+00
58600000.0 7.735340000e-01 -1.885206000e+00
59500000.0 8.106120000e-01 -1.882450000e+00
60400000.0 8.496060000e-01 -1.876032000e+00
61300000.0 8.903490000e-01 -1.870480000e+00
62200000.0 9.272710000e-01 -1.861542000e+00
63100000.0 9.666380000e-01 -1.852007000e+00
64000000.0 1.006773000e+00 -1.842056000e+00
64900000.0 1.045330000e+00 -1.826590000e+00
65800000.0 1.084253000e+00 -1.814595000e+00
66700000.0 1.122844000e+00 -1.797645000e+00
67600000.0 1.159515000e+00 -1.777242000e+00
68500000.0 1.197125000e+00 -1.755022000e+00
69400000.0 1.233461000e+00 -1.735178000e+00
70300000.0 1.268463000e+00 -1.709249000e+00
71200000.0 1.302881000e+00 -1.684488000e+00
72100000.0 1.335417000e+00 -1.656202000e+00
73000000.0 1.370415000e+00 -1.628840000e+00
73900000.0 1.399665000e+00 -1.599358000e+00
74800000.0 1.428040000e+00 -1.567520000e+00
75700000.0 1.455541000e+00 -1.534324000e+00
76600000.0 1.479432000e+00 -1.499327000e+00
77500000.0 1.502767000e+00 -1.465186000e+00
78400000.0 1.529717000e+00 -1.431900000e+00
79300000.0 1.548782000e+00 -1.397626000e+00
80200000.0 1.566564000e+00 -1.356603000e+00
81100000.0 1.584785000e+00 -1.322006000e+00
82000000.0 1.599580000e+00 -1.284314000e+00
82900000.0 1.612901000e+00 -1.246386000e+00
83800000.0 1.626500000e+00 -1.210292000e+00
84700000.0 1.636393000e+00 -1.172451000e+00
85600000.0 1.645919000e+00 -1.136385000e+00
86500000.0 1.651715000e+00 -1.099539000e+00
87400000.0 1.655840000e+00 -1.064102000e+00
88300000.0 1.661135000e+00 -1.026532000e+00
89200000.0 1.660936000e+00 -9.921630000e-01
90100000.0 1.663735000e+00 -9.556310000e-01
91000000.0 1.663434000e+00 -9.232740000e-01
91900000.0 1.664416000e+00 -8.887970000e-01
92800000.0 1.661403000e+00 -8.554990000e-01
93700000.0 1.657581000e+00 -8.221160000e-01
94600000.0 1.653599000e+00 -7.916850000e-01
95500000.0 1.648773000e+00 -7.616690000e-01
96400000.0 1.641160000e+00 -7.294100000e-01
97300000.0 1.634842000e+00 -7.020260000e-01
98200000.0 1.628016000e+00 -6.737560000e-01
99100000.0 1.619861000e+00 -6.467130000e-01
100000000.0 1.608629000e+00 -6.211700000e-01
109000000.0 1.501988000e+00 -3.995440000e-01
118000000.0 1.376496000e+00 -2.434640000e-01
127000000.0 1.257404000e+00 -1.386380000e-01
136000000.0 1.148264000e+00 -6.844300000e-02
145000000.0 1.050002000e+00 -1.972100000e-02
154000000.0 1.000211000e+00 5.440000000e-04
163000000.0 1.001967000e+00 -6.550000000e-04
172000000.0 1.002856000e+00 -7.530000000e-04
181000000.0 1.003641000e+00 -1.753000000e-03
190000000.0 1.004467000e+00 -2.220000000e-04
199000000.0 1.005157000e+00 -9.410000000e-04
208000000.0 1.005800000e+00 -1.071000000e-03
217000000.0 1.005990000e+00 -1.575000000e-03
226000000.0 1.005535000e+00 -1.392000000e-03
235000000.0 1.006228000e+00 -1.288000000e-03
244000000.0 1.005294000e+00 -1.429000000e-03
253000000.0 1.005651000e+00 -7.110000000e-04
262000000.0 1.005430000e+00 -3.590000000e-04
271000000.0 1.005669000e+00 -1.122000000e-03
280000000.0 1.004504000e+00 -4.270000000e-04
289000000.0 1.002405000e+00 1.840000000e-04
298000000.0 1.001083000e+00 -1.210000000e-04
307000000.0 1.002954000e+00 -1.771000000e-03
316000000.0 1.002126000e+00 1.476000000e-03
325000000.0 1.004215000e+00 2.580000000e-04
334000000.0 1.004248000e+00 -2.040000000e-04
343000000.0 1.005027000e+00 -3.470000000e-04
352000000.0 1.006704000e+00 -1.293000000e-03
361000000.0 1.006101000e+00 2.220000000e-04
370000000.0 1.006075000e+00 8.660000000e-04
379000000.0 1.023676000e+00 5.315300000e-02
388000000.0 1.001464000e+00 -3.526400000e-02
397000000.0 1.005162000e+00 1.566000000e-03
406000000.0 1.012354000e+00 3.773100000e-02
415000000.0 1.004773000e+00 1.190000000e-03
424000000.0 1.003484000e+00 2.281000000e-03
433000000.0 1.002736000e+00 -9.700000000e-04
442000000.0 1.002786000e+00 3.419000000e-03
451000000.0 9.976810000e-01 -8.600000000e-05
460000000.0 1.001902000e+00 3.597000000e-03
469000000.0 1.003277000e+00 2.792000000e-03
478000000.0 1.004148000e+00 3.913000000e-03
487000000.0 1.005259000e+00 2.875000000e-03
496000000.0 1.007473000e+00 6.690000000e-03
505000000.0 1.007957000e+00 7.316000000e-03
514000000.0 1.009312000e+00 7.589000000e-03
523000000.0 1.007811000e+00 6.658000000e-03
532000000.0 1.007810000e+00 8.260000000e-03
541000000.0 1.009350000e+00 7.354000000e-03
550000000.0 1.011837000e+00 9.308000000e-03
559000000.0 1.008111000e+00 6.689000000e-03
568000000.0 1.006528000e+00 7.353000000e-03
577000000.0 1.007634000e+00 8.913000000e-03
586000000.0 1.005791000e+00 8.115000000e-03
595000000.0 1.004468000e+00 7.908000000e-03
604000000.0 1.004970000e+00 7.359000000e-03
613000000.0 1.003932000e+00 5.960000000e-03
622000000.0 1.008828000e+00 8.671000000e-03
631000000.0 1.011150000e+00 9.181000000e-03
640000000.0 1.014685000e+00 1.099800000e-02
649000000.0 1.016979000e+00 4.307000000e-03
658000000.0 1.017065000e+00 4.858000000e-03
667000000.0 1.015393000e+00 9.722000000e-03
676000000.0 1.015462000e+00 5.750000000e-03
685000000.0 1.015697000e+00 1.117900000e-02
694000000.0 1.017407000e+00 6.800000000e-03
703000000.0 1.011178000e+00 7.356000000e-03
712000000.0 1.017414000e+00 7.869000000e-03
721000000.0 1.013490000e+00 3.867000000e-03
730000000.0 1.007160000e+00 5.869000000e-03
739000000.0 1.005678000e+00 6.013000000e-03
748000000.0 1.002131000e+00 -1.687000000e-03
757000000.0 1.002009000e+00 4.800000000e-05
766000000.0 1.006632000e+00 -9.780000000e-04
775000000.0 1.010820000e+00 -1.730000000e-04
784000000.0 1.011960000e+00 -1.180000000e-03
793000000.0 1.015723000e+00 -3.876000000e-03
802000000.0 1.015257000e+00 -7.262000000e-03
811000000.0 1.019485000e+00 -6.733000000e-03
820000000.0 1.019759000e+00 -5.628000000e-03
829000000.0 1.017394000e+00 -8.243000000e-03
838000000.0 1.015966000e+00 -7.721000000e-03
847000000.0 1.018393000e+00 -1.461000000e-03
856000000.0 1.012065000e+00 -9.294000000e-03
865000000.0 1.015428000e+00 -1.725000000e-03
874000000.0 1.010267000e+00 -3.413000000e-03
883000000.0 1.006982000e+00 -2.885000000e-03
892000000.0 1.003381000e+00 -2.495000000e-03
901000000.0 1.000696000e+00 2.718000000e-03
910000000.0 1.003237000e+00 -4.619000000e-03
919000000.0 1.002079000e+00 -9.130000000e-04
928000000.0 1.004464000e+00 -4.454000000e-03
937000000.0 1.005208000e+00 -6.783000000e-03
946000000.0 1.004305000e+00 -1.259600000e-02
955000000.0 1.007210000e+00 -9.475000000e-03
964000000.0 1.005503000e+00 -8.395000000e-03
973000000.0 1.005750000e+00 -1.188200000e-02
982000000.0 1.004392000e+00 -9.039000000e-03
991000000.0 1.004248000e+00 -7.568000000e-03
1000000000.0 1.002592000e+00 -6.299000000e-03
1004500000.0 1.003618000e+00 -5.190000000e-03
1009000000.0 1.003360000e+00 -8.931000000e-03
1013500000.0 1.004211000e+00 -6.226000000e-03
1018000000.0 1.003252000e+00 -1.102000000e-03
1022500000.0 1.000387000e+00 -5.655000000e-03
1027000000.0 1.005062000e+00 -8.761000000e-03
1031500000.0 1.001355000e+00 -4.777000000e-03
1036000000.0 1.001575000e+00 -1.782000000e-03
1040500000.0 1.003070000e+00 -1.286000000e-03
1045000000.0 9.999580000e-01 -2.870000000e-03
1049500000.0 9.988170000e-01 -1.871000000e-03
1054000000.0 1.001161000e+00 -2.390000000e-04
1058500000.0 9.996450000e-01 2.991000000e-03
1063000000.0 9.994970000e-01 -1.511000000e-03
1067500000.0 1.000596000e+00 -2.412000000e-03
1072000000.0 9.985000000e-01 2.204000000e-03
1076500000.0 1.004021000e+00 -5.360000000e-03
1081000000.0 1.003025000e+00 -3.415000000e-03
1085500000.0 1.003137000e+00 3.217000000e-03
1090000000.0 1.000931000e+00 -9.240000000e-04
1094500000.0 1.001774000e+00 1.613000000e-03
1099000000.0 1.002371000e+00 -2.482000000e-03
1103500000.0 1.003434000e+00 -3.191000000e-03
1108000000.0 1.002149000e+00 -4.506000000e-03
1112500000.0 1.007104000e+00 -3.278000000e-03
1117000000.0 1.001832000e+00 3.700000000e-05
1121500000.0 1.004555000e+00 -6.534000000e-03
1126000000.0 1.007000000e+00 -6.829000000e-03
1130500000.0 1.007008000e+00 -4.592000000e-03
1135000000.0 1.002031000e+00 -3.815000000e-03
1139500000.0 1.003964000e+00 -4.831000000e-03
1144000000.0 9.955640000e-01 -4.287700000e-02
1148500000.0 1.004741000e+00 -5.022000000e-03
1153000000.0 1.006290000e+00 -8.287000000e-03
1157500000.0 1.005499000e+00 2.420000000e-04
1162000000.0 1.004762000e+00 1.573400000e-02
1166500000.0 1.005669000e+00 -8.534000000e-03
1171000000.0 1.002402000e+00 -6.421000000e-03
1175500000.0 1.004213000e+00 -3.703000000e-03
1180000000.0 1.001840000e+00 -1.434000000e-03
1184500000.0 1.004145000e+00 -4.760000000e-03
1189000000.0 1.003006000e+00 -1.503000000e-03
1193500000.0 1.003031000e+00 -2.280000000e-04
1198000000.0 1.004137000e+00 -4.167000000e-03
1202500000.0 1.002249000e+00 -1.083100000e-02
1207000000.0 1.004301000e+00 -4.712000000e-03
1211500000.0 1.000929000e+00 -4.177000000e-03
1216000000.0 1.003898000e+00 1.146000000e-03
1220500000.0 1.003526000e+00 -6.154000000e-03
1225000000.0 1.004259000e+00 -5.834000000e-03
1229500000.0 1.007859000e+00 3.626000000e-03
1234000000.0 1.005566000e+00 -6.270000000e-04
1238500000.0 1.003080000e+00 -9.365000000e-03
1243000000.0 1.009331000e+00 5.200000000e-05
1247500000.0 1.007021000e+00 -1.330000000e-04
1252000000.0 1.002711000e+00 -8.265000000e-03
1256500000.0 1.003839000e+00 -9.453000000e-03
1261000000.0 1.010554000e+00 4.255000000e-03
1265500000.0 1.000583000e+00 1.079000000e-03
1270000000.0 1.002259000e+00 4.464000000e-03
1274500000.0 1.006092000e+00 2.705000000e-03
1279000000.0 1.001505000e+00 -4.436000000e-03
1283500000.0 9.990460000e-01 -3.237000000e-03
1288000000.0 1.007162000e+00 -1.649000000e-03
1292500000.0 1.006954000e+00 1.639300000e-02
1297000000.0 1.005386000e+00 -2.100000000e-03
1301500000.0 9.980200000e-01 -1.195900000e-02
1306000000.0 1.003579000e+00 -4.957000000e-03
1310500000.0 9.865450000e-01 2.115200000e-02
1315000000.0 1.001733000e+00 -2.432000000e-03
1319500000.0 9.987630000e-01 -1.315200000e-02
1324000000.0 1.007798000e+00 2.857000000e-03
1328500000.0 1.004959000e+00 2.876200000e-02
1333000000.0 1.007525000e+00 2.183000000e-03
1337500000.0 1.006025000e+00 1.454000000e-03
1342000000.0 1.006412000e+00 3.501000000e-03
1346500000.0 1.007459000e+00 -1.487000000e-03
1351000000.0 1.000454000e+00 1.885000000e-03
1355500000.0 1.000188000e+00 5.240000000e-04
1360000000.0 1.005227000e+00 1.107600000e-02
1364500000.0 1.003562000e+00 8.050000000e-03
1369000000.0 1.004509000e+00 1.258800000e-02
1373500000.0 1.001151000e+00 4.560000000e-03
1378000000.0 1.002477000e+00 5.565000000e-03
1382500000.0 1.010749000e+00 1.767000000e-03
1387000000.0 1.009796000e+00 6.055000000e-03
1391500000.0 1.005309000e+00 1.443200000e-02
1396000000.0 1.003175000e+00 1.575400000e-02
1400500000.0 1.010859000e+00 8.866000000e-03
1405000000.0 9.974350000e-01 1.212000000e-02
1409500000.0 1.003982000e+00 1.651100000e-02
1414000000.0 1.007118000e+00 1.341800000e-02
1418500000.0 1.004143000e+00 6.172000000e-03
1423000000.0 1.006729000e+00 1.097900000e-02
1427500000.0 1.008759000e+00 5.799000000e-03
1432000000.0 1.002525000e+00 1.052700000e-02
1436500000.0 1.003430000e+00 1.341700000e-02
1441000000.0 1.002825000e+00 6.457000000e-03
1445500000.0 1.000042000e+00 1.526500000e-02
1450000000.0 1.004400000e+00 1.633800000e-02
