! piloto_saltos / abierto_tramosA / r04
# HZ S RI R 50
50000.0 1.006110000e+00 -7.029600000e-02
59500.0 1.008353000e+00 -5.601000000e-02
69000.0 1.004479000e+00 -4.293800000e-02
78500.0 1.003520000e+00 -2.904300000e-02
88000.0 1.002174000e+00 -1.656800000e-02
97500.0 1.000510000e+00 -3.214000000e-03
107000.0 1.000336000e+00 8.543000000e-03
116500.0 1.000807000e+00 2.173000000e-02
126000.0 9.980210000e-01 3.578800000e-02
135500.0 1.000805000e+00 4.683000000e-02
145000.0 1.001715000e+00 5.765700000e-02
154500.0 1.001225000e+00 7.083800000e-02
164000.0 1.002230000e+00 8.177800000e-02
173500.0 1.002743000e+00 9.447200000e-02
183000.0 1.002410000e+00 1.059450000e-01
192500.0 1.003284000e+00 1.180740000e-01
202000.0 1.003646000e+00 1.301660000e-01
211500.0 1.004157000e+00 1.415860000e-01
221000.0 1.004739000e+00 1.532750000e-01
230500.0 1.004498000e+00 1.643850000e-01
240000.0 1.005069000e+00 1.758650000e-01
249500.0 1.005149000e+00 1.872020000e-01
259000.0 1.005381000e+00 1.981890000e-01
268500.0 1.005818000e+00 2.097210000e-01
278000.0 1.006297000e+00 2.208600000e-01
287500.0 1.006386000e+00 2.316470000e-01
297000.0 1.006328000e+00 2.429270000e-01
306500.0 1.007384000e+00 2.530790000e-01
316000.0 1.006930000e+00 2.639330000e-01
325500.0 1.007473000e+00 2.747200000e-01
335000.0 1.007576000e+00 2.863510000e-01
344500.0 1.007787000e+00 2.975090000e-01
354000.0 1.007748000e+00 3.082970000e-01
363500.0 1.008341000e+00 3.189080000e-01
373000.0 1.008468000e+00 3.297790000e-01
382500.0 1.008547000e+00 3.392390000e-01
392000.0 1.009075000e+00 3.500710000e-01
401500.0 1.010032000e+00 3.603260000e-01
411000.0 1.009553000e+00 3.714210000e-01
420500.0 1.010670000e+00 3.823050000e-01
430000.0 1.010751000e+00 3.923900000e-01
439500.0 1.010035000e+00 4.027730000e-01
449000.0 1.010609000e+00 4.118570000e-01
458500.0 1.011851000e+00 4.221430000e-01
468000.0 1.011126000e+00 4.334250000e-01
477500.0 1.012853000e+00 4.422790000e-01
487000.0 1.011954000e+00 4.542910000e-01
496500.0 1.012788000e+00 4.633250000e-01
506000.0 1.012424000e+00 4.740600000e-01
515500.0 1.013572000e+00 4.839160000e-01
525000.0 1.013492000e+00 4.938830000e-01
534500.0 1.012735000e+00 5.033420000e-01
544000.0 1.013874000e+00 5.135980000e-01
553500.0 1.014825000e+00 5.238430000e-01
563000.0 1.015937000e+00 5.337350000e-01
572500.0 1.016628000e+00 5.430920000e-01
582000.0 1.016986000e+00 5.528590000e-01
591500.0 1.016314000e+00 5.630810000e-01
601000.0 1.018077000e+00 5.722930000e-01
610500.0 1.018456000e+00 5.814250000e-01
620000.0 1.019194000e+00 5.922110000e-01
629500.0 1.019720000e+00 6.014920000e-01
639000.0 1.019767000e+00 6.116960000e-01
648500.0 1.021486000e+00 6.214360000e-01
658000.0 1.022335000e+00 6.312980000e-01
667500.0 1.021839000e+00 6.407630000e-01
677000.0 1.023389000e+00 6.502550000e-01
686500.0 1.023562000e+00 6.588750000e-01
696000.0 1.025405000e+00 6.685940000e-01
705500.0 1.026478000e+00 6.781920000e-01
715000.0 1.027796000e+00 6.877050000e-01
724500.0 1.027778000e+00 6.970460000e-01
734000.0 1.029292000e+00 7.069860000e-01
743500.0 1.030253000e+00 7.157890000e-01
753000.0 1.031206000e+00 7.249340000e-01
762500.0 1.032120000e+00 7.346620000e-01
772000.0 1.034862000e+00 7.448670000e-01
781500.0 1.035454000e+00 7.536170000e-01
791000.0 1.037145000e+00 7.620640000e-01
800500.0 1.038084000e+00 7.712240000e-01
810000.0 1.038991000e+00 7.804170000e-01
819500.0 1.041137000e+00 7.907650000e-01
829000.0 1.043550000e+00 7.992080000e-01
838500.0 1.045039000e+00 8.080900000e-01
848000.0 1.045933000e+00 8.188770000e-01
857500.0 1.048218000e+00 8.276760000e-01
867000.0 1.050127000e+00 8.370470000e-01
876500.0 1.051832000e+00 8.455910000e-01
886000.0 1.053309000e+00 8.548940000e-01
895500.0 1.055227000e+00 8.631760000e-01
905000.0 1.057812000e+00 8.720660000e-01
914500.0 1.059055000e+00 8.809800000e-01
924000.0 1.061050000e+00 8.901170000e-01
933500.0 1.063888000e+00 8.994140000e-01
943000.0 1.067607000e+00 9.088710000e-01
952500.0 1.070302000e+00 9.156950000e-01
962000.0 1.072078000e+00 9.263410000e-01
971500.0 1.073498000e+00 9.363710000e-01
981000.0 1.077408000e+00 9.433300000e-01
990500.0 1.079265000e+00 9.525320000e-01
1000000.0 1.082659000e+00 9.619310000e-01
1090000.0 1.111870000e+00 1.040773000e+00
1180000.0 1.152934000e+00 1.117452000e+00
1270000.0 1.202197000e+00 1.189016000e+00
1360000.0 1.264676000e+00 1.248039000e+00
1450000.0 1.334591000e+00 1.298780000e+00
1540000.0 1.416453000e+00 1.338333000e+00
1630000.0 1.504580000e+00 1.356045000e+00
1720000.0 1.594311000e+00 1.354145000e+00
1810000.0 1.687732000e+00 1.332799000e+00
1900000.0 1.770839000e+00 1.287765000e+00
1990000.0 1.842342000e+00 1.228927000e+00
2080000.0 1.901046000e+00 1.152969000e+00
2170000.0 1.942138000e+00 1.066683000e+00
2260000.0 1.964872000e+00 9.753470000e-01
2350000.0 1.971044000e+00 8.872120000e-01
2440000.0 1.961349000e+00 8.018740000e-01
2530000.0 1.943029000e+00 7.228470000e-01
2620000.0 1.911481000e+00 6.519730000e-01
2710000.0 1.875953000e+00 5.877270000e-01
2800000.0 1.839053000e+00 5.327000000e-01
2890000.0 1.798641000e+00 4.859030000e-01
2980000.0 1.760739000e+00 4.407470000e-01
3070000.0 1.723072000e+00 4.033650000e-01
3160000.0 1.683534000e+00 3.717160000e-01
3250000.0 1.648380000e+00 3.424670000e-01
3340000.0 1.614078000e+00 3.157450000e-01
3430000.0 1.584581000e+00 2.927760000e-01
3520000.0 1.552288000e+00 2.698880000e-01
3610000.0 1.525239000e+00 2.516570000e-01
3700000.0 1.499007000e+00 2.327600000e-01
3790000.0 1.474226000e+00 2.143560000e-01
3880000.0 1.451112000e+00 1.975720000e-01
3970000.0 1.431259000e+00 1.806180000e-01
4060000.0 1.411723000e+00 1.654450000e-01
4150000.0 1.393847000e+00 1.520540000e-01
4240000.0 1.377671000e+00 1.360680000e-01
4330000.0 1.363245000e+00 1.233410000e-01
4420000.0 1.348016000e+00 1.088600000e-01
4510000.0 1.336155000e+00 9.615700000e-02
4600000.0 1.325071000e+00 8.374100000e-02
4690000.0 1.313532000e+00 6.929700000e-02
4780000.0 1.305947000e+00 5.664000000e-02
4870000.0 1.296411000e+00 4.378600000e-02
4960000.0 1.290355000e+00 3.101400000e-02
5050000.0 1.275241000e+00 1.784000000e-02
5140000.0 1.269386000e+00 5.863000000e-03
5230000.0 1.266941000e+00 -5.903000000e-03
5320000.0 1.261633000e+00 -1.883400000e-02
5410000.0 1.257207000e+00 -3.167800000e-02
5500000.0 1.255135000e+00 -4.280700000e-02
5590000.0 1.249965000e+00 -5.418900000e-02
5680000.0 1.247866000e+00 -6.522900000e-02
5770000.0 1.245706000e+00 -7.693400000e-02
5860000.0 1.239549000e+00 -8.625600000e-02
5950000.0 1.237971000e+00 -9.852400000e-02
6040000.0 1.236463000e+00 -1.073470000e-01
6130000.0 1.233264000e+00 -1.173610000e-01
6220000.0 1.231675000e+00 -1.254570000e-01
6310000.0 1.230216000e+00 -1.348020000e-01
6400000.0 1.227668000e+00 -1.438700000e-01
6490000.0 1.225357000e+00 -1.497870000e-01
6580000.0 1.224738000e+00 -1.586840000e-01
6670000.0 1.224193000e+00 -1.657410000e-01
6760000.0 1.223266000e+00 -1.702120000e-01
6850000.0 1.220426000e+00 -1.763890000e-01
6940000.0 1.221105000e+00 -1.815070000e-01
7030000.0 1.219801000e+00 -1.839740000e-01
7120000.0 1.219252000e+00 -1.880040000e-01
7210000.0 1.219546000e+00 -1.901600000e-01
7300000.0 1.217899000e+00 -1.921580000e-01
7390000.0 1.218065000e+00 -1.940140000e-01
7480000.0 1.219381000e+00 -1.936610000e-01
7570000.0 -2.421200000e-01 -1.258241000e+00
7660000.0 -2.416450000e-01 -1.259993000e+00
7750000.0 -2.419030000e-01 -1.259129000e+00
7840000.0 -2.403630000e-01 -1.258860000e+00
7930000.0 -2.404500000e-01 -1.260546000e+00
8020000.0 -2.397300000e-01 -1.260379000e+00
8110000.0 -2.379020000e-01 -1.260427000e+00
8200000.0 -2.377190000e-01 -1.262089000e+00
8290000.0 -2.365840000e-01 -1.262907000e+00
8380000.0 -2.362810000e-01 -1.263135000e+00
8470000.0 -2.346680000e-01 -1.262352000e+00
8560000.0 -2.339240000e-01 -1.264607000e+00
8650000.0 -2.341530000e-01 -1.265354000e+00
8740000.0 -2.333800000e-01 -1.264408000e+00
8830000.0 -2.317760000e-01 -1.265780000e+00
8920000.0 -2.321920000e-01 -1.266189000e+00
9010000.0 -2.306270000e-01 -1.267076000e+00
9100000.0 -2.299670000e-01 -1.268030000e+00
9190000.0 -2.293030000e-01 -1.267555000e+00
9280000.0 -2.293790000e-01 -1.268595000e+00
9370000.0 -2.281810000e-01 -1.268761000e+00
9460000.0 -2.280280000e-01 -1.271393000e+00
9550000.0 -2.283440000e-01 -1.271398000e+00
9640000.0 -2.254130000e-01 -1.272941000e+00
9730000.0 -2.262240000e-01 -1.272887000e+00
9820000.0 -2.251570000e-01 -1.274527000e+00
9910000.0 -2.238820000e-01 -1.274704000e+00
10000000.0 -2.237120000e-01 -1.274432000e+00
10900000.0 -2.182690000e-01 -1.284576000e+00
11800000.0 -2.134550000e-01 -1.294254000e+00
12700000.0 -2.067920000e-01 -1.302852000e+00
13600000.0 -2.018140000e-01 -1.313800000e+00
14500000.0 -1.951370000e-01 -1.325815000e+00
15400000.0 -1.888270000e-01 -1.337028000e+00
16300000.0 -1.830740000e-01 -1.349274000e+00
17200000.0 -1.751690000e-01 -1.360785000e+00
18100000.0 -1.684660000e-01 -1.372760000e+00
19000000.0 -1.607550000e-01 -1.385504000e+00
19900000.0 -1.537380000e-01 -1.397153000e+00
20800000.0 -1.445450000e-01 -1.410517000e+00
21700000.0 -1.376730000e-01 -1.422137000e+00
22600000.0 -1.291430000e-01 -1.436421000e+00
23500000.0 -1.189250000e-01 -1.449294000e+00
24400000.0 -1.069500000e-01 -1.462999000e+00
25300000.0 -9.867600000e-02 -1.478167000e+00
26200000.0 -8.680000000e-02 -1.490898000e+00
27100000.0 -7.691600000e-02 -1.504507000e+00
28000000.0 -6.419600000e-02 -1.518039000e+00
28900000.0 -5.137600000e-02 -1.530935000e+00
29800000.0 -9.770000000e-03 -1.551546000e+00
30700000.0 -2.456100000e-02 -1.562208000e+00
31600000.0 -1.219500000e-02 -1.575202000e+00
32500000.0 3.545000000e-03 -1.592169000e+00
33400000.0 1.911600000e-02 -1.605596000e+00
34300000.0 3.505100000e-02 -1.618883000e+00
35200000.0 5.148700000e-02 -1.635689000e+00
36100000.0 6.840300000e-02 -1.650423000e+00
37000000.0 8.658700000e-02 -1.664207000e+00
37900000.0 1.065160000e-01 -1.678945000e+00
38800000.0 1.265020000e-01 -1.695132000e+00
39700000.0 1.457790000e-01 -1.708154000e+00
40600000.0 1.668600000e-01 -1.723002000e+00
41500000.0 1.888400000e-01 -1.735075000e+00
42400000.0 2.119830000e-01 -1.748941000e+00
43300000.0 2.367120000e-01 -1.762681000e+00
44200000.0 2.612260000e-01 -1.775549000e+00
45100000.0 2.839340000e-01 -1.787180000e+00
46000000.0 3.129220000e-01 -1.800026000e+00
46900000.0 3.385160000e-01 -1.811609000e+00
47800000.0 3.690350000e-01 -1.822518000e+00
48700000.0 3.964780000e-01 -1.833158000e+00
49600000.0 4.261090000e-01 -1.845345000e+00
50500000.0 4.577800000e-01 -1.852471000e+00
51400000.0 4.904330000e-01 -1.859600000e+00
52300000.0 5.218680000e-01 -1.866573000e+00
53200000.0 5.555220000e-01 -1.872940000e+00
54100000.0 5.904680000e-01 -1.879004000e+00
55000000.0 6.236800000e-01 -1.880873000e+00
55900000.0 6.599480000e-01 -1.884879000e+00
56800000.0 6.977080000e-01 -1.886852000e+00
57700000.0 7.351700000e-01 -1.885982000e+00
58600000.0 7.716360000e-01 -1.885183000e+00
59500000.0 8.119490000e-01 -1.879764000e+00
60400000.0 8.482170000e-01 -1.876215000e+00
61300000.0 8.888960000e-01 -1.868867000e+00
62200000.0 9.275030000e-01 -1.861173000e+00
63100000.0 9.662860000e-01 -1.852066000e+00
64000000.0 1.004849000e+00 -1.842162000e+00
64900000.0 1.045826000e+00 -1.828319000e+00
65800000.0 1.083627000e+00 -1.812007000e+00
66700000.0 1.123859000e+00 -1.795675000e+00
67600000.0 1.161145000e+00 -1.775538000e+00
68500000.0 1.196886000e+00 -1.757519000e+00
69400000.0 1.234301000e+00 -1.734393000e+00
70300000.0 1.270139000e+00 -1.711206000e+00
71200000.0 1.304473000e+00 -1.683213000e+00
72100000.0 1.336518000e+00 -1.657126000e+00
73000000.0 1.368129000e+00 -1.629179000e+00
73900000.0 1.399966000e+00 -1.597285000e+00
74800000.0 1.427201000e+00 -1.566718000e+00
75700000.0 1.452990000e+00 -1.535651000e+00
76600000.0 1.482226000e+00 -1.500583000e+00
77500000.0 1.505211000e+00 -1.468081000e+00
78400000.0 1.526507000e+00 -1.432738000e+00
79300000.0 1.546967000e+00 -1.394220000e+00
80200000.0 1.566242000e+00 -1.359004000e+00
81100000.0 1.583080000e+00 -1.322277000e+00
82000000.0 1.599869000e+00 -1.285742000e+00
82900000.0 1.613214000e+00 -1.248395000e+00
83800000.0 1.624260000e+00 -1.211328000e+00
84700000.0 1.636085000e+00 -1.171823000e+00
85600000.0 1.644225000e+00 -1.134156000e+00
86500000.0 1.650583000e+00 -1.098982000e+00
87400000.0 1.655265000e+00 -1.062682000e+00
88300000.0 1.662349000e+00 -1.026067000e+00
89200000.0 1.663360000e+00 -9.917050000e-01
90100000.0 1.662051000e+00 -9.563450000e-01
91000000.0 1.664104000e+00 -9.212110000e-01
91900000.0 1.662706000e+00 -8.868600000e-01
92800000.0 1.659716000e+00 -8.559730000e-01
93700000.0 1.657489000e+00 -8.231710000e-01
94600000.0 1.651234000e+00 -7.911670000e-01
95500000.0 1.647974000e+00 -7.599700000e-01
96400000.0 1.640372000e+00 -7.307320000e-01
97300000.0 1.635713000e+00 -7.014580000e-01
98200000.0 1.626087000e+00 -6.731690000e-01
99100000.0 1.619950000e+00 -6.456430000e-01
100000000.0 1.608817000e+00 -6.205790000e-01
109000000.0 1.501890000e+00 -4.008810000e-01
118000000.0 1.375884000e+00 -2.446640000e-01
127000000.0 1.256424000e+00 -1.376780000e-01
136000000.0 1.147125000e+00 -6.806800000e-02
145000000.0 1.049597000e+00 -1.903800000e-02
154000000.0 1.000703000e+00 1.440000000e-04
163000000.0 1.001243000e+00 -2.210000000e-04
172000000.0 1.003501000e+00 -3.530000000e-04
181000000.0 1.003708000e+00 -1.667000000e-03
190000000.0 1.004076000e+00 -6.150000000e-04
199000000.0 1.004828000e+00 -1.317000000e-03
208000000.0 1.006355000e+00 -4.860000000e-04
217000000.0 1.006089000e+00 -2.800000000e-04
226000000.0 1.005257000e+00 -1.160000000e-03
235000000.0 1.006185000e+00 -1.467000000e-03
244000000.0 1.005542000e+00 -9.690000000e-04
253000000.0 1.005666000e+00 -1.515000000e-03
262000000.0 1.006079000e+00 -2.655000000e-03
271000000.0 1.004702000e+00 -6.490000000e-04
280000000.0 1.004025000e+00 -9.690000000e-04
289000000.0 1.002449000e+00 4.120000000e-04
298000000.0 1.001585000e+00 4.280000000e-04
307000000.0 1.002575000e+00 -1.205000000e-03
316000000.0 1.003639000e+00 3.670000000e-04
325000000.0 1.004336000e+00 -1.100000000e-05
334000000.0 1.004771000e+00 -5.820000000e-04
343000000.0 1.006432000e+00 1.028000000e-03
352000000.0 1.006440000e+00 1.736000000e-03
361000000.0 1.006364000e+00 -8.600000000e-05
370000000.0 1.003859000e+00 -1.788600000e-02
379000000.0 1.012241000e+00 1.761700000e-02
388000000.0 1.005774000e+00 2.390000000e-04
397000000.0 1.006055000e+00 -3.450000000e-04
406000000.0 1.004358000e+00 1.095000000e-03
415000000.0 1.004501000e+00 1.119000000e-03
424000000.0 1.003806000e+00 8.880000000e-04
433000000.0 1.001258000e+00 -1.130000000e-04
442000000.0 1.000211000e+00 -1.733000000e-03
451000000.0 9.989130000e-01 -3.080000000e-04
460000000.0 1.000978000e+00 1.321000000e-03
469000000.0 1.002640000e+00 2.364000000e-03
478000000.0 1.004482000e+00 2.869000000e-03
487000000.0 1.005595000e+00 7.310000000e-03
496000000.0 1.006824000e+00 3.784000000e-03
505000000.0 1.007884000e+00 6.844000000e-03
514000000.0 1.007880000e+00 5.267000000e-03
523000000.0 1.008529000e+00 5.648000000e-03
532000000.0 1.010091000e+00 5.653000000e-03
541000000.0 1.008607000e+00 7.196000000e-03
550000000.0 1.005557000e+00 8.048000000e-03
559000000.0 1.007417000e+00 7.129000000e-03
568000000.0 1.008959000e+00 6.392000000e-03
577000000.0 1.007539000e+00 9.723000000e-03
586000000.0 1.006151000e+00 6.098000000e-03
595000000.0 1.003463000e+00 5.506000000e-03
604000000.0 1.002301000e+00 4.609000000e-03
613000000.0 1.006642000e+00 7.287000000e-03
622000000.0 1.009107000e+00 7.840000000e-03
631000000.0 1.012483000e+00 9.584000000e-03
640000000.0 1.015511000e+00 6.565000000e-03
649000000.0 1.013857000e+00 5.996000000e-03
658000000.0 1.013629000e+00 1.066300000e-02
667000000.0 1.016096000e+00 6.496000000e-03
676000000.0 1.015694000e+00 7.460000000e-03
685000000.0 1.017869000e+00 3.731000000e-03
694000000.0 1.014309000e+00 9.780000000e-03
703000000.0 1.011067000e+00 9.364000000e-03
712000000.0 1.014635000e+00 3.740000000e-03
721000000.0 1.012670000e+00 4.757000000e-03
730000000.0 1.007415000e+00 3.731000000e-03
739000000.0 1.005878000e+00 3.932000000e-03
748000000.0 1.001471000e+00 8.560000000e-04
757000000.0 1.004454000e+00 3.855000000e-03
766000000.0 1.005863000e+00 -3.963000000e-03
775000000.0 1.008892000e+00 -5.449000000e-03
784000000.0 1.010188000e+00 -5.714000000e-03
793000000.0 1.016603000e+00 -4.421000000e-03
802000000.0 1.016602000e+00 -5.954000000e-03
811000000.0 1.018790000e+00 -3.257000000e-03
820000000.0 1.017676000e+00 -5.920000000e-03
829000000.0 1.020414000e+00 -7.050000000e-03
838000000.0 1.016634000e+00 -4.959000000e-03
847000000.0 1.018187000e+00 -7.705000000e-03
856000000.0 1.012843000e+00 -6.920000000e-03
865000000.0 1.012705000e+00 -4.930000000e-04
874000000.0 1.010596000e+00 -2.112000000e-03
883000000.0 1.008355000e+00 -4.440000000e-03
892000000.0 1.002841000e+00 -2.022000000e-03
901000000.0 9.986130000e-01 2.441000000e-03
910000000.0 1.000639000e+00 -5.283000000e-03
919000000.0 1.003084000e+00 -2.282000000e-03
928000000.0 1.002208000e+00 -5.112000000e-03
937000000.0 1.001391000e+00 -4.539000000e-03
946000000.0 1.004022000e+00 -6.597000000e-03
955000000.0 1.005942000e+00 -5.560000000e-03
964000000.0 1.004773000e+00 -7.297000000e-03
973000000.0 1.003206000e+00 -9.425000000e-03
982000000.0 1.004486000e+00 -6.611000000e-03
991000000.0 1.003439000e+00 -5.602000000e-03
1000000000.0 1.005345000e+00 -2.520000000e-03
1004500000.0 1.003956000e+00 -7.982000000e-03
1009000000.0 1.004011000e+00 -7.807000000e-03
1013500000.0 1.003362000e+00 -9.910000000e-03
1018000000.0 1.002957000e+00 -4.452000000e-03
1022500000.0 1.002855000e+00 -4.540000000e-03
1027000000.0 1.004030000e+00 -1.082200000e-02
1031500000.0 1.001711000e+00 -4.199000000e-03
1036000000.0 1.000052000e+00 -2.702000000e-03
1040500000.0 1.003209000e+00 -7.181000000e-03
1045000000.0 1.001648000e+00 -3.133000000e-03
1049500000.0 9.990640000e-01 3.407000000e-03
1054000000.0 9.961870000e-01 1.522000000e-03
1058500000.0 1.002145000e+00 6.270000000e-04
1063000000.0 1.001316000e+00 -1.001000000e-03
1067500000.0 1.002173000e+00 1.908000000e-03
1072000000.0 9.994810000e-01 2.566000000e-03
1076500000.0 1.002548000e+00 -6.978000000e-03
1081000000.0 1.007802000e+00 -5.154000000e-03
1085500000.0 1.003064000e+00 -4.480000000e-03
1090000000.0 1.004142000e+00 9.900000000e-05
1094500000.0 1.001736000e+00 -2.646000000e-03
1099000000.0 9.981340000e-01 6.479000000e-03
1103500000.0 1.005965000e+00 4.075000000e-03
1108000000.0 1.005929000e+00 -5.714000000e-03
1112500000.0 1.003499000e+00 -4.780000000e-04
1117000000.0 1.006400000e+00 -3.990000000e-03
1121500000.0 1.005418000e+00 -7.093000000e-03
1126000000.0 1.017432000e+00 6.595100000e-02
1130500000.0 1.005862000e+00 2.486000000e-03
1135000000.0 9.961850000e-01 -3.730000000e-03
1139500000.0 1.005101000e+00 -9.669000000e-03
1144000000.0 1.004942000e+00 -2.194700000e-02
1148500000.0 1.011235000e+00 -8.885000000e-03
1153000000.0 1.006067000e+00 -6.198000000e-03
1157500000.0 1.005313000e+00 -8.522000000e-03
1162000000.0 1.003647000e+00 -3.366900000e-02
1166500000.0 1.009016000e+00 -1.102100000e-02
1171000000.0 1.005463000e+00 -3.554000000e-03
1175500000.0 1.002537000e+00 7.840000000e-04
1180000000.0 1.005921000e+00 1.646200000e-02
1184500000.0 9.979990000e-01 1.310000000e-03
1189000000.0 1.004077000e+00 -3.333400000e-02
1193500000.0 9.996620000e-01 -9.065000000e-03
1198000000.0 1.003217000e+00 -4.640000000e-03
1202500000.0 1.005118000e+00 1.839000000e-03
1207000000.0 1.004779000e+00 6.175000000e-03
1211500000.0 1.005560000e+00 -1.052600000e-02
1216000000.0 1.003926000e+00 -4.360000000e-03
1220500000.0 1.004343000e+00 4.432000000e-03
1225000000.0 1.000375000e+00 -5.602000000e-03
1229500000.0 1.009051000e+00 1.470000000e-04
1234000000.0 1.002264000e+00 -4.590000000e-03
1238500000.0 1.007574000e+00 -7.588000000e-03
1243000000.0 1.001894000e+00 -6.570000000e-03
1247500000.0 1.002761000e+00 -1.280500000e-02
1252000000.0 1.006362000e+00 1.075000000e-03
1256500000.0 1.000478000e+00 -3.913000000e-03
1261000000.0 1.001983000e+00 9.220000000e-04
1265500000.0 1.004812000e+00 4.054000000e-03
1270000000.0 1.007300000e+00 1.382000000e-03
1274500000.0 1.003180000e+00 6.468000000e-03
1279000000.0 1.002075000e+00 3.024000000e-03
1283500000.0 1.001876000e+00 -8.360000000e-04
1288000000.0 1.002545000e+00 -9.207000000e-03
1292500000.0 1.000856000e+00 -5.760000000e-03
1297000000.0 1.003542000e+00 8.790000000e-04
1301500000.0 1.006502000e+00 -7.368000000e-03
1306000000.0 1.007049000e+00 4.971000000e-03
1310500000.0 9.995730000e-01 1.429000000e-03
1315000000.0 1.007111000e+00 -4.156000000e-03
1319500000.0 1.005549000e+00 1.913000000e-03
1324000000.0 1.008044000e+00 -1.826000000e-03
1328500000.0 9.982900000e-01 5.938000000e-03
1333000000.0 9.975280000e-01 -8.700000000e-04
1337500000.0 1.001081000e+00 -6.160000000e-04
1342000000.0 1.001810000e+00 9.477000000e-03
1346500000.0 1.006601000e+00 -6.699000000e-03
1351000000.0 1.004815000e+00 5.452000000e-03
1355500000.0 1.001328000e+00 5.298000000e-03
1360000000.0 1.000208000e+00 4.639000000e-03
1364500000.0 1.010380000e+00 3.241000000e-03
1369000000.0 1.006618000e+00 1.500900000e-02
1373500000.0 1.004022000e+00 1.388700000e-02
1378000000.0 1.000606000e+00 9.411000000e-03
1382500000.0 1.009943000e+00 1.311300000e-02
1387000000.0 1.007359000e+00 1.001700000e-02
1391500000.0 9.979380000e-01 4.520000000e-04
1396000000.0 1.006010000e+00 1.193800000e-02
1400500000.0 1.002263000e+00 9.464000000e-03
1405000000.0 1.000808000e+00 1.438800000e-02
1409500000.0 1.006587000e+00 6.886000000e-03
1414000000.0 1.001637000e+00 1.040400000e-02
1418500000.0 1.008244000e+00 1.082500000e-02
1423000000.0 1.008090000e+00 1.861000000e-03
1427500000.0 1.006489000e+00 1.309000000e-02
1432000000.0 1.003361000e+00 2.186300000e-02
1436500000.0 1.000768000e+00 2.009900000e-02
1441000000.0 9.979480000e-01 1.132700000e-02
1445500000.0 1.003885000e+00 1.711700000e-02
1450000000.0 1.002831000e+00 1.410700000e-02
