! piloto_saltos / abierto_tramosB / r02
# HZ S RI R 50
50000.0 1.005533000e+00 -7.008300000e-02
52500.0 1.005722000e+00 -6.621900000e-02
55000.0 1.005797000e+00 -6.237500000e-02
57500.0 1.005552000e+00 -5.922200000e-02
60000.0 1.009072000e+00 -5.441400000e-02
62500.0 1.004936000e+00 -5.073600000e-02
65000.0 1.004218000e+00 -4.810900000e-02
67500.0 1.004858000e+00 -4.421700000e-02
70000.0 1.005105000e+00 -4.001400000e-02
72500.0 1.002819000e+00 -3.756200000e-02
75000.0 1.003300000e+00 -3.429900000e-02
77500.0 1.002783000e+00 -2.980200000e-02
80000.0 1.003289000e+00 -2.632500000e-02
82500.0 1.002289000e+00 -2.287100000e-02
85000.0 1.001676000e+00 -2.001000000e-02
87500.0 1.002042000e+00 -1.643900000e-02
90000.0 1.000902000e+00 -1.364900000e-02
92500.0 1.001237000e+00 -9.653000000e-03
95000.0 1.001403000e+00 -7.518000000e-03
97500.0 1.001515000e+00 -3.788000000e-03
100000.0 1.000043000e+00 -4.700000000e-05
102500.0 1.000457000e+00 3.330000000e-03
105000.0 1.000212000e+00 7.251000000e-03
107500.0 1.000745000e+00 9.688000000e-03
110000.0 1.000761000e+00 1.277000000e-02
112500.0 1.000553000e+00 1.619900000e-02
115000.0 1.001016000e+00 1.888400000e-02
117500.0 9.996250000e-01 2.332000000e-02
120000.0 1.003174000e+00 2.607000000e-02
122500.0 1.000939000e+00 2.960100000e-02
125000.0 1.000735000e+00 3.378600000e-02
127500.0 1.001331000e+00 3.553400000e-02
130000.0 1.000648000e+00 3.973100000e-02
132500.0 1.001540000e+00 4.327200000e-02
135000.0 1.000944000e+00 4.528300000e-02
137500.0 9.994170000e-01 4.716500000e-02
140000.0 1.001253000e+00 5.181100000e-02
142500.0 1.001130000e+00 5.516100000e-02
145000.0 1.001387000e+00 5.848700000e-02
147500.0 1.001715000e+00 6.203000000e-02
150000.0 1.002742000e+00 6.685800000e-02
152500.0 1.001795000e+00 6.907900000e-02
155000.0 1.002236000e+00 7.093700000e-02
157500.0 1.002282000e+00 7.376900000e-02
160000.0 1.002531000e+00 7.703600000e-02
162500.0 1.002294000e+00 7.985500000e-02
165000.0 1.002517000e+00 8.421400000e-02
167500.0 1.002410000e+00 8.719200000e-02
170000.0 1.002878000e+00 8.969700000e-02
172500.0 1.002626000e+00 9.278200000e-02
175000.0 1.002631000e+00 9.621500000e-02
177500.0 1.003233000e+00 9.960200000e-02
180000.0 1.003274000e+00 1.025340000e-01
182500.0 1.003331000e+00 1.056920000e-01
185000.0 1.003736000e+00 1.086130000e-01
187500.0 1.002552000e+00 1.115850000e-01
190000.0 1.003365000e+00 1.153740000e-01
192500.0 1.003785000e+00 1.184970000e-01
195000.0 1.004089000e+00 1.210700000e-01
197500.0 1.003730000e+00 1.239510000e-01
200000.0 1.003429000e+00 1.269880000e-01
202500.0 1.004625000e+00 1.304210000e-01
205000.0 1.004117000e+00 1.329670000e-01
207500.0 1.004061000e+00 1.369960000e-01
210000.0 1.004662000e+00 1.399330000e-01
212500.0 1.003526000e+00 1.430680000e-01
215000.0 1.004101000e+00 1.460410000e-01
217500.0 1.004688000e+00 1.486530000e-01
220000.0 1.005007000e+00 1.520310000e-01
222500.0 1.004709000e+00 1.540180000e-01
225000.0 1.004591000e+00 1.578820000e-01
227500.0 1.005049000e+00 1.612710000e-01
230000.0 1.004735000e+00 1.638810000e-01
232500.0 1.005290000e+00 1.671360000e-01
235000.0 1.004816000e+00 1.698740000e-01
237500.0 1.005070000e+00 1.729190000e-01
240000.0 1.004396000e+00 1.759730000e-01
242500.0 1.004642000e+00 1.789160000e-01
245000.0 1.004985000e+00 1.818480000e-01
247500.0 1.005511000e+00 1.843370000e-01
250000.0 1.005156000e+00 1.875730000e-01
252500.0 1.004809000e+00 1.906110000e-01
255000.0 1.005470000e+00 1.941770000e-01
257500.0 1.005363000e+00 1.977470000e-01
260000.0 1.005738000e+00 1.994570000e-01
262500.0 1.006392000e+00 2.020720000e-01
265000.0 1.006208000e+00 2.055310000e-01
267500.0 1.006108000e+00 2.083670000e-01
270000.0 1.005545000e+00 2.113680000e-01
272500.0 1.006370000e+00 2.145370000e-01
275000.0 1.005603000e+00 2.173880000e-01
277500.0 1.006642000e+00 2.210370000e-01
280000.0 1.006778000e+00 2.235210000e-01
282500.0 1.006357000e+00 2.255350000e-01
285000.0 1.006949000e+00 2.284020000e-01
287500.0 1.006177000e+00 2.320820000e-01
290000.0 1.006750000e+00 2.341110000e-01
292500.0 1.007026000e+00 2.377270000e-01
295000.0 1.006394000e+00 2.401850000e-01
297500.0 1.006579000e+00 2.439240000e-01
300000.0 1.006471000e+00 2.463890000e-01
327000.0 1.005570000e+00 2.760940000e-01
354000.0 1.006386000e+00 3.070020000e-01
381000.0 1.007283000e+00 3.368340000e-01
408000.0 1.008604000e+00 3.669300000e-01
435000.0 1.009907000e+00 3.972510000e-01
462000.0 1.009838000e+00 4.260540000e-01
489000.0 1.010825000e+00 4.561610000e-01
516000.0 1.002997000e+00 4.683260000e-01
543000.0 1.014520000e+00 5.111300000e-01
570000.0 1.015778000e+00 5.391230000e-01
597000.0 1.008875000e+00 5.869320000e-01
624000.0 1.018364000e+00 5.969740000e-01
651000.0 1.021846000e+00 6.237150000e-01
678000.0 1.022897000e+00 6.508340000e-01
705000.0 1.026060000e+00 6.784960000e-01
732000.0 1.028857000e+00 7.046330000e-01
759000.0 1.031269000e+00 7.310640000e-01
786000.0 1.035258000e+00 7.586600000e-01
813000.0 1.040376000e+00 7.850860000e-01
840000.0 1.043515000e+00 8.105230000e-01
867000.0 1.050089000e+00 8.367010000e-01
894000.0 1.056225000e+00 8.610980000e-01
921000.0 1.061559000e+00 8.887730000e-01
948000.0 1.069457000e+00 9.125080000e-01
975000.0 1.076220000e+00 9.382850000e-01
1002000.0 1.084320000e+00 9.629640000e-01
1029000.0 1.091962000e+00 9.875240000e-01
1056000.0 1.101314000e+00 1.012417000e+00
1083000.0 1.111865000e+00 1.036935000e+00
1110000.0 1.122242000e+00 1.060486000e+00
1137000.0 1.134409000e+00 1.083872000e+00
1164000.0 1.148453000e+00 1.106122000e+00
1191000.0 1.159683000e+00 1.128057000e+00
1218000.0 1.173827000e+00 1.148581000e+00
1245000.0 1.192109000e+00 1.169756000e+00
1272000.0 1.206226000e+00 1.189445000e+00
1299000.0 1.222726000e+00 1.209245000e+00
1326000.0 1.241338000e+00 1.225625000e+00
1353000.0 1.262484000e+00 1.245025000e+00
1380000.0 1.283289000e+00 1.260067000e+00
1407000.0 1.304653000e+00 1.279744000e+00
1434000.0 1.323963000e+00 1.292965000e+00
1461000.0 1.348079000e+00 1.303248000e+00
1488000.0 1.370132000e+00 1.314484000e+00
1515000.0 1.397175000e+00 1.327978000e+00
1542000.0 1.422950000e+00 1.336514000e+00
1569000.0 1.447682000e+00 1.344149000e+00
1596000.0 1.475022000e+00 1.349797000e+00
1623000.0 1.499965000e+00 1.354262000e+00
1650000.0 1.524174000e+00 1.357948000e+00
1677000.0 1.552187000e+00 1.357790000e+00
1704000.0 1.582173000e+00 1.355362000e+00
1731000.0 1.607955000e+00 1.351037000e+00
1758000.0 1.636562000e+00 1.344280000e+00
1785000.0 1.664740000e+00 1.339761000e+00
1812000.0 1.689337000e+00 1.329811000e+00
1839000.0 1.717610000e+00 1.319630000e+00
1866000.0 1.739890000e+00 1.306849000e+00
1893000.0 1.765897000e+00 1.291418000e+00
1920000.0 1.788887000e+00 1.274503000e+00
1947000.0 1.812209000e+00 1.256960000e+00
1974000.0 1.832420000e+00 1.239574000e+00
2001000.0 1.852445000e+00 1.219069000e+00
2028000.0 1.870722000e+00 1.194970000e+00
2055000.0 1.888549000e+00 1.173504000e+00
2082000.0 1.904749000e+00 1.147020000e+00
2109000.0 1.916882000e+00 1.125750000e+00
2136000.0 1.929141000e+00 1.098544000e+00
2163000.0 1.939255000e+00 1.072469000e+00
2190000.0 1.947066000e+00 1.044124000e+00
2217000.0 1.957991000e+00 1.016979000e+00
2244000.0 1.958590000e+00 9.889960000e-01
2271000.0 1.967711000e+00 9.650850000e-01
2298000.0 1.967154000e+00 9.373310000e-01
2325000.0 1.968789000e+00 9.102210000e-01
2352000.0 1.968964000e+00 8.852200000e-01
2379000.0 1.967537000e+00 8.563090000e-01
2406000.0 1.966158000e+00 8.292880000e-01
2433000.0 1.958999000e+00 8.068370000e-01
2460000.0 1.954853000e+00 7.825390000e-01
2487000.0 1.952373000e+00 7.599280000e-01
2514000.0 1.941842000e+00 7.354350000e-01
2541000.0 1.933910000e+00 7.103970000e-01
2568000.0 1.927427000e+00 6.903090000e-01
2595000.0 1.918026000e+00 6.711940000e-01
2622000.0 1.908567000e+00 6.505600000e-01
2649000.0 1.898802000e+00 6.302910000e-01
2676000.0 1.888311000e+00 6.094630000e-01
2703000.0 1.877584000e+00 5.923150000e-01
2730000.0 1.865664000e+00 5.751160000e-01
2757000.0 1.856670000e+00 5.604400000e-01
2784000.0 1.844193000e+00 5.422130000e-01
2811000.0 1.833207000e+00 5.292210000e-01
2838000.0 1.820976000e+00 5.119160000e-01
2865000.0 1.809018000e+00 4.970820000e-01
2892000.0 1.796381000e+00 4.821480000e-01
2919000.0 1.786103000e+00 4.687330000e-01
2946000.0 1.772318000e+00 4.571840000e-01
2973000.0 1.762620000e+00 4.431240000e-01
3000000.0 1.751159000e+00 4.330530000e-01
3270000.0 1.639875000e+00 3.357580000e-01
3540000.0 1.545578000e+00 2.653280000e-01
3810000.0 1.469069000e+00 2.095420000e-01
4080000.0 1.407424000e+00 1.617090000e-01
4350000.0 1.358585000e+00 1.190040000e-01
4620000.0 1.321573000e+00 7.929000000e-02
4890000.0 1.294551000e+00 3.987800000e-02
5160000.0 1.269330000e+00 3.234000000e-03
5430000.0 1.256250000e+00 -3.368200000e-02
5700000.0 1.246532000e+00 -6.794500000e-02
5970000.0 1.238019000e+00 -9.925800000e-02
6240000.0 1.230629000e+00 -1.281380000e-01
6510000.0 1.224792000e+00 -1.537260000e-01
6780000.0 1.221707000e+00 -1.722000000e-01
7050000.0 1.219982000e+00 -1.858710000e-01
7320000.0 1.218633000e+00 -1.922130000e-01
7590000.0 -2.421620000e-01 -1.259174000e+00
7860000.0 -2.399640000e-01 -1.259609000e+00
8130000.0 -2.382000000e-01 -1.260914000e+00
8400000.0 -2.356550000e-01 -1.263186000e+00
8670000.0 -2.333430000e-01 -1.263894000e+00
8940000.0 -2.304320000e-01 -1.266824000e+00
9210000.0 -2.304230000e-01 -1.268374000e+00
9480000.0 -2.277270000e-01 -1.271111000e+00
9750000.0 -2.268390000e-01 -1.273059000e+00
10020000.0 -2.244050000e-01 -1.275775000e+00
10290000.0 -2.232750000e-01 -1.277586000e+00
10560000.0 -2.204220000e-01 -1.281255000e+00
10830000.0 -2.180890000e-01 -1.282481000e+00
11100000.0 -2.176570000e-01 -1.286083000e+00
11370000.0 -2.167290000e-01 -1.289238000e+00
11640000.0 -2.139220000e-01 -1.291686000e+00
11910000.0 -2.111020000e-01 -1.295823000e+00
12180000.0 -2.103310000e-01 -1.297970000e+00
12450000.0 -2.083000000e-01 -1.300826000e+00
12720000.0 -2.070320000e-01 -1.303673000e+00
12990000.0 -2.058430000e-01 -1.306754000e+00
13260000.0 -2.030400000e-01 -1.309768000e+00
13530000.0 -2.012090000e-01 -1.314104000e+00
13800000.0 -1.991480000e-01 -1.316651000e+00
14070000.0 -1.987160000e-01 -1.320621000e+00
14340000.0 -1.960120000e-01 -1.323553000e+00
14610000.0 -1.945100000e-01 -1.326221000e+00
14880000.0 -1.919410000e-01 -1.330453000e+00
15150000.0 -1.897420000e-01 -1.334029000e+00
15420000.0 -1.882920000e-01 -1.336611000e+00
15690000.0 -1.856290000e-01 -1.340922000e+00
15960000.0 -1.833110000e-01 -1.344544000e+00
16230000.0 -1.819600000e-01 -1.347248000e+00
16500000.0 -1.807940000e-01 -1.350873000e+00
16770000.0 -1.790100000e-01 -1.355125000e+00
17040000.0 -1.764350000e-01 -1.356765000e+00
17310000.0 -1.747420000e-01 -1.360770000e+00
17580000.0 -1.719190000e-01 -1.365046000e+00
17850000.0 -1.708150000e-01 -1.368525000e+00
18120000.0 -1.681390000e-01 -1.372229000e+00
18390000.0 -1.665720000e-01 -1.376026000e+00
18660000.0 -1.627760000e-01 -1.380108000e+00
18930000.0 -1.604710000e-01 -1.383855000e+00
19200000.0 -1.606390000e-01 -1.388750000e+00
19470000.0 -1.557930000e-01 -1.392237000e+00
19740000.0 -1.557030000e-01 -1.394442000e+00
20010000.0 -1.526440000e-01 -1.398641000e+00
20280000.0 -1.494800000e-01 -1.402733000e+00
20550000.0 -1.474670000e-01 -1.405274000e+00
20820000.0 -1.445490000e-01 -1.410896000e+00
21090000.0 -1.430830000e-01 -1.414473000e+00
21360000.0 -1.411690000e-01 -1.416959000e+00
21630000.0 -1.360320000e-01 -1.422540000e+00
21900000.0 -1.335620000e-01 -1.425760000e+00
22170000.0 -1.322770000e-01 -1.429600000e+00
22440000.0 -1.296450000e-01 -1.433792000e+00
22710000.0 -1.253780000e-01 -1.437858000e+00
22980000.0 -1.233540000e-01 -1.441529000e+00
23250000.0 -1.210830000e-01 -1.445492000e+00
23520000.0 -1.179390000e-01 -1.451443000e+00
23790000.0 -1.148450000e-01 -1.454135000e+00
24060000.0 -1.119280000e-01 -1.456742000e+00
24330000.0 -1.099330000e-01 -1.461850000e+00
24600000.0 -1.058710000e-01 -1.465063000e+00
24870000.0 -1.035200000e-01 -1.469083000e+00
25140000.0 -9.911800000e-02 -1.474884000e+00
25410000.0 -9.691500000e-02 -1.479019000e+00
25680000.0 -9.233100000e-02 -1.482104000e+00
25950000.0 -8.983800000e-02 -1.486723000e+00
26220000.0 -8.726200000e-02 -1.491471000e+00
26490000.0 -8.375900000e-02 -1.495885000e+00
26760000.0 -8.157500000e-02 -1.500092000e+00
27030000.0 -7.699800000e-02 -1.503051000e+00
27300000.0 -7.396700000e-02 -1.507659000e+00
27570000.0 -6.979700000e-02 -1.512518000e+00
27840000.0 -6.694100000e-02 -1.517331000e+00
28110000.0 -6.122100000e-02 -1.520785000e+00
28380000.0 -5.838600000e-02 -1.524508000e+00
28650000.0 -5.448100000e-02 -1.529764000e+00
28920000.0 -5.115500000e-02 -1.532371000e+00
29190000.0 -4.796000000e-02 -1.537691000e+00
29460000.0 -4.355900000e-02 -1.542082000e+00
29730000.0 -4.119400000e-02 -1.544936000e+00
30000000.0 -3.578300000e-02 -1.550563000e+00
32700000.0 8.523000000e-03 -1.594689000e+00
35400000.0 5.623200000e-02 -1.640175000e+00
38100000.0 1.092270000e-01 -1.683131000e+00
40800000.0 1.710020000e-01 -1.725760000e+00
43500000.0 2.403300000e-01 -1.764845000e+00
46200000.0 3.195590000e-01 -1.803822000e+00
48900000.0 4.031290000e-01 -1.835543000e+00
51600000.0 4.965860000e-01 -1.860967000e+00
54300000.0 5.968310000e-01 -1.878654000e+00
57000000.0 7.060150000e-01 -1.886531000e+00
59700000.0 8.174020000e-01 -1.879051000e+00
62400000.0 9.357660000e-01 -1.858658000e+00
65100000.0 1.052409000e+00 -1.823954000e+00
67800000.0 1.166710000e+00 -1.770797000e+00
70500000.0 1.275251000e+00 -1.704677000e+00
73200000.0 1.374838000e+00 -1.621907000e+00
75900000.0 1.460204000e+00 -1.527010000e+00
78600000.0 1.529463000e+00 -1.424051000e+00
81300000.0 1.585756000e+00 -1.312961000e+00
84000000.0 1.626904000e+00 -1.204654000e+00
86700000.0 1.651577000e+00 -1.090803000e+00
89400000.0 1.664947000e+00 -9.822020000e-01
92100000.0 1.663824000e+00 -8.806040000e-01
94800000.0 1.651669000e+00 -7.846420000e-01
97500000.0 1.633210000e+00 -6.953050000e-01
100200000.0 1.609673000e+00 -6.134130000e-01
102900000.0 1.578792000e+00 -5.423490000e-01
105600000.0 1.545869000e+00 -4.739330000e-01
108300000.0 1.509007000e+00 -4.132640000e-01
111000000.0 1.474083000e+00 -3.601390000e-01
113700000.0 1.436784000e+00 -3.117370000e-01
116400000.0 1.399448000e+00 -2.663700000e-01
119100000.0 1.362728000e+00 -2.278040000e-01
121800000.0 1.325308000e+00 -1.946950000e-01
124500000.0 1.289515000e+00 -1.623330000e-01
127200000.0 1.253451000e+00 -1.345290000e-01
129900000.0 1.220686000e+00 -1.103010000e-01
132600000.0 1.186915000e+00 -8.968200000e-02
135300000.0 1.155160000e+00 -7.373000000e-02
138000000.0 1.125410000e+00 -5.621900000e-02
140700000.0 1.094157000e+00 -4.171600000e-02
143400000.0 1.065348000e+00 -2.643400000e-02
146100000.0 1.037768000e+00 -1.518500000e-02
148800000.0 1.012815000e+00 -5.442000000e-03
151500000.0 9.997470000e-01 3.770000000e-04
154200000.0 1.001414000e+00 7.230000000e-04
156900000.0 1.000295000e+00 7.800000000e-05
159600000.0 1.000884000e+00 -1.700000000e-05
162300000.0 1.002316000e+00 4.010000000e-04
165000000.0 1.002172000e+00 -4.870000000e-04
167700000.0 1.000480000e+00 7.400000000e-05
170400000.0 1.001988000e+00 -4.300000000e-05
173100000.0 1.002713000e+00 -4.650000000e-04
175800000.0 1.002620000e+00 -2.179000000e-03
178500000.0 1.003197000e+00 -5.370000000e-04
181200000.0 1.003850000e+00 1.088000000e-03
183900000.0 1.004270000e+00 -8.830000000e-04
186600000.0 1.003538000e+00 -1.351000000e-03
189300000.0 1.002908000e+00 -2.721000000e-03
192000000.0 1.004916000e+00 -1.187000000e-03
194700000.0 1.004136000e+00 -2.088000000e-03
197400000.0 1.005119000e+00 -2.260000000e-03
200100000.0 1.005280000e+00 -1.458000000e-03
202800000.0 1.005539000e+00 -1.858000000e-03
205500000.0 1.005531000e+00 -1.399000000e-03
208200000.0 1.006865000e+00 -1.161000000e-03
210900000.0 1.005701000e+00 -1.681000000e-03
213600000.0 1.005344000e+00 -1.391000000e-03
216300000.0 1.004946000e+00 -5.930000000e-04
219000000.0 1.006455000e+00 -1.785000000e-03
221700000.0 1.005181000e+00 -2.194000000e-03
224400000.0 1.005978000e+00 -2.096000000e-03
227100000.0 1.006633000e+00 -9.310000000e-04
229800000.0 1.005299000e+00 -1.805000000e-03
232500000.0 1.006200000e+00 -1.883000000e-03
235200000.0 1.007001000e+00 -4.800000000e-04
237900000.0 1.006665000e+00 -7.940000000e-04
240600000.0 1.005917000e+00 -3.009000000e-03
243300000.0 1.006550000e+00 -1.840000000e-04
246000000.0 1.006391000e+00 -1.822000000e-03
248700000.0 1.004813000e+00 -1.823000000e-03
251400000.0 1.006817000e+00 -1.204000000e-03
254100000.0 1.004660000e+00 -1.831200000e-02
256800000.0 1.005725000e+00 -6.970000000e-04
259500000.0 1.006341000e+00 1.688700000e-02
262200000.0 1.005874000e+00 7.200000000e-05
264900000.0 1.003152000e+00 -1.939500000e-02
267600000.0 1.004862000e+00 1.660000000e-04
270300000.0 1.006231000e+00 1.597400000e-02
273000000.0 1.004480000e+00 2.760000000e-04
275700000.0 1.004001000e+00 -6.170000000e-04
278400000.0 1.006069000e+00 1.975000000e-03
281100000.0 1.004559000e+00 -4.290000000e-04
283800000.0 1.003459000e+00 -1.908000000e-03
286500000.0 1.003069000e+00 7.290000000e-04
289200000.0 1.001891000e+00 -4.650000000e-04
291900000.0 1.002717000e+00 2.067000000e-03
294600000.0 9.987270000e-01 -5.630000000e-04
297300000.0 1.002534000e+00 2.760000000e-04
300000000.0 1.001691000e+00 1.627000000e-03
311500000.0 1.003165000e+00 -1.587000000e-03
323000000.0 1.004192000e+00 -6.570000000e-04
334500000.0 1.006152000e+00 1.100000000e-03
346000000.0 1.005410000e+00 6.040000000e-04
357500000.0 1.006706000e+00 3.050000000e-04
369000000.0 1.006381000e+00 1.218000000e-03
380500000.0 1.007297000e+00 2.960000000e-03
392000000.0 1.006507000e+00 1.051000000e-03
403500000.0 1.006183000e+00 -2.560000000e-04
415000000.0 1.004107000e+00 -1.370000000e-04
426500000.0 1.002976000e+00 3.016000000e-03
438000000.0 1.001373000e+00 8.420000000e-04
449500000.0 9.993490000e-01 8.560000000e-04
461000000.0 1.001687000e+00 2.076000000e-03
472500000.0 1.003039000e+00 3.061000000e-03
484000000.0 1.004910000e+00 3.303000000e-03
495500000.0 1.006150000e+00 6.447000000e-03
507000000.0 1.007635000e+00 7.072000000e-03
518500000.0 1.007601000e+00 6.648000000e-03
530000000.0 1.009498000e+00 7.637000000e-03
541500000.0 1.007443000e+00 1.060500000e-02
553000000.0 1.009905000e+00 8.522000000e-03
564500000.0 1.007916000e+00 9.676000000e-03
576000000.0 1.005518000e+00 7.369000000e-03
587500000.0 1.003847000e+00 2.539000000e-02
599000000.0 1.004527000e+00 8.562000000e-03
610500000.0 1.008016000e+00 -1.279300000e-02
622000000.0 1.009860000e+00 2.631300000e-02
633500000.0 1.010980000e+00 2.584300000e-02
645000000.0 1.011121000e+00 -9.794000000e-03
656500000.0 1.014208000e+00 -6.256000000e-03
668000000.0 1.016418000e+00 -1.200500000e-02
679500000.0 1.021785000e+00 2.801000000e-02
691000000.0 1.015206000e+00 -9.710000000e-03
702500000.0 1.013870000e+00 2.176000000e-03
714000000.0 1.012045000e+00 6.502000000e-03
725500000.0 1.010685000e+00 7.594000000e-03
737000000.0 1.005897000e+00 6.289000000e-03
748500000.0 1.004903000e+00 2.677000000e-03
760000000.0 1.006697000e+00 2.745000000e-03
771500000.0 1.007374000e+00 9.380000000e-04
783000000.0 1.013011000e+00 -5.405000000e-03
794500000.0 1.016782000e+00 -5.315000000e-03
806000000.0 1.017587000e+00 -6.390000000e-03
817500000.0 1.021429000e+00 -5.143000000e-03
829000000.0 1.015849000e+00 -6.424000000e-03
840500000.0 1.016018000e+00 -6.965000000e-03
852000000.0 1.016134000e+00 -6.832000000e-03
863500000.0 1.013740000e+00 -4.587000000e-03
875000000.0 1.007958000e+00 8.400000000e-05
886500000.0 1.004581000e+00 -5.151000000e-03
898000000.0 1.000088000e+00 5.440000000e-04
909500000.0 1.005508000e+00 1.225000000e-03
921000000.0 1.002695000e+00 -9.770000000e-04
932500000.0 1.005607000e+00 -3.677000000e-03
944000000.0 1.004476000e+00 -6.308000000e-03
955500000.0 1.000796000e+00 -7.105000000e-03
967000000.0 1.005917000e+00 -1.025600000e-02
978500000.0 1.005987000e+00 -1.118900000e-02
990000000.0 1.003845000e+00 -1.000700000e-02
1001500000.0 1.005810000e+00 -8.466000000e-03
1013000000.0 1.003390000e+00 -6.779000000e-03
1024500000.0 9.978150000e-01 -1.143000000e-03
1036000000.0 9.982150000e-01 1.867000000e-03
1047500000.0 9.993800000e-01 1.081000000e-03
1059000000.0 1.001214000e+00 -3.330000000e-04
1070500000.0 1.001455000e+00 -8.560000000e-04
1082000000.0 1.000709000e+00 -1.106000000e-03
1093500000.0 9.969040000e-01 -7.752000000e-03
1105000000.0 1.008579000e+00 -8.191000000e-03
1116500000.0 1.005135000e+00 2.118000000e-03
1128000000.0 1.015169000e+00 -3.797900000e-02
1139500000.0 1.004844000e+00 -3.351000000e-03
1151000000.0 1.005113000e+00 -5.965000000e-03
1162500000.0 1.008568000e+00 -1.520000000e-04
1174000000.0 1.005194000e+00 -2.995000000e-03
1185500000.0 1.005633000e+00 -3.167000000e-03
1197000000.0 1.002906000e+00 -5.990000000e-04
1208500000.0 1.007676000e+00 -7.661000000e-03
1220000000.0 1.007295000e+00 -2.409000000e-03
1231500000.0 1.004503000e+00 -8.622000000e-03
1243000000.0 1.004997000e+00 -6.022000000e-03
1254500000.0 1.007389000e+00 -2.636000000e-03
1266000000.0 1.006536000e+00 -6.179000000e-03
1277500000.0 1.000380000e+00 -1.408000000e-03
1289000000.0 1.003576000e+00 -4.026000000e-03
1300500000.0 1.008632000e+00 4.139000000e-03
1312000000.0 1.002822000e+00 -2.989000000e-03
1323500000.0 1.002433000e+00 -6.320000000e-04
1335000000.0 1.004671000e+00 -1.261000000e-03
1346500000.0 1.004976000e+00 -5.925000000e-03
1358000000.0 1.007957000e+00 4.536000000e-03
1369500000.0 1.004543000e+00 4.638000000e-03
1381000000.0 9.965660000e-01 1.619100000e-02
1392500000.0 1.000367000e+00 8.338000000e-03
1404000000.0 1.000943000e+00 3.666700000e-02
1415500000.0 9.972250000e-01 2.242700000e-02
1427000000.0 1.011671000e+00 1.450700000e-02
1438500000.0 1.002200000e+00 1.446200000e-02
1450000000.0 1.000881000e+00 1.572000000e-02
