! piloto_saltos / abierto_tramosA / r03
# HZ S RI R 50
50000.0 1.006895000e+00 -7.025000000e-02
59500.0 1.002965000e+00 -5.729900000e-02
69000.0 1.003587000e+00 -4.039100000e-02
78500.0 1.003447000e+00 -2.869500000e-02
88000.0 1.001256000e+00 -1.590500000e-02
97500.0 9.999860000e-01 -4.318000000e-03
107000.0 1.000439000e+00 8.482000000e-03
116500.0 1.000750000e+00 2.141800000e-02
126000.0 9.981300000e-01 3.423200000e-02
135500.0 1.001299000e+00 4.634700000e-02
145000.0 1.000760000e+00 5.726300000e-02
154500.0 1.001858000e+00 6.967100000e-02
164000.0 1.001668000e+00 8.242500000e-02
173500.0 1.002385000e+00 9.411800000e-02
183000.0 1.002683000e+00 1.060120000e-01
192500.0 1.003761000e+00 1.185510000e-01
202000.0 1.003337000e+00 1.293760000e-01
211500.0 1.003213000e+00 1.414070000e-01
221000.0 1.004222000e+00 1.530220000e-01
230500.0 1.004467000e+00 1.645190000e-01
240000.0 1.004802000e+00 1.755760000e-01
249500.0 1.005590000e+00 1.863450000e-01
259000.0 1.005671000e+00 1.977270000e-01
268500.0 1.005874000e+00 2.099960000e-01
278000.0 1.007005000e+00 2.205930000e-01
287500.0 1.006474000e+00 2.323360000e-01
297000.0 1.006401000e+00 2.434880000e-01
306500.0 1.006894000e+00 2.532160000e-01
316000.0 1.007325000e+00 2.653170000e-01
325500.0 1.007564000e+00 2.754830000e-01
335000.0 1.008016000e+00 2.866660000e-01
344500.0 1.008618000e+00 2.977100000e-01
354000.0 1.007527000e+00 3.081240000e-01
363500.0 1.008155000e+00 3.184200000e-01
373000.0 1.008516000e+00 3.287780000e-01
382500.0 1.008951000e+00 3.396570000e-01
392000.0 1.009058000e+00 3.505150000e-01
401500.0 1.009642000e+00 3.610720000e-01
411000.0 1.009112000e+00 3.710530000e-01
420500.0 1.010099000e+00 3.811750000e-01
430000.0 1.010217000e+00 3.919120000e-01
439500.0 1.009920000e+00 4.028170000e-01
449000.0 1.010618000e+00 4.126810000e-01
458500.0 1.010640000e+00 4.225570000e-01
468000.0 1.011714000e+00 4.328150000e-01
477500.0 1.012085000e+00 4.429890000e-01
487000.0 1.012627000e+00 4.531380000e-01
496500.0 1.012892000e+00 4.626960000e-01
506000.0 1.013330000e+00 4.744160000e-01
515500.0 1.013440000e+00 4.845340000e-01
525000.0 1.013207000e+00 4.938930000e-01
534500.0 1.013809000e+00 5.039020000e-01
544000.0 1.014576000e+00 5.132060000e-01
553500.0 1.015229000e+00 5.240770000e-01
563000.0 1.016663000e+00 5.326070000e-01
572500.0 1.016981000e+00 5.434310000e-01
582000.0 1.017137000e+00 5.537070000e-01
591500.0 1.017578000e+00 5.625780000e-01
601000.0 1.017362000e+00 5.732340000e-01
610500.0 1.018590000e+00 5.820210000e-01
620000.0 1.018381000e+00 5.938810000e-01
629500.0 1.018399000e+00 6.019200000e-01
639000.0 1.020695000e+00 6.106780000e-01
648500.0 1.021132000e+00 6.208020000e-01
658000.0 1.021400000e+00 6.303480000e-01
667500.0 1.022466000e+00 6.402910000e-01
677000.0 1.022839000e+00 6.488300000e-01
686500.0 1.024532000e+00 6.599270000e-01
696000.0 1.026163000e+00 6.706960000e-01
705500.0 1.025895000e+00 6.788380000e-01
715000.0 1.026919000e+00 6.892560000e-01
724500.0 1.027217000e+00 6.972440000e-01
734000.0 1.029197000e+00 7.069360000e-01
743500.0 1.030619000e+00 7.158250000e-01
753000.0 1.031679000e+00 7.252260000e-01
762500.0 1.033516000e+00 7.349190000e-01
772000.0 1.034470000e+00 7.447150000e-01
781500.0 1.035051000e+00 7.543810000e-01
791000.0 1.036042000e+00 7.647250000e-01
800500.0 1.038243000e+00 7.713380000e-01
810000.0 1.038532000e+00 7.817010000e-01
819500.0 1.041988000e+00 7.908920000e-01
829000.0 1.043030000e+00 8.010560000e-01
838500.0 1.043610000e+00 8.090670000e-01
848000.0 1.045793000e+00 8.187870000e-01
857500.0 1.048287000e+00 8.279040000e-01
867000.0 1.050266000e+00 8.362660000e-01
876500.0 1.051245000e+00 8.454060000e-01
886000.0 1.053584000e+00 8.546380000e-01
895500.0 1.056621000e+00 8.644150000e-01
905000.0 1.057447000e+00 8.719170000e-01
914500.0 1.060698000e+00 8.813100000e-01
924000.0 1.063647000e+00 8.901820000e-01
933500.0 1.064237000e+00 9.001220000e-01
943000.0 1.067085000e+00 9.102480000e-01
952500.0 1.069097000e+00 9.173030000e-01
962000.0 1.071707000e+00 9.269500000e-01
971500.0 1.074367000e+00 9.348940000e-01
981000.0 1.077778000e+00 9.435920000e-01
990500.0 1.080574000e+00 9.534560000e-01
1000000.0 1.083721000e+00 9.614680000e-01
1090000.0 1.110577000e+00 1.041079000e+00
1180000.0 1.153955000e+00 1.117302000e+00
1270000.0 1.201987000e+00 1.186598000e+00
1360000.0 1.265283000e+00 1.250574000e+00
1450000.0 1.335777000e+00 1.299963000e+00
1540000.0 1.415076000e+00 1.334661000e+00
1630000.0 1.504064000e+00 1.355067000e+00
1720000.0 1.597913000e+00 1.355031000e+00
1810000.0 1.688248000e+00 1.331691000e+00
1900000.0 1.771520000e+00 1.289762000e+00
1990000.0 1.845097000e+00 1.227849000e+00
2080000.0 1.905748000e+00 1.151440000e+00
2170000.0 1.943259000e+00 1.066871000e+00
2260000.0 1.965257000e+00 9.763920000e-01
2350000.0 1.970263000e+00 8.874900000e-01
2440000.0 1.959234000e+00 8.015470000e-01
2530000.0 1.940331000e+00 7.185570000e-01
2620000.0 1.908903000e+00 6.513770000e-01
2710000.0 1.875584000e+00 5.874110000e-01
2800000.0 1.837228000e+00 5.322450000e-01
2890000.0 1.799214000e+00 4.821250000e-01
2980000.0 1.760608000e+00 4.406630000e-01
3070000.0 1.720914000e+00 4.024600000e-01
3160000.0 1.684496000e+00 3.704070000e-01
3250000.0 1.648019000e+00 3.415390000e-01
3340000.0 1.614033000e+00 3.143840000e-01
3430000.0 1.584492000e+00 2.912290000e-01
3520000.0 1.553016000e+00 2.711910000e-01
3610000.0 1.525002000e+00 2.513470000e-01
3700000.0 1.497823000e+00 2.310180000e-01
3790000.0 1.473859000e+00 2.137720000e-01
3880000.0 1.451687000e+00 1.954570000e-01
3970000.0 1.430893000e+00 1.825120000e-01
4060000.0 1.410089000e+00 1.657960000e-01
4150000.0 1.393204000e+00 1.501960000e-01
4240000.0 1.378011000e+00 1.366140000e-01
4330000.0 1.360231000e+00 1.227660000e-01
4420000.0 1.349350000e+00 1.086630000e-01
4510000.0 1.334883000e+00 9.494700000e-02
4600000.0 1.325837000e+00 8.250900000e-02
4690000.0 1.314014000e+00 6.957600000e-02
4780000.0 1.304912000e+00 5.555400000e-02
4870000.0 1.296057000e+00 4.404700000e-02
4960000.0 1.289465000e+00 3.059600000e-02
5050000.0 1.275017000e+00 1.691700000e-02
5140000.0 1.271676000e+00 5.970000000e-03
5230000.0 1.265815000e+00 -7.492000000e-03
5320000.0 1.261475000e+00 -1.848900000e-02
5410000.0 1.257450000e+00 -3.084200000e-02
5500000.0 1.252927000e+00 -4.163800000e-02
5590000.0 1.249475000e+00 -5.392000000e-02
5680000.0 1.247329000e+00 -6.538500000e-02
5770000.0 1.244532000e+00 -7.620500000e-02
5860000.0 1.241166000e+00 -8.703000000e-02
5950000.0 1.238319000e+00 -9.718900000e-02
6040000.0 1.235646000e+00 -1.066080000e-01
6130000.0 1.234403000e+00 -1.172530000e-01
6220000.0 1.231538000e+00 -1.264940000e-01
6310000.0 1.229447000e+00 -1.352850000e-01
6400000.0 1.228655000e+00 -1.429020000e-01
6490000.0 1.226414000e+00 -1.508190000e-01
6580000.0 1.224475000e+00 -1.584390000e-01
6670000.0 1.223857000e+00 -1.654990000e-01
6760000.0 1.221245000e+00 -1.705880000e-01
6850000.0 1.221043000e+00 -1.777130000e-01
6940000.0 1.220063000e+00 -1.816420000e-01
7030000.0 1.219549000e+00 -1.860180000e-01
7120000.0 1.219198000e+00 -1.878290000e-01
7210000.0 1.219139000e+00 -1.907900000e-01
7300000.0 1.219183000e+00 -1.920770000e-01
7390000.0 1.220053000e+00 -1.945070000e-01
7480000.0 1.219680000e+00 -1.928380000e-01
7570000.0 -2.434490000e-01 -1.258616000e+00
7660000.0 -2.417500000e-01 -1.259539000e+00
7750000.0 -2.412670000e-01 -1.258637000e+00
7840000.0 -2.408380000e-01 -1.260956000e+00
7930000.0 -2.392570000e-01 -1.260156000e+00
8020000.0 -2.386860000e-01 -1.259691000e+00
8110000.0 -2.386240000e-01 -1.261129000e+00
8200000.0 -2.574040000e-01 -1.257789000e+00
8290000.0 -2.366770000e-01 -1.262392000e+00
8380000.0 -2.598910000e-01 -1.255686000e+00
8470000.0 -2.134210000e-01 -1.268598000e+00
8560000.0 -2.563100000e-01 -1.257888000e+00
8650000.0 -2.100840000e-01 -1.270777000e+00
8740000.0 -2.562570000e-01 -1.257328000e+00
8830000.0 -2.092330000e-01 -1.271686000e+00
8920000.0 -2.546660000e-01 -1.259507000e+00
9010000.0 -2.084930000e-01 -1.272849000e+00
9100000.0 -2.296670000e-01 -1.268433000e+00
9190000.0 -2.304040000e-01 -1.269143000e+00
9280000.0 -2.284380000e-01 -1.269583000e+00
9370000.0 -2.291730000e-01 -1.270802000e+00
9460000.0 -2.284790000e-01 -1.270123000e+00
9550000.0 -2.269870000e-01 -1.273272000e+00
9640000.0 -2.264690000e-01 -1.272262000e+00
9730000.0 -2.264760000e-01 -1.273831000e+00
9820000.0 -2.265850000e-01 -1.273678000e+00
9910000.0 -2.245450000e-01 -1.274507000e+00
10000000.0 -2.254100000e-01 -1.276842000e+00
10900000.0 -2.180460000e-01 -1.285372000e+00
11800000.0 -2.122030000e-01 -1.293592000e+00
12700000.0 -2.081560000e-01 -1.304793000e+00
13600000.0 -2.015320000e-01 -1.312998000e+00
14500000.0 -1.943650000e-01 -1.325585000e+00
15400000.0 -1.893060000e-01 -1.336754000e+00
16300000.0 -1.826160000e-01 -1.349052000e+00
17200000.0 -1.756090000e-01 -1.360715000e+00
18100000.0 -1.683930000e-01 -1.372848000e+00
19000000.0 -1.622990000e-01 -1.386490000e+00
19900000.0 -1.539520000e-01 -1.397649000e+00
20800000.0 -1.447360000e-01 -1.410262000e+00
21700000.0 -1.349420000e-01 -1.423506000e+00
22600000.0 -1.273100000e-01 -1.435650000e+00
23500000.0 -1.185920000e-01 -1.450158000e+00
24400000.0 -1.079640000e-01 -1.463606000e+00
25300000.0 -9.866800000e-02 -1.476108000e+00
26200000.0 -8.805000000e-02 -1.490253000e+00
27100000.0 -7.660500000e-02 -1.505821000e+00
28000000.0 -6.349200000e-02 -1.518264000e+00
28900000.0 -5.241000000e-02 -1.532118000e+00
29800000.0 -3.861700000e-02 -1.547710000e+00
30700000.0 -2.467400000e-02 -1.564103000e+00
31600000.0 -1.117400000e-02 -1.575639000e+00
32500000.0 2.106000000e-03 -1.591795000e+00
33400000.0 1.839300000e-02 -1.606197000e+00
34300000.0 3.584800000e-02 -1.619696000e+00
35200000.0 5.170400000e-02 -1.635515000e+00
36100000.0 6.934300000e-02 -1.650247000e+00
37000000.0 8.920600000e-02 -1.664645000e+00
37900000.0 1.055970000e-01 -1.677912000e+00
38800000.0 1.260070000e-01 -1.692982000e+00
39700000.0 1.445530000e-01 -1.708721000e+00
40600000.0 1.666140000e-01 -1.722868000e+00
41500000.0 1.883200000e-01 -1.736164000e+00
42400000.0 2.114160000e-01 -1.750561000e+00
43300000.0 2.366630000e-01 -1.762993000e+00
44200000.0 2.611180000e-01 -1.777628000e+00
45100000.0 2.838780000e-01 -1.790383000e+00
46000000.0 3.118130000e-01 -1.799696000e+00
46900000.0 3.398260000e-01 -1.812087000e+00
47800000.0 3.678850000e-01 -1.820245000e+00
48700000.0 3.955350000e-01 -1.831489000e+00
49600000.0 4.277060000e-01 -1.843589000e+00
50500000.0 4.571220000e-01 -1.852314000e+00
51400000.0 4.886610000e-01 -1.860647000e+00
52300000.0 5.225020000e-01 -1.866875000e+00
53200000.0 5.538350000e-01 -1.872019000e+00
54100000.0 5.900470000e-01 -1.877705000e+00
55000000.0 6.245550000e-01 -1.881452000e+00
55900000.0 6.611580000e-01 -1.884538000e+00
56800000.0 6.981720000e-01 -1.886421000e+00
57700000.0 7.358260000e-01 -1.885227000e+00
58600000.0 7.742860000e-01 -1.883669000e+00
59500000.0 8.102490000e-01 -1.879589000e+00
60400000.0 8.473780000e-01 -1.876382000e+00
61300000.0 8.872910000e-01 -1.869798000e+00
62200000.0 9.270490000e-01 -1.862659000e+00
63100000.0 9.672060000e-01 -1.853371000e+00
64000000.0 1.005134000e+00 -1.841695000e+00
64900000.0 1.043488000e+00 -1.827329000e+00
65800000.0 1.085838000e+00 -1.811716000e+00
66700000.0 1.120056000e+00 -1.793926000e+00
67600000.0 1.160955000e+00 -1.774040000e+00
68500000.0 1.195623000e+00 -1.755234000e+00
69400000.0 1.233348000e+00 -1.732840000e+00
70300000.0 1.269522000e+00 -1.708624000e+00
71200000.0 1.302989000e+00 -1.684029000e+00
72100000.0 1.336466000e+00 -1.655111000e+00
73000000.0 1.367572000e+00 -1.628779000e+00
73900000.0 1.400490000e+00 -1.598039000e+00
74800000.0 1.428119000e+00 -1.567844000e+00
75700000.0 1.454273000e+00 -1.535752000e+00
76600000.0 1.483612000e+00 -1.501454000e+00
77500000.0 1.505352000e+00 -1.467036000e+00
78400000.0 1.528409000e+00 -1.430870000e+00
79300000.0 1.550369000e+00 -1.394222000e+00
80200000.0 1.566208000e+00 -1.359976000e+00
81100000.0 1.583935000e+00 -1.322877000e+00
82000000.0 1.600215000e+00 -1.283430000e+00
82900000.0 1.613461000e+00 -1.246777000e+00
83800000.0 1.625967000e+00 -1.208960000e+00
84700000.0 1.636478000e+00 -1.172841000e+00
85600000.0 1.644332000e+00 -1.135967000e+00
86500000.0 1.651962000e+00 -1.097998000e+00
87400000.0 1.657746000e+00 -1.062122000e+00
88300000.0 1.660624000e+00 -1.025097000e+00
89200000.0 1.663992000e+00 -9.894810000e-01
90100000.0 1.664996000e+00 -9.563960000e-01
91000000.0 1.663939000e+00 -9.218830000e-01
91900000.0 1.663376000e+00 -8.889490000e-01
92800000.0 1.659871000e+00 -8.550020000e-01
93700000.0 1.657922000e+00 -8.240060000e-01
94600000.0 1.652969000e+00 -7.919220000e-01
95500000.0 1.647099000e+00 -7.604340000e-01
96400000.0 1.640447000e+00 -7.311440000e-01
97300000.0 1.634069000e+00 -7.015080000e-01
98200000.0 1.626351000e+00 -6.736360000e-01
99100000.0 1.618416000e+00 -6.459460000e-01
100000000.0 1.609775000e+00 -6.208560000e-01
109000000.0 1.502128000e+00 -3.984450000e-01
118000000.0 1.377904000e+00 -2.436120000e-01
127000000.0 1.256386000e+00 -1.379600000e-01
136000000.0 1.147644000e+00 -6.856600000e-02
145000000.0 1.049855000e+00 -1.973200000e-02
154000000.0 1.000454000e+00 -7.480000000e-04
163000000.0 1.001948000e+00 6.900000000e-04
172000000.0 1.003077000e+00 -6.110000000e-04
181000000.0 1.004154000e+00 -3.840000000e-04
190000000.0 1.004670000e+00 -8.650000000e-04
199000000.0 1.005256000e+00 -9.650000000e-04
208000000.0 1.006333000e+00 -1.163000000e-03
217000000.0 1.006346000e+00 -1.966000000e-03
226000000.0 1.005788000e+00 -2.320000000e-03
235000000.0 1.006272000e+00 -9.340000000e-04
244000000.0 1.006313000e+00 -1.350000000e-03
253000000.0 1.005428000e+00 -3.530000000e-04
262000000.0 1.005575000e+00 -7.730000000e-04
271000000.0 1.004735000e+00 -7.930000000e-04
280000000.0 1.003288000e+00 -1.120000000e-03
289000000.0 1.003519000e+00 -1.429000000e-03
298000000.0 1.002224000e+00 -4.390000000e-04
307000000.0 1.002530000e+00 -1.724000000e-03
316000000.0 1.003951000e+00 -4.700000000e-05
325000000.0 1.004494000e+00 2.670000000e-04
334000000.0 1.005721000e+00 1.352000000e-03
343000000.0 1.005889000e+00 3.940000000e-04
352000000.0 8.891270000e-01 -5.761100000e-02
361000000.0 1.012743000e+00 3.616600000e-02
370000000.0 1.013414000e+00 3.647700000e-02
379000000.0 1.005247000e+00 8.560000000e-04
388000000.0 1.008596000e+00 1.950200000e-02
397000000.0 1.013085000e+00 3.660400000e-02
406000000.0 1.005525000e+00 -5.580000000e-04
415000000.0 1.004989000e+00 2.077000000e-03
424000000.0 1.003122000e+00 5.890000000e-04
433000000.0 1.001120000e+00 4.740000000e-04
442000000.0 1.001053000e+00 5.170000000e-04
451000000.0 1.000528000e+00 1.105000000e-03
460000000.0 1.000162000e+00 1.178000000e-03
469000000.0 1.001813000e+00 2.845000000e-03
478000000.0 1.004764000e+00 3.196000000e-03
487000000.0 1.005304000e+00 3.675000000e-03
496000000.0 1.007588000e+00 3.510000000e-03
505000000.0 1.008209000e+00 6.693000000e-03
514000000.0 1.008698000e+00 5.999000000e-03
523000000.0 1.009068000e+00 8.253000000e-03
532000000.0 1.008485000e+00 8.880000000e-03
541000000.0 1.009502000e+00 6.773000000e-03
550000000.0 1.008627000e+00 1.052300000e-02
559000000.0 1.006108000e+00 -1.187400000e-02
568000000.0 1.007532000e+00 9.653000000e-03
577000000.0 1.005121000e+00 7.830000000e-03
586000000.0 1.004614000e+00 4.133000000e-03
595000000.0 1.004293000e+00 4.400000000e-03
604000000.0 1.001694000e+00 -1.261800000e-02
613000000.0 1.007276000e+00 6.415000000e-03
622000000.0 1.010910000e+00 2.515100000e-02
631000000.0 1.010205000e+00 1.173500000e-02
640000000.0 1.013088000e+00 -1.258100000e-02
649000000.0 1.008837000e+00 9.623000000e-03
658000000.0 1.019743000e+00 3.140000000e-02
667000000.0 1.021251000e+00 5.773000000e-03
676000000.0 1.012656000e+00 1.069800000e-02
685000000.0 1.018829000e+00 8.892000000e-03
694000000.0 1.015445000e+00 9.029000000e-03
703000000.0 1.014546000e+00 1.085600000e-02
712000000.0 1.015141000e+00 5.247000000e-03
721000000.0 1.008698000e+00 3.506000000e-03
730000000.0 1.007825000e+00 1.991000000e-03
739000000.0 1.008266000e+00 5.350000000e-03
748000000.0 1.003621000e+00 3.064000000e-03
757000000.0 1.005249000e+00 2.031000000e-03
766000000.0 1.006876000e+00 -3.368000000e-03
775000000.0 1.009697000e+00 -6.320000000e-04
784000000.0 1.010417000e+00 -2.977000000e-03
793000000.0 1.012722000e+00 -4.000000000e-05
802000000.0 1.015511000e+00 -6.749000000e-03
811000000.0 1.020021000e+00 -7.931000000e-03
820000000.0 1.016347000e+00 -3.192000000e-03
829000000.0 1.019403000e+00 -8.070000000e-03
838000000.0 1.017164000e+00 -5.142000000e-03
847000000.0 1.018615000e+00 -1.432000000e-03
856000000.0 1.014380000e+00 -9.705000000e-03
865000000.0 1.013474000e+00 -8.147000000e-03
874000000.0 1.012854000e+00 -1.757000000e-03
883000000.0 1.007873000e+00 -1.302000000e-03
892000000.0 1.001489000e+00 7.110000000e-04
901000000.0 1.003340000e+00 5.740000000e-04
910000000.0 1.000552000e+00 2.710000000e-04
919000000.0 1.002939000e+00 -2.553000000e-03
928000000.0 1.004380000e+00 -5.729000000e-03
937000000.0 1.004320000e+00 -3.069000000e-03
946000000.0 1.004360000e+00 -4.704000000e-03
955000000.0 1.004042000e+00 -8.256000000e-03
964000000.0 1.005890000e+00 -6.802000000e-03
973000000.0 1.003846000e+00 -8.810000000e-03
982000000.0 1.007266000e+00 -9.167000000e-03
991000000.0 1.006008000e+00 -6.472000000e-03
1000000000.0 1.002564000e+00 -6.920000000e-03
1004500000.0 1.004538000e+00 -8.139000000e-03
1009000000.0 1.004340000e+00 -4.318000000e-03
1013500000.0 1.004777000e+00 -9.279000000e-03
1018000000.0 1.002199000e+00 -2.861000000e-03
1022500000.0 1.002461000e+00 -4.611000000e-03
1027000000.0 1.002793000e+00 -4.588000000e-03
1031500000.0 1.000800000e+00 1.557800000e-02
1036000000.0 1.000625000e+00 -3.871000000e-03
1040500000.0 1.002612000e+00 1.637000000e-03
1045000000.0 1.001065000e+00 -3.138000000e-03
1049500000.0 9.982310000e-01 1.665000000e-03
1054000000.0 1.001683000e+00 2.340000000e-04
1058500000.0 1.002141000e+00 -6.913000000e-03
1063000000.0 1.003277000e+00 3.812000000e-03
1067500000.0 9.996760000e-01 -4.960000000e-04
1072000000.0 9.992920000e-01 1.436000000e-03
1076500000.0 9.995270000e-01 -8.306000000e-03
1081000000.0 1.006699000e+00 2.400000000e-05
1085500000.0 1.004582000e+00 6.030000000e-03
1090000000.0 1.005398000e+00 -2.489000000e-03
1094500000.0 1.000181000e+00 6.380000000e-04
1099000000.0 1.002553000e+00 -6.844000000e-03
1103500000.0 1.002707000e+00 -8.130000000e-04
1108000000.0 1.001231000e+00 -8.227000000e-03
1112500000.0 1.002713000e+00 -3.713000000e-03
1117000000.0 9.989960000e-01 -2.487000000e-03
1121500000.0 1.007504000e+00 -1.995000000e-03
1126000000.0 1.007158000e+00 -6.703000000e-03
1130500000.0 9.942470000e-01 5.315000000e-03
1135000000.0 1.010540000e+00 3.177500000e-02
1139500000.0 1.004290000e+00 -2.606000000e-03
1144000000.0 1.006536000e+00 3.591000000e-03
1148500000.0 1.012351000e+00 2.297700000e-02
1153000000.0 1.000355000e+00 -6.798000000e-03
1157500000.0 1.008477000e+00 9.541000000e-03
1162000000.0 1.005082000e+00 -6.773000000e-03
1166500000.0 9.997530000e-01 -3.876200000e-02
1171000000.0 1.003590000e+00 -4.428000000e-03
1175500000.0 1.002584000e+00 -1.531000000e-03
1180000000.0 1.003267000e+00 -3.656000000e-03
1184500000.0 1.001008000e+00 -9.945000000e-03
1189000000.0 1.004574000e+00 2.193000000e-03
1193500000.0 1.006856000e+00 -6.941000000e-03
1198000000.0 1.001353000e+00 -3.724000000e-03
1202500000.0 1.006209000e+00 -1.837000000e-03
1207000000.0 1.003471000e+00 -3.137000000e-03
1211500000.0 1.005955000e+00 -7.079000000e-03
1216000000.0 1.005867000e+00 -7.260000000e-04
1220500000.0 1.008057000e+00 -6.594000000e-03
1225000000.0 1.004939000e+00 -3.431000000e-03
1229500000.0 1.008974000e+00 9.870000000e-04
1234000000.0 1.003802000e+00 -1.124000000e-03
1238500000.0 1.000031000e+00 -4.358000000e-03
1243000000.0 1.004694000e+00 -5.480000000e-04
1247500000.0 1.002688000e+00 -3.147000000e-03
1252000000.0 1.005276000e+00 -1.044000000e-02
1256500000.0 1.002169000e+00 -2.947000000e-03
1261000000.0 1.006349000e+00 3.077000000e-03
1265500000.0 1.012175000e+00 -6.010000000e-04
1270000000.0 1.005187000e+00 -4.127000000e-03
1274500000.0 9.989760000e-01 3.648000000e-03
1279000000.0 1.004704000e+00 1.503000000e-03
1283500000.0 1.001968000e+00 -7.371000000e-03
1288000000.0 1.004477000e+00 -2.620000000e-03
1292500000.0 1.005718000e+00 8.341000000e-03
1297000000.0 1.006059000e+00 1.413000000e-03
1301500000.0 1.000793000e+00 -1.605000000e-03
1306000000.0 1.006456000e+00 5.430000000e-04
1310500000.0 1.005510000e+00 -3.911000000e-03
1315000000.0 1.007645000e+00 -6.093000000e-03
1319500000.0 1.002953000e+00 4.099000000e-03
1324000000.0 1.005732000e+00 1.893000000e-03
1328500000.0 1.003150000e+00 1.600800000e-02
1333000000.0 1.007699000e+00 4.716000000e-03
1337500000.0 1.008136000e+00 -2.616000000e-03
1342000000.0 1.002700000e+00 5.799000000e-03
1346500000.0 1.008454000e+00 -2.277000000e-03
1351000000.0 9.999630000e-01 -1.290000000e-03
1355500000.0 1.001746000e+00 1.220000000e-03
1360000000.0 1.001212000e+00 1.774000000e-03
1364500000.0 1.004866000e+00 5.340000000e-03
1369000000.0 1.004306000e+00 1.991300000e-02
1373500000.0 1.003844000e+00 1.067800000e-02
1378000000.0 9.999900000e-01 7.233000000e-03
1382500000.0 1.002744000e+00 -6.700000000e-05
1387000000.0 1.004821000e+00 1.532400000e-02
1391500000.0 1.008466000e+00 9.328000000e-03
1396000000.0 1.003067000e+00 2.242700000e-02
1400500000.0 1.007432000e+00 7.822000000e-03
1405000000.0 1.006377000e+00 1.430700000e-02
1409500000.0 1.000837000e+00 1.132900000e-02
1414000000.0 1.001564000e+00 6.109000000e-03
1418500000.0 1.005538000e+00 7.411000000e-03
1423000000.0 1.000937000e+00 1.764900000e-02
1427500000.0 1.011348000e+00 1.990200000e-02
1432000000.0 1.002012000e+00 1.825700000e-02
1436500000.0 1.001031000e+00 9.157000000e-03
1441000000.0 9.980620000e-01 1.243800000e-02
1445500000.0 1.002360000e+00 1.226000000e-02
1450000000.0 1.003078000e+00 1.361800000e-02
