! piloto_saltos / abierto_continuo / r06
# HZ S RI R 50
50000.0 1.006249000e+00 -7.081400000e-02
59500.0 1.003135000e+00 -5.552500000e-02
69000.0 1.004590000e+00 -4.383000000e-02
78500.0 1.002922000e+00 -2.915500000e-02
88000.0 1.001080000e+00 -1.685800000e-02
97500.0 1.000910000e+00 -4.340000000e-03
107000.0 1.000194000e+00 7.845000000e-03
116500.0 1.000752000e+00 2.118500000e-02
126000.0 1.000943000e+00 3.452500000e-02
135500.0 1.001133000e+00 4.399300000e-02
145000.0 1.001402000e+00 5.734400000e-02
154500.0 1.000792000e+00 6.861900000e-02
164000.0 1.002430000e+00 8.135700000e-02
173500.0 1.003113000e+00 9.337100000e-02
183000.0 1.002357000e+00 1.050570000e-01
192500.0 1.003903000e+00 1.164290000e-01
202000.0 1.003726000e+00 1.283500000e-01
211500.0 1.003457000e+00 1.403910000e-01
221000.0 1.004415000e+00 1.513310000e-01
230500.0 1.004587000e+00 1.620520000e-01
240000.0 1.003943000e+00 1.747220000e-01
249500.0 1.004905000e+00 1.854380000e-01
259000.0 1.005767000e+00 1.969970000e-01
268500.0 1.005606000e+00 2.079820000e-01
278000.0 1.005749000e+00 2.192100000e-01
287500.0 1.006452000e+00 2.292450000e-01
297000.0 1.005989000e+00 2.411180000e-01
306500.0 1.007307000e+00 2.522520000e-01
316000.0 1.007076000e+00 2.630420000e-01
325500.0 1.006393000e+00 2.736060000e-01
335000.0 1.006171000e+00 2.845020000e-01
344500.0 1.006918000e+00 2.950550000e-01
354000.0 1.007030000e+00 3.058430000e-01
363500.0 1.007038000e+00 3.165770000e-01
373000.0 1.007209000e+00 3.266800000e-01
382500.0 1.007800000e+00 3.370610000e-01
392000.0 1.008566000e+00 3.479780000e-01
401500.0 1.009004000e+00 3.589250000e-01
411000.0 1.008823000e+00 3.686260000e-01
420500.0 1.009296000e+00 3.794800000e-01
430000.0 1.009873000e+00 3.900350000e-01
439500.0 1.009317000e+00 3.998160000e-01
449000.0 1.009818000e+00 4.096790000e-01
458500.0 1.010561000e+00 4.212790000e-01
468000.0 1.010912000e+00 4.302280000e-01
477500.0 1.011047000e+00 4.411290000e-01
487000.0 1.011242000e+00 4.507630000e-01
496500.0 1.012056000e+00 4.606880000e-01
506000.0 1.012236000e+00 4.707920000e-01
515500.0 1.012867000e+00 4.806870000e-01
525000.0 1.012303000e+00 4.906760000e-01
534500.0 1.012907000e+00 5.003060000e-01
544000.0 1.013885000e+00 5.104890000e-01
553500.0 1.013559000e+00 5.203610000e-01
563000.0 1.013905000e+00 5.305390000e-01
572500.0 1.013615000e+00 5.399480000e-01
582000.0 1.015556000e+00 5.494280000e-01
591500.0 1.015531000e+00 5.588480000e-01
601000.0 1.016079000e+00 5.691530000e-01
610500.0 1.016182000e+00 5.788350000e-01
620000.0 1.017566000e+00 5.884190000e-01
629500.0 1.018660000e+00 5.977550000e-01
639000.0 1.018872000e+00 6.069190000e-01
648500.0 1.019799000e+00 6.184650000e-01
658000.0 1.019368000e+00 6.261300000e-01
667500.0 1.020382000e+00 6.359520000e-01
677000.0 1.021704000e+00 6.463610000e-01
686500.0 1.022692000e+00 6.559070000e-01
696000.0 1.023937000e+00 6.654410000e-01
705500.0 1.023751000e+00 6.749580000e-01
715000.0 1.025148000e+00 6.839010000e-01
724500.0 1.026080000e+00 6.946560000e-01
734000.0 1.026853000e+00 7.031660000e-01
743500.0 1.028193000e+00 7.118690000e-01
753000.0 1.028558000e+00 7.206360000e-01
762500.0 1.029914000e+00 7.302830000e-01
772000.0 1.031915000e+00 7.391150000e-01
781500.0 1.031050000e+00 7.491180000e-01
791000.0 1.034411000e+00 7.590960000e-01
800500.0 1.035282000e+00 7.677470000e-01
810000.0 1.036821000e+00 7.762350000e-01
819500.0 1.038870000e+00 7.872430000e-01
829000.0 1.040705000e+00 7.951080000e-01
838500.0 1.040637000e+00 8.044280000e-01
848000.0 1.044149000e+00 8.144790000e-01
857500.0 1.045157000e+00 8.223200000e-01
867000.0 1.046142000e+00 8.318070000e-01
876500.0 1.048543000e+00 8.407000000e-01
886000.0 1.049578000e+00 8.507420000e-01
895500.0 1.052582000e+00 8.592620000e-01
905000.0 1.053766000e+00 8.667040000e-01
914500.0 1.057167000e+00 8.768740000e-01
924000.0 1.057998000e+00 8.856370000e-01
933500.0 1.060313000e+00 8.949050000e-01
943000.0 1.063480000e+00 9.029580000e-01
952500.0 1.064078000e+00 9.126600000e-01
962000.0 1.067607000e+00 9.216580000e-01
971500.0 1.071236000e+00 9.302610000e-01
981000.0 1.072144000e+00 9.371960000e-01
990500.0 1.075419000e+00 9.464400000e-01
1000000.0 1.078913000e+00 9.558190000e-01
1090000.0 1.106741000e+00 1.035793000e+00
1180000.0 1.145314000e+00 1.112104000e+00
1270000.0 1.193339000e+00 1.180688000e+00
1360000.0 1.254820000e+00 1.241185000e+00
1450000.0 1.324782000e+00 1.295896000e+00
1540000.0 1.402210000e+00 1.331365000e+00
1630000.0 1.488760000e+00 1.354869000e+00
1720000.0 1.578875000e+00 1.353345000e+00
1810000.0 1.671529000e+00 1.338834000e+00
1900000.0 1.757976000e+00 1.298743000e+00
1990000.0 1.828753000e+00 1.238798000e+00
2080000.0 1.890439000e+00 1.166987000e+00
2170000.0 1.933297000e+00 1.081412000e+00
2260000.0 1.958487000e+00 9.912860000e-01
2350000.0 1.966812000e+00 9.026720000e-01
2440000.0 1.960017000e+00 8.161000000e-01
2530000.0 1.940844000e+00 7.368390000e-01
2620000.0 1.915597000e+00 6.644270000e-01
2710000.0 1.882434000e+00 5.975290000e-01
2800000.0 1.734796000e+00 3.510150000e-01
2890000.0 1.804847000e+00 4.904240000e-01
2980000.0 1.766917000e+00 4.485390000e-01
3070000.0 1.726514000e+00 4.092420000e-01
3160000.0 1.690536000e+00 3.744870000e-01
3250000.0 1.655407000e+00 3.443520000e-01
3340000.0 1.620016000e+00 3.201100000e-01
3430000.0 1.588372000e+00 2.942680000e-01
3520000.0 1.558329000e+00 2.726200000e-01
3610000.0 1.530928000e+00 2.516480000e-01
3700000.0 1.503070000e+00 2.334530000e-01
3790000.0 1.478697000e+00 2.141820000e-01
3880000.0 1.454912000e+00 1.961960000e-01
3970000.0 1.433954000e+00 1.807710000e-01
4060000.0 1.414916000e+00 1.660840000e-01
4150000.0 1.395997000e+00 1.500460000e-01
4240000.0 1.379984000e+00 1.375060000e-01
4330000.0 1.365425000e+00 1.224230000e-01
4420000.0 1.350292000e+00 1.077430000e-01
4510000.0 1.338555000e+00 9.514400000e-02
4600000.0 1.326634000e+00 8.064200000e-02
4690000.0 1.317057000e+00 6.835100000e-02
4780000.0 1.307157000e+00 5.559800000e-02
4870000.0 1.298653000e+00 4.218900000e-02
4960000.0 1.290102000e+00 3.036900000e-02
5050000.0 1.276503000e+00 1.753400000e-02
5140000.0 1.271591000e+00 4.669000000e-03
5230000.0 1.267028000e+00 -8.110000000e-03
5320000.0 1.262839000e+00 -2.007500000e-02
5410000.0 1.258338000e+00 -3.092700000e-02
5500000.0 1.255582000e+00 -4.286100000e-02
5590000.0 1.251637000e+00 -5.439300000e-02
5680000.0 1.247064000e+00 -6.571400000e-02
5770000.0 1.245373000e+00 -7.700800000e-02
5860000.0 1.242399000e+00 -8.792800000e-02
5950000.0 1.239915000e+00 -9.762500000e-02
6040000.0 1.237022000e+00 -1.079680000e-01
6130000.0 1.234827000e+00 -1.178020000e-01
6220000.0 1.232670000e+00 -1.259650000e-01
6310000.0 1.230106000e+00 -1.352490000e-01
6400000.0 1.228114000e+00 -1.451990000e-01
6490000.0 1.226719000e+00 -1.520670000e-01
6580000.0 1.224849000e+00 -1.589500000e-01
6670000.0 1.224239000e+00 -1.659060000e-01
6760000.0 1.222247000e+00 -1.714910000e-01
6850000.0 1.222635000e+00 -1.776510000e-01
6940000.0 1.220565000e+00 -1.817880000e-01
7030000.0 1.220225000e+00 -1.866260000e-01
7120000.0 1.219411000e+00 -1.888950000e-01
7210000.0 1.220862000e+00 -1.916500000e-01
7300000.0 1.218754000e+00 -1.936510000e-01
7390000.0 1.219659000e+00 -1.927380000e-01
7480000.0 1.219030000e+00 -1.939650000e-01
7570000.0 -2.424450000e-01 -1.258496000e+00
7660000.0 -2.420400000e-01 -1.259969000e+00
7750000.0 -2.425450000e-01 -1.259545000e+00
7840000.0 -2.411200000e-01 -1.260601000e+00
7930000.0 -2.396410000e-01 -1.260263000e+00
8020000.0 -2.389300000e-01 -1.260455000e+00
8110000.0 -2.389720000e-01 -1.262054000e+00
8200000.0 -2.373710000e-01 -1.262161000e+00
8290000.0 -2.375950000e-01 -1.263345000e+00
8380000.0 -2.366870000e-01 -1.263474000e+00
8470000.0 -2.350910000e-01 -1.263983000e+00
8560000.0 -2.349180000e-01 -1.264448000e+00
8650000.0 -2.351460000e-01 -1.264570000e+00
8740000.0 -2.333700000e-01 -1.265523000e+00
8830000.0 -2.331720000e-01 -1.265822000e+00
8920000.0 -2.321470000e-01 -1.266605000e+00
9010000.0 -2.322130000e-01 -1.267310000e+00
9100000.0 -2.311890000e-01 -1.268064000e+00
9190000.0 -2.295580000e-01 -1.269567000e+00
9280000.0 -2.308050000e-01 -1.268614000e+00
9370000.0 -2.286570000e-01 -1.269606000e+00
9460000.0 -2.284560000e-01 -1.271370000e+00
9550000.0 -2.271860000e-01 -1.271252000e+00
9640000.0 -2.276600000e-01 -1.272684000e+00
9730000.0 -2.265730000e-01 -1.272644000e+00
9820000.0 -2.269230000e-01 -1.274031000e+00
9910000.0 -2.454930000e-01 -1.270673000e+00
10000000.0 -2.252590000e-01 -1.275926000e+00
10900000.0 -2.183300000e-01 -1.284472000e+00
11800000.0 -2.133190000e-01 -1.294345000e+00
12700000.0 -2.071990000e-01 -1.303060000e+00
13600000.0 -2.013250000e-01 -1.315014000e+00
14500000.0 -1.943460000e-01 -1.325100000e+00
15400000.0 -1.890310000e-01 -1.337383000e+00
16300000.0 -1.814230000e-01 -1.349442000e+00
17200000.0 -1.759700000e-01 -1.361028000e+00
18100000.0 -1.688230000e-01 -1.371641000e+00
19000000.0 -1.606970000e-01 -1.384680000e+00
19900000.0 -1.535040000e-01 -1.396210000e+00
20800000.0 -1.452390000e-01 -1.409804000e+00
21700000.0 -1.358880000e-01 -1.423168000e+00
22600000.0 -1.283760000e-01 -1.435787000e+00
23500000.0 -1.185000000e-01 -1.449169000e+00
24400000.0 -1.089240000e-01 -1.463342000e+00
25300000.0 -9.705500000e-02 -1.477540000e+00
26200000.0 -8.820400000e-02 -1.489742000e+00
27100000.0 -7.548900000e-02 -1.503600000e+00
28000000.0 -6.451200000e-02 -1.517888000e+00
28900000.0 -5.210800000e-02 -1.531604000e+00
29800000.0 -3.987400000e-02 -1.547565000e+00
30700000.0 -2.557200000e-02 -1.562686000e+00
31600000.0 -1.189300000e-02 -1.577603000e+00
32500000.0 4.084000000e-03 -1.591442000e+00
33400000.0 1.923000000e-02 -1.606250000e+00
34300000.0 3.479200000e-02 -1.620234000e+00
35200000.0 5.168200000e-02 -1.635449000e+00
36100000.0 6.847300000e-02 -1.650265000e+00
37000000.0 8.664700000e-02 -1.664728000e+00
37900000.0 1.049370000e-01 -1.679924000e+00
38800000.0 1.248530000e-01 -1.694902000e+00
39700000.0 1.460160000e-01 -1.708599000e+00
40600000.0 1.654410000e-01 -1.722807000e+00
41500000.0 1.875100000e-01 -1.735387000e+00
42400000.0 2.125320000e-01 -1.749404000e+00
43300000.0 2.345430000e-01 -1.763108000e+00
44200000.0 2.600690000e-01 -1.776357000e+00
45100000.0 2.860960000e-01 -1.787996000e+00
46000000.0 3.114670000e-01 -1.801366000e+00
46900000.0 3.390210000e-01 -1.812150000e+00
47800000.0 3.672820000e-01 -1.823139000e+00
48700000.0 3.975650000e-01 -1.832854000e+00
49600000.0 4.267630000e-01 -1.842531000e+00
50500000.0 4.562830000e-01 -1.851373000e+00
51400000.0 4.901600000e-01 -1.859357000e+00
52300000.0 5.213630000e-01 -1.868763000e+00
53200000.0 5.559980000e-01 -1.873327000e+00
54100000.0 5.898540000e-01 -1.879197000e+00
55000000.0 6.255730000e-01 -1.882139000e+00
55900000.0 6.605720000e-01 -1.883982000e+00
56800000.0 6.968770000e-01 -1.886074000e+00
57700000.0 7.339770000e-01 -1.886503000e+00
58600000.0 7.726370000e-01 -1.885480000e+00
59500000.0 8.094000000e-01 -1.881336000e+00
60400000.0 8.507500000e-01 -1.877587000e+00
61300000.0 8.869890000e-01 -1.872191000e+00
62200000.0 9.262750000e-01 -1.862292000e+00
63100000.0 9.677790000e-01 -1.853158000e+00
64000000.0 1.004522000e+00 -1.841633000e+00
64900000.0 1.045231000e+00 -1.827336000e+00
65800000.0 1.082505000e+00 -1.812434000e+00
66700000.0 1.123934000e+00 -1.794940000e+00
67600000.0 1.160407000e+00 -1.776933000e+00
68500000.0 1.195928000e+00 -1.757655000e+00
69400000.0 1.235050000e+00 -1.735057000e+00
70300000.0 1.269832000e+00 -1.710868000e+00
71200000.0 1.304828000e+00 -1.684213000e+00
72100000.0 1.336212000e+00 -1.656865000e+00
73000000.0 1.367450000e+00 -1.626532000e+00
73900000.0 1.399020000e+00 -1.598837000e+00
74800000.0 1.427723000e+00 -1.565863000e+00
75700000.0 1.455147000e+00 -1.535107000e+00
76600000.0 1.481236000e+00 -1.501336000e+00
77500000.0 1.506959000e+00 -1.468705000e+00
78400000.0 1.528652000e+00 -1.432269000e+00
79300000.0 1.547031000e+00 -1.395927000e+00
80200000.0 1.565320000e+00 -1.359380000e+00
81100000.0 1.582950000e+00 -1.323093000e+00
82000000.0 1.598862000e+00 -1.285879000e+00
82900000.0 1.611798000e+00 -1.247970000e+00
83800000.0 1.627514000e+00 -1.210786000e+00
84700000.0 1.636139000e+00 -1.172718000e+00
85600000.0 1.643283000e+00 -1.136641000e+00
86500000.0 1.651063000e+00 -1.097901000e+00
87400000.0 1.655753000e+00 -1.063127000e+00
88300000.0 1.659510000e+00 -1.025904000e+00
89200000.0 1.663900000e+00 -9.908980000e-01
90100000.0 1.666106000e+00 -9.558670000e-01
91000000.0 1.662580000e+00 -9.222300000e-01
91900000.0 1.662548000e+00 -8.895710000e-01
92800000.0 1.660686000e+00 -8.569070000e-01
93700000.0 1.657158000e+00 -8.229870000e-01
94600000.0 1.651718000e+00 -7.920740000e-01
95500000.0 1.646214000e+00 -7.606020000e-01
96400000.0 1.640341000e+00 -7.321020000e-01
97300000.0 1.635163000e+00 -7.022370000e-01
98200000.0 1.627120000e+00 -6.736210000e-01
99100000.0 1.620867000e+00 -6.455270000e-01
100000000.0 1.610782000e+00 -6.195890000e-01
109000000.0 1.501271000e+00 -3.992970000e-01
118000000.0 1.376654000e+00 -2.448320000e-01
127000000.0 1.257910000e+00 -1.376360000e-01
136000000.0 1.148221000e+00 -6.828300000e-02
145000000.0 1.049788000e+00 -1.960000000e-02
154000000.0 1.000933000e+00 4.910000000e-04
163000000.0 1.001516000e+00 1.450000000e-04
172000000.0 1.002734000e+00 -1.786000000e-03
181000000.0 1.003581000e+00 -1.116000000e-03
190000000.0 1.003785000e+00 -1.680000000e-03
199000000.0 1.004860000e+00 -1.327000000e-03
208000000.0 1.004775000e+00 -1.650000000e-03
217000000.0 1.005682000e+00 -1.415000000e-03
226000000.0 1.006349000e+00 -2.327000000e-03
235000000.0 1.006380000e+00 -1.526000000e-03
244000000.0 1.005830000e+00 -1.241000000e-03
253000000.0 1.005562000e+00 -2.104000000e-03
262000000.0 1.005394000e+00 -7.120000000e-04
271000000.0 1.005485000e+00 -1.140000000e-04
280000000.0 1.004409000e+00 -9.710000000e-04
289000000.0 1.002551000e+00 -1.283000000e-03
298000000.0 1.000423000e+00 -3.760000000e-04
307000000.0 1.002222000e+00 3.730000000e-04
316000000.0 1.003924000e+00 7.780000000e-04
325000000.0 1.005030000e+00 -7.100000000e-04
334000000.0 1.006834000e+00 4.400000000e-04
343000000.0 1.005816000e+00 -3.460000000e-04
352000000.0 9.968160000e-01 -3.705000000e-02
361000000.0 1.008879000e+00 1.793700000e-02
370000000.0 9.984420000e-01 -3.447600000e-02
379000000.0 1.013458000e+00 3.752900000e-02
388000000.0 9.975550000e-01 -3.351800000e-02
397000000.0 1.006200000e+00 1.585000000e-03
406000000.0 1.004093000e+00 9.000000000e-04
415000000.0 1.004457000e+00 2.070000000e-02
424000000.0 1.003296000e+00 1.653000000e-03
433000000.0 1.002732000e+00 3.512000000e-03
442000000.0 1.000922000e+00 4.834000000e-03
451000000.0 9.981990000e-01 6.640000000e-04
460000000.0 1.000091000e+00 2.133000000e-03
469000000.0 1.002730000e+00 1.331000000e-03
478000000.0 1.004204000e+00 5.327000000e-03
487000000.0 1.006123000e+00 3.768000000e-03
496000000.0 1.006693000e+00 4.735000000e-03
505000000.0 1.006785000e+00 6.767000000e-03
514000000.0 1.007706000e+00 9.272000000e-03
523000000.0 1.008303000e+00 6.463000000e-03
532000000.0 1.007758000e+00 6.742000000e-03
541000000.0 1.009865000e+00 8.292000000e-03
550000000.0 1.008392000e+00 1.020900000e-02
559000000.0 1.008708000e+00 7.016000000e-03
568000000.0 1.008035000e+00 1.148600000e-02
577000000.0 1.005719000e+00 5.562000000e-03
586000000.0 1.005394000e+00 5.643000000e-03
595000000.0 1.005053000e+00 7.299000000e-03
604000000.0 1.001488000e+00 6.553000000e-03
613000000.0 1.004876000e+00 5.638000000e-03
622000000.0 1.008555000e+00 7.351000000e-03
631000000.0 1.012925000e+00 8.334000000e-03
640000000.0 1.011304000e+00 7.124000000e-03
649000000.0 1.013474000e+00 6.295000000e-03
658000000.0 1.018715000e+00 1.041500000e-02
667000000.0 1.016432000e+00 9.521000000e-03
676000000.0 1.016110000e+00 1.159700000e-02
685000000.0 1.011890000e+00 9.546000000e-03
694000000.0 1.015718000e+00 5.960000000e-03
703000000.0 1.013391000e+00 1.929000000e-03
712000000.0 1.012261000e+00 4.393000000e-03
721000000.0 1.009914000e+00 6.047000000e-03
730000000.0 1.008686000e+00 6.926000000e-03
739000000.0 1.005638000e+00 2.204100000e-02
748000000.0 1.003072000e+00 1.588000000e-03
757000000.0 1.001912000e+00 -1.203000000e-03
766000000.0 1.007514000e+00 -3.272000000e-03
775000000.0 1.011253000e+00 -9.360000000e-04
784000000.0 1.010882000e+00 -6.739000000e-03
793000000.0 1.016177000e+00 -5.341000000e-03
802000000.0 1.014860000e+00 -6.825000000e-03
811000000.0 1.017331000e+00 -7.119000000e-03
820000000.0 1.017099000e+00 -7.944000000e-03
829000000.0 1.019690000e+00 -6.529000000e-03
838000000.0 1.018148000e+00 -1.155700000e-02
847000000.0 1.014596000e+00 -1.079000000e-03
856000000.0 1.013841000e+00 -2.608000000e-03
865000000.0 1.010711000e+00 -6.725000000e-03
874000000.0 1.009996000e+00 -3.057000000e-03
883000000.0 1.011641000e+00 -4.174000000e-03
892000000.0 1.001173000e+00 1.900000000e-05
901000000.0 9.977630000e-01 -9.830000000e-04
910000000.0 1.001717000e+00 1.333000000e-03
919000000.0 1.001404000e+00 -4.676000000e-03
928000000.0 1.004050000e+00 -6.602000000e-03
937000000.0 1.002260000e+00 -1.033500000e-02
946000000.0 1.005097000e+00 -7.713000000e-03
955000000.0 1.003512000e+00 -9.297000000e-03
964000000.0 1.007038000e+00 -1.339500000e-02
973000000.0 1.004622000e+00 -8.700000000e-03
982000000.0 1.002016000e+00 -6.310000000e-03
991000000.0 1.004847000e+00 -1.784000000e-03
1000000000.0 1.003968000e+00 -6.400000000e-03
1004500000.0 1.004204000e+00 -2.261500000e-02
1009000000.0 1.003716000e+00 -1.236300000e-02
1013500000.0 1.004916000e+00 1.461900000e-02
1018000000.0 1.004888000e+00 -3.626000000e-03
1022500000.0 1.003815000e+00 -2.452500000e-02
1027000000.0 1.001450000e+00 -8.620000000e-03
1031500000.0 1.003184000e+00 1.455600000e-02
1036000000.0 1.000613000e+00 6.810000000e-04
1040500000.0 9.981190000e-01 -4.011000000e-03
1045000000.0 1.000134000e+00 -3.852000000e-03
1049500000.0 1.000096000e+00 2.417000000e-03
1054000000.0 1.001717000e+00 -3.476000000e-03
1058500000.0 1.003368000e+00 3.890000000e-04
1063000000.0 1.000531000e+00 -5.760000000e-04
1067500000.0 1.000730000e+00 -8.052000000e-03
1072000000.0 1.000383000e+00 1.097000000e-03
1076500000.0 1.001039000e+00 -8.496000000e-03
1081000000.0 1.000629000e+00 -7.420000000e-04
1085500000.0 9.988870000e-01 -8.180000000e-03
1090000000.0 1.002549000e+00 -3.744000000e-03
1094500000.0 1.001852000e+00 2.258000000e-03
1099000000.0 1.000356000e+00 -4.917000000e-03
1103500000.0 1.002408000e+00 2.720000000e-03
1108000000.0 1.001193000e+00 -2.861000000e-03
1112500000.0 1.006567000e+00 2.403000000e-03
1117000000.0 1.001318000e+00 -2.280000000e-03
1121500000.0 1.008281000e+00 -4.584000000e-03
1126000000.0 1.007218000e+00 -8.655000000e-03
1130500000.0 1.007882000e+00 1.407000000e-03
1135000000.0 1.005140000e+00 -2.910000000e-04
1139500000.0 9.997570000e-01 -4.087000000e-02
1144000000.0 1.002357000e+00 -6.211000000e-03
1148500000.0 1.000429000e+00 -3.327000000e-03
1153000000.0 1.001008000e+00 -7.839000000e-03
1157500000.0 1.015839000e+00 6.763000000e-02
1162000000.0 1.006919000e+00 -2.687000000e-03
1166500000.0 1.004571000e+00 -5.652000000e-03
1171000000.0 1.000637000e+00 -4.483000000e-03
1175500000.0 1.002167000e+00 -4.664000000e-03
1180000000.0 1.004614000e+00 -8.173000000e-03
1184500000.0 1.000478000e+00 -5.636000000e-03
1189000000.0 1.009178000e+00 -1.226300000e-02
1193500000.0 1.007271000e+00 -5.836000000e-03
1198000000.0 1.005069000e+00 -1.354000000e-03
1202500000.0 1.004334000e+00 -6.365000000e-03
1207000000.0 1.005709000e+00 1.196000000e-03
1211500000.0 1.001834000e+00 -2.628000000e-03
1216000000.0 9.999990000e-01 -2.246000000e-03
1220500000.0 1.001102000e+00 -5.170000000e-03
1225000000.0 1.008541000e+00 -2.513000000e-03
1229500000.0 1.003184000e+00 -3.233000000e-03
1234000000.0 1.005309000e+00 -1.409000000e-03
1238500000.0 1.008188000e+00 -2.940000000e-03
1243000000.0 1.006529000e+00 8.780000000e-04
1247500000.0 1.004236000e+00 -7.050000000e-04
1252000000.0 1.002697000e+00 -5.732000000e-03
1256500000.0 1.000605000e+00 -4.243000000e-03
1261000000.0 9.972780000e-01 -2.650000000e-04
1265500000.0 1.007350000e+00 -4.561000000e-03
1270000000.0 1.000826000e+00 2.114000000e-03
1274500000.0 1.004953000e+00 4.890000000e-04
1279000000.0 1.004490000e+00 1.478000000e-03
1283500000.0 1.004917000e+00 -4.440000000e-04
1288000000.0 1.002205000e+00 2.439000000e-03
1292500000.0 9.990760000e-01 -4.475000000e-03
1297000000.0 1.009692000e+00 -3.750000000e-04
1301500000.0 9.928130000e-01 -4.962000000e-02
1306000000.0 1.003842000e+00 -3.065000000e-03
1310500000.0 9.999580000e-01 1.877000000e-03
1315000000.0 1.005979000e+00 -1.003000000e-02
1319500000.0 1.006108000e+00 -4.955000000e-03
1324000000.0 1.005247000e+00 3.833000000e-03
1328500000.0 1.006827000e+00 -2.108000000e-03
1333000000.0 1.000406000e+00 -4.179000000e-03
1337500000.0 1.006240000e+00 -4.303000000e-03
1342000000.0 1.001775000e+00 -3.716000000e-03
1346500000.0 1.008728000e+00 1.474000000e-03
1351000000.0 1.001142000e+00 1.379000000e-03
1355500000.0 1.001865000e+00 2.074000000e-03
1360000000.0 1.002960000e+00 -1.356000000e-03
1364500000.0 1.008826000e+00 8.305000000e-03
1369000000.0 9.990770000e-01 9.069000000e-03
1373500000.0 1.006320000e+00 6.809000000e-03
1378000000.0 1.005819000e+00 8.175000000e-03
1382500000.0 1.001042000e+00 7.232000000e-03
1387000000.0 1.004829000e+00 1.017600000e-02
1391500000.0 9.987210000e-01 7.642000000e-03
1396000000.0 1.004140000e+00 1.489200000e-02
1400500000.0 9.990880000e-01 1.144100000e-02
1405000000.0 9.993640000e-01 1.647000000e-02
1409500000.0 1.003865000e+00 1.668400000e-02
1414000000.0 9.991650000e-01 1.201400000e-02
1418500000.0 1.007992000e+00 1.936000000e-02
1423000000.0 1.008966000e+00 1.745100000e-02
1427500000.0 1.007148000e+00 6.994000000e-03
1432000000.0 1.002307000e+00 5.179000000e-03
1436500000.0 1.001085000e+00 7.461000000e-03
1441000000.0 1.002327000e+00 1.158200000e-02
1445500000.0 1.003829000e+00 1.124800000e-02
1450000000.0 1.001666000e+00 8.323000000e-03
