! piloto_saltos / abierto_51puntos / r03
# HZ S RI R 50
50000.0 1.006277000e+00 -6.967000000e-02
69000.0 1.002219000e+00 -4.123700000e-02
88000.0 1.000970000e+00 -1.566900000e-02
107000.0 1.000087000e+00 8.347000000e-03
126000.0 1.001760000e+00 3.441500000e-02
145000.0 1.001707000e+00 5.853200000e-02
164000.0 1.002828000e+00 8.165700000e-02
183000.0 1.003026000e+00 1.053750000e-01
202000.0 1.003225000e+00 1.294860000e-01
221000.0 1.003881000e+00 1.523010000e-01
240000.0 1.004684000e+00 1.756910000e-01
259000.0 1.005023000e+00 1.982190000e-01
278000.0 1.006167000e+00 2.198790000e-01
297000.0 1.006222000e+00 2.422510000e-01
316000.0 1.007000000e+00 2.645630000e-01
335000.0 1.006854000e+00 2.865960000e-01
354000.0 1.007061000e+00 3.073610000e-01
373000.0 1.007383000e+00 3.288640000e-01
392000.0 1.009338000e+00 3.497260000e-01
411000.0 1.009689000e+00 3.711830000e-01
430000.0 1.009784000e+00 3.919350000e-01
449000.0 1.011471000e+00 4.117300000e-01
468000.0 1.010685000e+00 4.328650000e-01
487000.0 9.901040000e-01 3.555370000e-01
506000.0 1.007779000e+00 4.389790000e-01
525000.0 1.008729000e+00 4.596580000e-01
544000.0 1.014508000e+00 5.129510000e-01
563000.0 1.015598000e+00 5.328380000e-01
582000.0 1.017056000e+00 5.515970000e-01
601000.0 1.017248000e+00 5.717910000e-01
620000.0 1.018995000e+00 5.916080000e-01
639000.0 1.020068000e+00 6.105560000e-01
658000.0 1.021747000e+00 6.308940000e-01
677000.0 1.022644000e+00 6.486080000e-01
696000.0 1.023828000e+00 6.679340000e-01
715000.0 1.027356000e+00 6.866760000e-01
734000.0 1.027717000e+00 7.067420000e-01
753000.0 1.031145000e+00 7.247420000e-01
772000.0 1.033324000e+00 7.433160000e-01
791000.0 1.035959000e+00 7.617270000e-01
810000.0 1.038643000e+00 7.810730000e-01
829000.0 1.042385000e+00 7.993630000e-01
848000.0 1.044950000e+00 8.175650000e-01
867000.0 1.049685000e+00 8.355930000e-01
886000.0 1.053392000e+00 8.538250000e-01
905000.0 1.057073000e+00 8.717620000e-01
924000.0 1.060759000e+00 8.902030000e-01
943000.0 1.065788000e+00 9.055410000e-01
962000.0 1.071589000e+00 9.256380000e-01
981000.0 1.075188000e+00 9.417750000e-01
1000000.0 1.082124000e+00 9.603650000e-01
1180000.0 1.150998000e+00 1.116615000e+00
1360000.0 1.261592000e+00 1.245172000e+00
1540000.0 1.411857000e+00 1.335339000e+00
1720000.0 1.589914000e+00 1.356750000e+00
1900000.0 1.767797000e+00 1.289022000e+00
2080000.0 1.901079000e+00 1.156377000e+00
2260000.0 1.962279000e+00 9.817420000e-01
2440000.0 1.963857000e+00 8.046530000e-01
2620000.0 1.914333000e+00 6.550960000e-01
2800000.0 1.839224000e+00 5.333760000e-01
2980000.0 1.760728000e+00 4.436340000e-01
3160000.0 1.684517000e+00 3.502400000e-01
3340000.0 1.613384000e+00 3.106500000e-01
3520000.0 1.555940000e+00 2.480540000e-01
3700000.0 1.498675000e+00 2.328530000e-01
3880000.0 1.452667000e+00 1.974380000e-01
4060000.0 1.411861000e+00 1.655430000e-01
4240000.0 1.378651000e+00 1.376260000e-01
4420000.0 1.348739000e+00 1.101060000e-01
4600000.0 1.323844000e+00 8.148100000e-02
4780000.0 1.305119000e+00 5.526500000e-02
4960000.0 1.290475000e+00 2.972800000e-02
5140000.0 1.270378000e+00 5.733000000e-03
5320000.0 1.261901000e+00 -1.726500000e-02
5500000.0 1.254756000e+00 -4.260900000e-02
5680000.0 1.247347000e+00 -6.412400000e-02
5860000.0 1.242012000e+00 -8.820700000e-02
6040000.0 1.236702000e+00 -1.069620000e-01
6220000.0 1.232727000e+00 -1.261230000e-01
6400000.0 1.228723000e+00 -1.427110000e-01
6580000.0 1.226770000e+00 -1.586260000e-01
6760000.0 1.222258000e+00 -1.708630000e-01
6940000.0 1.221107000e+00 -1.809910000e-01
7120000.0 1.219358000e+00 -1.881340000e-01
7300000.0 1.218864000e+00 -1.922140000e-01
7480000.0 1.218357000e+00 -1.936690000e-01
7660000.0 -2.424470000e-01 -1.258898000e+00
7840000.0 -2.412460000e-01 -1.260962000e+00
8020000.0 -2.394220000e-01 -1.260851000e+00
8200000.0 -2.364260000e-01 -1.261679000e+00
8380000.0 -2.360940000e-01 -1.262534000e+00
8560000.0 -2.349160000e-01 -1.262729000e+00
8740000.0 -2.337410000e-01 -1.265149000e+00
8920000.0 -2.311740000e-01 -1.266722000e+00
9100000.0 -2.308520000e-01 -1.267522000e+00
9280000.0 -2.288260000e-01 -1.268954000e+00
9460000.0 -2.287990000e-01 -1.270109000e+00
9640000.0 -2.267900000e-01 -1.272598000e+00
9820000.0 -2.258290000e-01 -1.274580000e+00
10000000.0 -2.245990000e-01 -1.274876000e+00
11800000.0 -2.127340000e-01 -1.295226000e+00
13600000.0 -2.003100000e-01 -1.314513000e+00
15400000.0 -1.885550000e-01 -1.336084000e+00
17200000.0 -1.748820000e-01 -1.359990000e+00
19000000.0 -1.607160000e-01 -1.384448000e+00
20800000.0 -1.459960000e-01 -1.410799000e+00
22600000.0 -1.267470000e-01 -1.436863000e+00
24400000.0 -1.072370000e-01 -1.463012000e+00
26200000.0 -8.599400000e-02 -1.489336000e+00
28000000.0 -6.301700000e-02 -1.517615000e+00
29800000.0 -3.820900000e-02 -1.546739000e+00
31600000.0 -4.323000000e-03 -1.566962000e+00
33400000.0 7.934600000e-02 -1.617484000e+00
35200000.0 5.149200000e-02 -1.635224000e+00
37000000.0 8.811100000e-02 -1.665087000e+00
38800000.0 1.253520000e-01 -1.693775000e+00
40600000.0 1.670010000e-01 -1.721865000e+00
42400000.0 2.115980000e-01 -1.748193000e+00
44200000.0 2.609150000e-01 -1.775623000e+00
46000000.0 3.117790000e-01 -1.800061000e+00
47800000.0 3.678170000e-01 -1.824414000e+00
49600000.0 4.271000000e-01 -1.843644000e+00
51400000.0 4.903170000e-01 -1.858702000e+00
53200000.0 5.565380000e-01 -1.874102000e+00
55000000.0 6.262410000e-01 -1.880242000e+00
56800000.0 6.981720000e-01 -1.884643000e+00
58600000.0 7.720260000e-01 -1.881443000e+00
60400000.0 8.496270000e-01 -1.876973000e+00
62200000.0 9.285830000e-01 -1.862282000e+00
64000000.0 1.005938000e+00 -1.840434000e+00
65800000.0 1.083403000e+00 -1.812797000e+00
67600000.0 1.162179000e+00 -1.778216000e+00
69400000.0 1.234761000e+00 -1.732781000e+00
71200000.0 1.303311000e+00 -1.683350000e+00
73000000.0 1.366531000e+00 -1.627671000e+00
74800000.0 1.426623000e+00 -1.566671000e+00
76600000.0 1.484365000e+00 -1.500257000e+00
78400000.0 1.528665000e+00 -1.432780000e+00
80200000.0 1.565902000e+00 -1.359121000e+00
82000000.0 1.601059000e+00 -1.284779000e+00
83800000.0 1.623703000e+00 -1.209673000e+00
85600000.0 1.643587000e+00 -1.136086000e+00
87400000.0 1.656351000e+00 -1.062181000e+00
89200000.0 1.661776000e+00 -9.899770000e-01
91000000.0 1.664441000e+00 -9.218660000e-01
92800000.0 1.661288000e+00 -8.540870000e-01
94600000.0 1.653391000e+00 -7.908290000e-01
96400000.0 1.642905000e+00 -7.301340000e-01
98200000.0 1.627871000e+00 -6.740870000e-01
100000000.0 1.609752000e+00 -6.197200000e-01
118000000.0 1.379063000e+00 -2.421750000e-01
136000000.0 1.147589000e+00 -6.838700000e-02
154000000.0 1.000518000e+00 1.019000000e-03
172000000.0 1.003601000e+00 -4.610000000e-04
190000000.0 1.004579000e+00 -8.700000000e-04
208000000.0 1.006158000e+00 -1.090000000e-03
226000000.0 1.006597000e+00 -9.690000000e-04
244000000.0 1.005876000e+00 -1.380000000e-03
262000000.0 1.005714000e+00 -1.262000000e-03
280000000.0 1.001767000e+00 -1.754200000e-02
298000000.0 1.004035000e+00 1.880100000e-02
316000000.0 1.005464000e+00 1.823100000e-02
334000000.0 1.005874000e+00 4.580000000e-04
352000000.0 1.006037000e+00 -1.800000000e-05
370000000.0 1.006425000e+00 2.770000000e-03
388000000.0 1.006176000e+00 1.401000000e-03
406000000.0 1.005801000e+00 2.415000000e-03
424000000.0 1.002433000e+00 6.140000000e-04
442000000.0 1.000549000e+00 -8.700000000e-05
460000000.0 1.000593000e+00 1.370000000e-03
478000000.0 1.004692000e+00 4.132000000e-03
496000000.0 1.006424000e+00 5.502000000e-03
514000000.0 1.007842000e+00 8.727000000e-03
532000000.0 1.008382000e+00 7.265000000e-03
550000000.0 1.007602000e+00 1.051200000e-02
568000000.0 1.007000000e+00 4.487000000e-03
586000000.0 1.006187000e+00 9.151000000e-03
604000000.0 1.003032000e+00 5.905000000e-03
622000000.0 1.008608000e+00 6.912000000e-03
640000000.0 1.012026000e+00 7.687000000e-03
658000000.0 1.015318000e+00 7.932000000e-03
676000000.0 1.016079000e+00 1.109400000e-02
694000000.0 1.016080000e+00 6.114000000e-03
712000000.0 1.013008000e+00 5.988000000e-03
730000000.0 1.008424000e+00 5.258000000e-03
748000000.0 1.000942000e+00 6.859000000e-03
766000000.0 1.008417000e+00 -1.270000000e-04
784000000.0 1.014624000e+00 -2.888000000e-03
802000000.0 1.015314000e+00 -6.389000000e-03
820000000.0 1.019737000e+00 -4.538000000e-03
838000000.0 1.016898000e+00 -1.516000000e-03
856000000.0 1.015659000e+00 -6.490000000e-03
874000000.0 1.009882000e+00 -1.782000000e-03
892000000.0 1.002259000e+00 2.800000000e-05
910000000.0 9.899220000e-01 -7.563500000e-02
928000000.0 1.002080000e+00 -4.373000000e-03
946000000.0 1.005304000e+00 -8.501000000e-03
964000000.0 1.005655000e+00 -8.536000000e-03
982000000.0 1.005858000e+00 -1.416700000e-02
1000000000.0 1.003401000e+00 -4.734000000e-03
1009000000.0 1.004497000e+00 -9.120000000e-04
1018000000.0 1.002544000e+00 -5.469000000e-03
1027000000.0 1.002134000e+00 -2.014000000e-03
1036000000.0 1.000062000e+00 2.216000000e-03
1045000000.0 1.002360000e+00 5.641000000e-03
1054000000.0 1.000547000e+00 -1.743000000e-03
1063000000.0 9.994550000e-01 -9.320000000e-03
1072000000.0 9.999290000e-01 -1.587000000e-03
1081000000.0 9.996360000e-01 -3.783600000e-02
1090000000.0 1.005268000e+00 -3.147000000e-03
1099000000.0 1.005893000e+00 -5.617000000e-03
1108000000.0 1.006563000e+00 -1.920000000e-03
1117000000.0 1.002310000e+00 -5.603000000e-03
1126000000.0 1.007001000e+00 -4.556000000e-03
1135000000.0 1.006531000e+00 -3.467000000e-03
1144000000.0 1.005631000e+00 3.438000000e-03
1153000000.0 1.009595000e+00 -6.272000000e-03
1162000000.0 1.005749000e+00 -8.960000000e-04
1171000000.0 1.005409000e+00 -9.007000000e-03
1180000000.0 1.007595000e+00 -3.805000000e-03
1189000000.0 1.004990000e+00 -4.727000000e-03
1198000000.0 1.006765000e+00 -3.477000000e-03
1207000000.0 1.001280000e+00 6.890000000e-04
1216000000.0 1.001705000e+00 -4.290000000e-04
1225000000.0 9.972050000e-01 3.312000000e-03
1234000000.0 1.001824000e+00 2.790000000e-04
1243000000.0 9.978000000e-01 -2.459000000e-03
1252000000.0 1.005100000e+00 -3.367000000e-03
1261000000.0 1.006998000e+00 6.046000000e-03
1270000000.0 1.004770000e+00 2.271000000e-03
1279000000.0 1.005655000e+00 -1.403000000e-03
1288000000.0 1.001153000e+00 -2.319000000e-03
1297000000.0 1.001066000e+00 -1.618000000e-03
1306000000.0 1.001916000e+00 2.997000000e-03
1315000000.0 1.003563000e+00 -2.223000000e-03
1324000000.0 1.006984000e+00 6.638000000e-03
1333000000.0 1.005032000e+00 1.025000000e-02
1342000000.0 1.001650000e+00 1.322000000e-03
1351000000.0 1.006037000e+00 1.990000000e-04
1360000000.0 1.004370000e+00 9.491000000e-03
1369000000.0 1.004211000e+00 6.654000000e-03
1378000000.0 1.001335000e+00 1.194500000e-02
1387000000.0 1.001006000e+00 1.087000000e-02
1396000000.0 1.006324000e+00 1.721700000e-02
1405000000.0 1.005972000e+00 8.971000000e-03
1414000000.0 1.007679000e+00 2.193300000e-02
1423000000.0 1.007779000e+00 1.861500000e-02
1432000000.0 1.001322000e+00 1.199600000e-02
1441000000.0 1.002344000e+00 1.414000000e-02
1450000000.0 1.001408000e+00 1.287000000e-02
