! piloto_saltos / abierto_101puntos / r04
# HZ S RI R 50
50000.0 1.007664000e+00 -7.050200000e-02
59500.0 1.005127000e+00 -5.684100000e-02
69000.0 1.005207000e+00 -4.421300000e-02
78500.0 1.002567000e+00 -2.940100000e-02
88000.0 1.002127000e+00 -1.697000000e-02
97500.0 1.001196000e+00 -3.053000000e-03
107000.0 1.000320000e+00 8.711000000e-03
116500.0 1.000002000e+00 2.123500000e-02
126000.0 1.002711000e+00 3.451100000e-02
135500.0 1.001340000e+00 4.512300000e-02
145000.0 1.001103000e+00 5.827100000e-02
154500.0 1.001311000e+00 6.947200000e-02
164000.0 1.002115000e+00 8.217100000e-02
173500.0 1.002466000e+00 9.432200000e-02
183000.0 1.003245000e+00 1.060260000e-01
192500.0 1.003359000e+00 1.184020000e-01
202000.0 1.003642000e+00 1.294790000e-01
211500.0 1.004357000e+00 1.410120000e-01
221000.0 1.003610000e+00 1.527080000e-01
230500.0 1.004704000e+00 1.646650000e-01
240000.0 1.005187000e+00 1.755280000e-01
249500.0 1.004861000e+00 1.860270000e-01
259000.0 1.005543000e+00 1.978860000e-01
268500.0 1.005533000e+00 2.090130000e-01
278000.0 1.006009000e+00 2.211370000e-01
287500.0 1.006622000e+00 2.312630000e-01
297000.0 1.007111000e+00 2.419430000e-01
306500.0 1.006506000e+00 2.534570000e-01
316000.0 1.006995000e+00 2.645490000e-01
325500.0 1.007565000e+00 2.754380000e-01
335000.0 1.006725000e+00 2.859980000e-01
344500.0 1.007717000e+00 2.963230000e-01
354000.0 1.007423000e+00 3.076090000e-01
363500.0 1.008392000e+00 3.180860000e-01
373000.0 1.007896000e+00 3.292410000e-01
382500.0 1.008269000e+00 3.399470000e-01
392000.0 1.008867000e+00 3.504490000e-01
401500.0 1.009601000e+00 3.612510000e-01
411000.0 1.009158000e+00 3.711820000e-01
420500.0 1.009623000e+00 3.807940000e-01
430000.0 1.010284000e+00 3.907390000e-01
439500.0 1.009578000e+00 4.022020000e-01
449000.0 1.010020000e+00 4.122600000e-01
458500.0 1.011659000e+00 4.220630000e-01
468000.0 1.011569000e+00 4.322330000e-01
477500.0 1.011063000e+00 4.436150000e-01
487000.0 1.011558000e+00 4.524420000e-01
496500.0 1.012313000e+00 4.626440000e-01
506000.0 1.012709000e+00 4.746550000e-01
515500.0 1.012780000e+00 4.827690000e-01
525000.0 1.012977000e+00 4.922840000e-01
534500.0 1.013751000e+00 5.030720000e-01
544000.0 1.013905000e+00 5.124480000e-01
553500.0 1.014218000e+00 5.228140000e-01
563000.0 1.015694000e+00 5.330870000e-01
572500.0 1.015218000e+00 5.436370000e-01
582000.0 1.015824000e+00 5.521790000e-01
591500.0 1.017072000e+00 5.624990000e-01
601000.0 1.016184000e+00 5.707150000e-01
610500.0 1.017698000e+00 5.818700000e-01
620000.0 1.019398000e+00 5.907020000e-01
629500.0 1.010128000e+00 6.194390000e-01
639000.0 1.019936000e+00 6.097640000e-01
648500.0 1.011178000e+00 6.393660000e-01
658000.0 1.029459000e+00 6.101330000e-01
667500.0 1.011931000e+00 6.589080000e-01
677000.0 1.033235000e+00 6.297090000e-01
686500.0 1.013240000e+00 6.777200000e-01
696000.0 1.033887000e+00 6.486630000e-01
705500.0 1.016008000e+00 6.969930000e-01
715000.0 1.027770000e+00 6.873300000e-01
724500.0 1.027209000e+00 6.964310000e-01
734000.0 1.027715000e+00 7.056870000e-01
743500.0 1.029975000e+00 7.147250000e-01
753000.0 1.031607000e+00 7.243440000e-01
762500.0 1.031876000e+00 7.336560000e-01
772000.0 1.033768000e+00 7.426710000e-01
781500.0 1.035319000e+00 7.519950000e-01
791000.0 1.035761000e+00 7.617930000e-01
800500.0 1.037911000e+00 7.714230000e-01
810000.0 1.039396000e+00 7.803810000e-01
819500.0 1.040373000e+00 7.899350000e-01
829000.0 1.041379000e+00 7.985480000e-01
838500.0 1.043584000e+00 8.073570000e-01
848000.0 1.046221000e+00 8.165750000e-01
857500.0 1.047503000e+00 8.264860000e-01
867000.0 1.048384000e+00 8.359600000e-01
876500.0 1.051028000e+00 8.445740000e-01
886000.0 1.052972000e+00 8.526810000e-01
895500.0 1.053277000e+00 8.640650000e-01
905000.0 1.057637000e+00 8.718500000e-01
914500.0 1.058440000e+00 8.806870000e-01
924000.0 1.061726000e+00 8.895940000e-01
933500.0 1.063983000e+00 8.978410000e-01
943000.0 1.065770000e+00 9.078790000e-01
952500.0 1.068440000e+00 9.155060000e-01
962000.0 1.070961000e+00 9.256220000e-01
971500.0 1.074545000e+00 9.330290000e-01
981000.0 1.076453000e+00 9.416150000e-01
990500.0 1.078281000e+00 9.505100000e-01
1000000.0 1.080455000e+00 9.599340000e-01
1090000.0 1.109548000e+00 1.040170000e+00
1180000.0 1.150250000e+00 1.116199000e+00
1270000.0 1.201085000e+00 1.185745000e+00
1360000.0 1.260550000e+00 1.247032000e+00
1450000.0 1.331966000e+00 1.298952000e+00
1540000.0 1.411167000e+00 1.333983000e+00
1630000.0 1.498731000e+00 1.354894000e+00
1720000.0 1.588179000e+00 1.354906000e+00
1810000.0 1.683339000e+00 1.336825000e+00
1900000.0 1.765746000e+00 1.294657000e+00
1990000.0 1.841889000e+00 1.232805000e+00
2080000.0 1.897318000e+00 1.154786000e+00
2170000.0 1.937802000e+00 1.070724000e+00
2260000.0 1.963271000e+00 9.794700000e-01
2350000.0 1.971527000e+00 8.917820000e-01
2440000.0 1.960926000e+00 8.052580000e-01
2530000.0 1.940509000e+00 7.250380000e-01
2620000.0 1.910257000e+00 6.558590000e-01
2710000.0 1.879129000e+00 5.905560000e-01
2800000.0 1.840629000e+00 5.340840000e-01
2890000.0 1.801882000e+00 4.838130000e-01
2980000.0 1.762289000e+00 4.452090000e-01
3070000.0 1.722664000e+00 4.061430000e-01
3160000.0 1.684229000e+00 3.717240000e-01
3250000.0 1.648625000e+00 3.445390000e-01
3340000.0 1.615405000e+00 3.175450000e-01
3430000.0 1.584501000e+00 2.937140000e-01
3520000.0 1.553375000e+00 2.702150000e-01
3610000.0 1.525074000e+00 2.502880000e-01
3700000.0 1.500664000e+00 2.331740000e-01
3790000.0 1.477144000e+00 2.150490000e-01
3880000.0 1.452541000e+00 1.962140000e-01
3970000.0 1.433634000e+00 1.814340000e-01
4060000.0 1.411204000e+00 1.664990000e-01
4150000.0 1.395233000e+00 1.513500000e-01
4240000.0 1.377654000e+00 1.370030000e-01
4330000.0 1.362381000e+00 1.223630000e-01
4420000.0 1.348914000e+00 1.084690000e-01
4510000.0 1.337615000e+00 9.464100000e-02
4600000.0 1.325489000e+00 8.107600000e-02
4690000.0 1.315495000e+00 6.896000000e-02
4780000.0 1.304930000e+00 5.451300000e-02
4870000.0 1.297126000e+00 4.296900000e-02
4960000.0 1.290525000e+00 3.012100000e-02
5050000.0 1.276428000e+00 1.870400000e-02
5140000.0 1.270715000e+00 6.375000000e-03
5230000.0 1.266989000e+00 -6.433000000e-03
5320000.0 1.260935000e+00 -1.907700000e-02
5410000.0 1.258716000e+00 -3.029900000e-02
5500000.0 1.254698000e+00 -4.351200000e-02
5590000.0 1.250932000e+00 -5.348800000e-02
5680000.0 1.248184000e+00 -6.491800000e-02
5770000.0 1.244652000e+00 -7.636100000e-02
5860000.0 1.241394000e+00 -8.731000000e-02
5950000.0 1.238961000e+00 -9.655500000e-02
6040000.0 1.236720000e+00 -1.078500000e-01
6130000.0 1.233664000e+00 -1.169680000e-01
6220000.0 1.231289000e+00 -1.261220000e-01
6310000.0 1.230315000e+00 -1.355850000e-01
6400000.0 1.228558000e+00 -1.437540000e-01
6490000.0 1.226687000e+00 -1.508810000e-01
6580000.0 1.225280000e+00 -1.589260000e-01
6670000.0 1.222756000e+00 -1.665340000e-01
6760000.0 1.222727000e+00 -1.715140000e-01
6850000.0 1.221371000e+00 -1.756470000e-01
6940000.0 1.220419000e+00 -1.803580000e-01
7030000.0 1.220422000e+00 -1.856400000e-01
7120000.0 1.218000000e+00 -1.890040000e-01
7210000.0 1.219349000e+00 -1.915650000e-01
7300000.0 1.218397000e+00 -1.936290000e-01
7390000.0 1.218236000e+00 -1.939230000e-01
7480000.0 1.219002000e+00 -1.929040000e-01
7570000.0 -2.418100000e-01 -1.258863000e+00
7660000.0 -2.410810000e-01 -1.259297000e+00
7750000.0 -2.398360000e-01 -1.257863000e+00
7840000.0 -2.395610000e-01 -1.261176000e+00
7930000.0 -2.393700000e-01 -1.260462000e+00
8020000.0 -2.382610000e-01 -1.260918000e+00
8110000.0 -2.378730000e-01 -1.261724000e+00
8200000.0 -2.360850000e-01 -1.262058000e+00
8290000.0 -2.369190000e-01 -1.261857000e+00
8380000.0 -2.359590000e-01 -1.262856000e+00
8470000.0 -2.351720000e-01 -1.263612000e+00
8560000.0 -2.345750000e-01 -1.264362000e+00
8650000.0 -2.336640000e-01 -1.264627000e+00
8740000.0 -2.340600000e-01 -1.265104000e+00
8830000.0 -2.332250000e-01 -1.265748000e+00
8920000.0 -2.308510000e-01 -1.266478000e+00
9010000.0 -2.312010000e-01 -1.267125000e+00
9100000.0 -2.306200000e-01 -1.268099000e+00
9190000.0 -2.297580000e-01 -1.268264000e+00
9280000.0 -2.285100000e-01 -1.269828000e+00
9370000.0 -2.283310000e-01 -1.270696000e+00
9460000.0 -2.283930000e-01 -1.271364000e+00
9550000.0 -2.282710000e-01 -1.270615000e+00
9640000.0 -2.273270000e-01 -1.272495000e+00
9730000.0 -2.258980000e-01 -1.273158000e+00
9820000.0 -2.255520000e-01 -1.274085000e+00
9910000.0 -2.249990000e-01 -1.274970000e+00
10000000.0 -2.245150000e-01 -1.276546000e+00
10900000.0 -2.185420000e-01 -1.285235000e+00
11800000.0 -2.129430000e-01 -1.294024000e+00
12700000.0 -2.053260000e-01 -1.302986000e+00
13600000.0 -2.007550000e-01 -1.315017000e+00
14500000.0 -1.949420000e-01 -1.325902000e+00
15400000.0 -1.884600000e-01 -1.337789000e+00
16300000.0 -1.820340000e-01 -1.349265000e+00
17200000.0 -1.756990000e-01 -1.360265000e+00
18100000.0 -1.674510000e-01 -1.372743000e+00
19000000.0 -1.605180000e-01 -1.384960000e+00
19900000.0 -1.529360000e-01 -1.397122000e+00
20800000.0 -1.437360000e-01 -1.410525000e+00
21700000.0 -1.365860000e-01 -1.423666000e+00
22600000.0 -1.262770000e-01 -1.435759000e+00
23500000.0 -1.182990000e-01 -1.449316000e+00
24400000.0 -1.069330000e-01 -1.463719000e+00
25300000.0 -9.784000000e-02 -1.475966000e+00
26200000.0 -8.698000000e-02 -1.490367000e+00
27100000.0 -7.621900000e-02 -1.505023000e+00
28000000.0 -6.361100000e-02 -1.517971000e+00
28900000.0 -5.174200000e-02 -1.532647000e+00
29800000.0 -4.068800000e-02 -1.547836000e+00
30700000.0 -2.550900000e-02 -1.562269000e+00
31600000.0 -9.765000000e-03 -1.577738000e+00
32500000.0 4.012000000e-03 -1.590393000e+00
33400000.0 1.665200000e-02 -1.605295000e+00
34300000.0 3.590800000e-02 -1.621586000e+00
35200000.0 5.067400000e-02 -1.635499000e+00
36100000.0 6.898600000e-02 -1.649492000e+00
37000000.0 8.763900000e-02 -1.664074000e+00
37900000.0 1.062240000e-01 -1.679977000e+00
38800000.0 1.256980000e-01 -1.693785000e+00
39700000.0 1.457730000e-01 -1.707015000e+00
40600000.0 1.670320000e-01 -1.723369000e+00
41500000.0 1.881760000e-01 -1.733837000e+00
42400000.0 2.113460000e-01 -1.750762000e+00
43300000.0 2.356100000e-01 -1.763618000e+00
44200000.0 2.596860000e-01 -1.774291000e+00
45100000.0 2.845010000e-01 -1.787766000e+00
46000000.0 3.133800000e-01 -1.801526000e+00
46900000.0 3.399890000e-01 -1.811584000e+00
47800000.0 3.683650000e-01 -1.823090000e+00
48700000.0 3.974150000e-01 -1.833205000e+00
49600000.0 4.267910000e-01 -1.843856000e+00
50500000.0 4.581820000e-01 -1.851452000e+00
51400000.0 4.871380000e-01 -1.858920000e+00
52300000.0 5.211660000e-01 -1.865167000e+00
53200000.0 5.554170000e-01 -1.872086000e+00
54100000.0 5.903270000e-01 -1.877554000e+00
55000000.0 6.259460000e-01 -1.881528000e+00
55900000.0 6.596330000e-01 -1.884881000e+00
56800000.0 6.987470000e-01 -1.884743000e+00
57700000.0 7.357090000e-01 -1.885628000e+00
58600000.0 7.728090000e-01 -1.884549000e+00
59500000.0 8.114350000e-01 -1.882793000e+00
60400000.0 8.510390000e-01 -1.877892000e+00
61300000.0 8.904100000e-01 -1.870520000e+00
62200000.0 9.274950000e-01 -1.861249000e+00
63100000.0 9.667200000e-01 -1.851192000e+00
64000000.0 1.005882000e+00 -1.841877000e+00
64900000.0 1.045039000e+00 -1.828109000e+00
65800000.0 1.083193000e+00 -1.813514000e+00
66700000.0 1.122672000e+00 -1.794535000e+00
67600000.0 1.156818000e+00 -1.776275000e+00
68500000.0 1.196149000e+00 -1.756989000e+00
69400000.0 1.233973000e+00 -1.733350000e+00
70300000.0 1.268061000e+00 -1.711136000e+00
71200000.0 1.302666000e+00 -1.683327000e+00
72100000.0 1.335101000e+00 -1.657016000e+00
73000000.0 1.368364000e+00 -1.629306000e+00
73900000.0 1.398863000e+00 -1.597959000e+00
74800000.0 1.427574000e+00 -1.566802000e+00
75700000.0 1.456501000e+00 -1.534896000e+00
76600000.0 1.480924000e+00 -1.500029000e+00
77500000.0 1.505484000e+00 -1.466026000e+00
78400000.0 1.527239000e+00 -1.430120000e+00
79300000.0 1.549976000e+00 -1.395431000e+00
80200000.0 1.566604000e+00 -1.358825000e+00
81100000.0 1.583229000e+00 -1.320536000e+00
82000000.0 1.599508000e+00 -1.285512000e+00
82900000.0 1.614069000e+00 -1.247538000e+00
83800000.0 1.625213000e+00 -1.208268000e+00
84700000.0 1.634229000e+00 -1.171823000e+00
85600000.0 1.643721000e+00 -1.134535000e+00
86500000.0 1.650992000e+00 -1.100556000e+00
87400000.0 1.655612000e+00 -1.062179000e+00
88300000.0 1.660133000e+00 -1.024665000e+00
89200000.0 1.662588000e+00 -9.924800000e-01
90100000.0 1.664974000e+00 -9.554360000e-01
91000000.0 1.665452000e+00 -9.209260000e-01
91900000.0 1.662203000e+00 -8.884460000e-01
92800000.0 1.660481000e+00 -8.551600000e-01
93700000.0 1.658038000e+00 -8.228320000e-01
94600000.0 1.653177000e+00 -7.904470000e-01
95500000.0 1.647363000e+00 -7.596350000e-01
96400000.0 1.640436000e+00 -7.312190000e-01
97300000.0 1.635492000e+00 -7.018560000e-01
98200000.0 1.628029000e+00 -6.743240000e-01
99100000.0 1.618998000e+00 -6.472530000e-01
100000000.0 1.610154000e+00 -6.202300000e-01
109000000.0 1.501277000e+00 -3.991570000e-01
118000000.0 1.377539000e+00 -2.443970000e-01
127000000.0 1.256019000e+00 -1.385920000e-01
136000000.0 1.147827000e+00 -6.800200000e-02
145000000.0 1.049758000e+00 -1.981600000e-02
154000000.0 1.000704000e+00 3.780000000e-04
163000000.0 1.001837000e+00 1.580000000e-04
172000000.0 1.002852000e+00 -2.370000000e-04
181000000.0 1.003833000e+00 -1.089000000e-03
190000000.0 1.004074000e+00 -9.010000000e-04
199000000.0 1.004884000e+00 -1.495000000e-03
208000000.0 1.005618000e+00 -7.380000000e-04
217000000.0 1.005312000e+00 -1.306000000e-03
226000000.0 1.006024000e+00 -5.510000000e-04
235000000.0 1.006327000e+00 -1.934000000e-03
244000000.0 1.006082000e+00 -1.900000000e-05
253000000.0 1.005317000e+00 -1.189000000e-03
262000000.0 1.005600000e+00 -8.590000000e-04
271000000.0 1.004006000e+00 -1.156000000e-03
280000000.0 1.003472000e+00 -6.570000000e-04
289000000.0 1.002186000e+00 -1.800000000e-04
298000000.0 1.001685000e+00 -4.160000000e-04
307000000.0 1.002276000e+00 -8.680000000e-04
316000000.0 1.004063000e+00 -2.641000000e-03
325000000.0 1.004428000e+00 -8.850000000e-04
334000000.0 1.005486000e+00 6.630000000e-04
343000000.0 1.005708000e+00 -2.600000000e-04
352000000.0 1.007098000e+00 -1.177000000e-03
361000000.0 1.022721000e+00 5.336200000e-02
370000000.0 1.007196000e+00 1.109000000e-03
379000000.0 1.000024000e+00 -1.517400000e-02
388000000.0 1.006364000e+00 1.463000000e-03
397000000.0 1.004953000e+00 1.981000000e-03
406000000.0 1.005154000e+00 -1.409000000e-03
415000000.0 1.004071000e+00 1.069000000e-03
424000000.0 1.003693000e+00 1.196000000e-03
433000000.0 1.002228000e+00 4.210000000e-04
442000000.0 1.000686000e+00 8.610000000e-04
451000000.0 1.000151000e+00 -1.809000000e-03
460000000.0 9.999080000e-01 1.938000000e-03
469000000.0 1.002393000e+00 1.989000000e-03
478000000.0 1.004269000e+00 3.009000000e-03
487000000.0 1.005337000e+00 2.379000000e-03
496000000.0 1.008730000e+00 6.131000000e-03
505000000.0 1.007330000e+00 4.930000000e-03
514000000.0 1.007416000e+00 5.412000000e-03
523000000.0 1.008220000e+00 8.011000000e-03
532000000.0 1.008790000e+00 8.150000000e-03
541000000.0 1.007421000e+00 6.960000000e-03
550000000.0 1.007645000e+00 1.107600000e-02
559000000.0 1.009773000e+00 7.221000000e-03
568000000.0 1.006326000e+00 9.276000000e-03
577000000.0 1.004003000e+00 6.756000000e-03
586000000.0 1.005945000e+00 7.755000000e-03
595000000.0 1.006772000e+00 6.601000000e-03
604000000.0 1.005028000e+00 6.417000000e-03
613000000.0 1.008416000e+00 1.185800000e-02
622000000.0 1.008162000e+00 7.048000000e-03
631000000.0 1.008721000e+00 8.962000000e-03
640000000.0 1.012955000e+00 7.014000000e-03
649000000.0 1.015301000e+00 1.411400000e-02
658000000.0 1.018505000e+00 9.159000000e-03
667000000.0 1.012964000e+00 1.038700000e-02
676000000.0 1.017990000e+00 9.417000000e-03
685000000.0 1.019501000e+00 1.091300000e-02
694000000.0 1.017913000e+00 7.316000000e-03
703000000.0 1.018148000e+00 8.371000000e-03
712000000.0 1.011887000e+00 6.684000000e-03
721000000.0 1.011814000e+00 8.028000000e-03
730000000.0 1.007368000e+00 4.488000000e-03
739000000.0 1.005013000e+00 2.510000000e-03
748000000.0 1.001447000e+00 1.194000000e-03
757000000.0 1.002104000e+00 2.753000000e-03
766000000.0 1.005502000e+00 -2.905000000e-03
775000000.0 1.011954000e+00 2.260000000e-04
784000000.0 1.010740000e+00 -6.316000000e-03
793000000.0 1.013231000e+00 -5.769000000e-03
802000000.0 1.015908000e+00 -7.101000000e-03
811000000.0 1.019255000e+00 -8.482000000e-03
820000000.0 1.017784000e+00 -6.274000000e-03
829000000.0 1.014837000e+00 -9.098000000e-03
838000000.0 1.016740000e+00 -3.729000000e-03
847000000.0 1.018049000e+00 -5.586000000e-03
856000000.0 1.015330000e+00 -8.213000000e-03
865000000.0 1.013971000e+00 -4.979000000e-03
874000000.0 1.008411000e+00 -5.481000000e-03
883000000.0 1.007979000e+00 7.500000000e-05
892000000.0 1.002102000e+00 1.523000000e-03
901000000.0 9.988660000e-01 1.219000000e-03
910000000.0 9.986310000e-01 -9.170000000e-04
919000000.0 1.003368000e+00 -2.497000000e-03
928000000.0 1.005117000e+00 -4.549000000e-03
937000000.0 1.007777000e+00 -9.752000000e-03
946000000.0 1.002905000e+00 -1.021800000e-02
955000000.0 1.006616000e+00 -6.692000000e-03
964000000.0 1.006194000e+00 -1.165500000e-02
973000000.0 1.006449000e+00 -8.828000000e-03
982000000.0 1.004612000e+00 -5.927000000e-03
991000000.0 1.004542000e+00 -9.663000000e-03
1000000000.0 1.005023000e+00 -8.221000000e-03
1004500000.0 1.005613000e+00 -1.031700000e-02
1009000000.0 1.006131000e+00 1.470500000e-02
1013500000.0 1.002111000e+00 -3.237000000e-03
1018000000.0 1.002801000e+00 -2.770500000e-02
1022500000.0 1.000990000e+00 -3.065000000e-03
1027000000.0 1.000286000e+00 -4.495000000e-03
1031500000.0 1.001686000e+00 1.162000000e-03
1036000000.0 9.993910000e-01 -1.947200000e-02
1040500000.0 1.003299000e+00 -3.717000000e-03
1045000000.0 1.002889000e+00 1.743200000e-02
1049500000.0 9.981650000e-01 1.599500000e-02
1054000000.0 1.000613000e+00 -1.064000000e-03
1058500000.0 9.989070000e-01 2.888000000e-03
1063000000.0 1.001208000e+00 -5.893000000e-03
1067500000.0 1.000262000e+00 -1.959000000e-03
1072000000.0 1.001345000e+00 2.542000000e-03
1076500000.0 1.000439000e+00 4.588000000e-03
1081000000.0 9.977280000e-01 -2.123000000e-03
1085500000.0 1.002965000e+00 -5.934000000e-03
1090000000.0 9.995950000e-01 -4.033000000e-03
1094500000.0 9.994230000e-01 6.300000000e-05
1099000000.0 1.008607000e+00 -3.920000000e-04
1103500000.0 9.997690000e-01 -5.370000000e-04
1108000000.0 1.000901000e+00 -5.137000000e-03
1112500000.0 1.004900000e+00 -1.996000000e-03
1117000000.0 1.001009000e+00 -7.196000000e-03
1121500000.0 1.002939000e+00 -6.563000000e-03
1126000000.0 1.010184000e+00 5.313300000e-02
1130500000.0 1.007294000e+00 -6.788000000e-03
1135000000.0 1.004770000e+00 -3.445000000e-03
1139500000.0 1.003753000e+00 -5.069000000e-03
1144000000.0 1.008108000e+00 -4.480000000e-03
1148500000.0 1.002973000e+00 4.394000000e-03
1153000000.0 1.010826000e+00 -3.234000000e-03
1157500000.0 1.008382000e+00 -6.154000000e-03
1162000000.0 1.008040000e+00 -4.942000000e-03
1166500000.0 1.006644000e+00 -8.524000000e-03
1171000000.0 1.004743000e+00 -6.566000000e-03
1175500000.0 1.004775000e+00 -3.017000000e-03
1180000000.0 1.003203000e+00 -4.740000000e-03
1184500000.0 1.004872000e+00 -1.967000000e-03
1189000000.0 1.000124000e+00 1.174000000e-03
1193500000.0 1.000070000e+00 -8.566000000e-03
1198000000.0 1.006058000e+00 -5.156000000e-03
1202500000.0 1.008584000e+00 1.930000000e-03
1207000000.0 1.004457000e+00 -5.020000000e-03
1211500000.0 1.002369000e+00 -6.927000000e-03
1216000000.0 1.008782000e+00 -5.067000000e-03
1220500000.0 1.009045000e+00 -3.747000000e-03
1225000000.0 1.001760000e+00 -1.388800000e-02
1229500000.0 1.010614000e+00 -3.949000000e-03
1234000000.0 1.004519000e+00 -1.217000000e-03
1238500000.0 1.005602000e+00 -7.408000000e-03
1243000000.0 1.005198000e+00 2.940000000e-03
1247500000.0 1.001382000e+00 -3.953000000e-03
1252000000.0 1.002597000e+00 -2.312000000e-03
1256500000.0 9.995750000e-01 -7.516000000e-03
1261000000.0 9.988700000e-01 -1.778000000e-03
1265500000.0 1.002822000e+00 2.589000000e-03
1270000000.0 1.003477000e+00 -4.605000000e-03
1274500000.0 1.006971000e+00 7.599000000e-03
1279000000.0 1.005767000e+00 3.821000000e-03
1283500000.0 1.003469000e+00 -5.066000000e-03
1288000000.0 1.006010000e+00 -3.788000000e-03
1292500000.0 1.001977000e+00 -6.262000000e-03
1297000000.0 1.009624000e+00 -2.690000000e-04
1301500000.0 9.995000000e-01 7.684000000e-03
1306000000.0 1.007755000e+00 1.803000000e-03
1310500000.0 1.002267000e+00 1.596000000e-03
1315000000.0 1.004516000e+00 5.911000000e-03
1319500000.0 1.004385000e+00 -7.030000000e-04
1324000000.0 1.001191000e+00 2.210000000e-04
1328500000.0 1.004570000e+00 1.369000000e-03
1333000000.0 9.998690000e-01 8.377000000e-03
1337500000.0 1.009003000e+00 4.613000000e-03
1342000000.0 1.005346000e+00 5.240000000e-04
1346500000.0 1.005090000e+00 2.369000000e-03
1351000000.0 1.004979000e+00 1.334800000e-02
1355500000.0 1.004242000e+00 9.556000000e-03
1360000000.0 1.005144000e+00 3.620000000e-04
1364500000.0 1.003447000e+00 1.307800000e-02
1369000000.0 1.000471000e+00 8.198000000e-03
1373500000.0 9.990900000e-01 2.968000000e-03
1378000000.0 1.006631000e+00 9.816000000e-03
1382500000.0 1.007330000e+00 2.828000000e-03
1387000000.0 1.008436000e+00 1.474600000e-02
1391500000.0 1.006869000e+00 1.352700000e-02
1396000000.0 1.001853000e+00 1.037500000e-02
1400500000.0 1.000975000e+00 1.796000000e-02
1405000000.0 9.989060000e-01 1.120800000e-02
1409500000.0 1.009770000e+00 8.204000000e-03
1414000000.0 1.002510000e+00 1.368600000e-02
1418500000.0 1.003070000e+00 8.057000000e-03
1423000000.0 9.974720000e-01 1.255800000e-02
1427500000.0 9.993150000e-01 -4.270000000e-04
1432000000.0 1.003043000e+00 9.300000000e-03
1436500000.0 1.003099000e+00 1.214000000e-02
1441000000.0 1.002782000e+00 1.113700000e-02
1445500000.0 1.000193000e+00 3.601000000e-03
1450000000.0 1.001563000e+00 1.398800000e-02
