! piloto_saltos / abierto_tramosB / r01
# HZ S RI R 50
50000.0 1.006360000e+00 -7.002900000e-02
52500.0 1.007707000e+00 -6.637400000e-02
55000.0 1.005975000e+00 -6.229800000e-02
57500.0 1.005448000e+00 -5.861300000e-02
60000.0 1.000259000e+00 -5.447000000e-02
62500.0 1.005503000e+00 -5.110600000e-02
65000.0 1.004935000e+00 -4.713900000e-02
67500.0 1.003716000e+00 -4.422500000e-02
70000.0 1.003594000e+00 -4.063800000e-02
72500.0 1.001399000e+00 -3.586300000e-02
75000.0 1.003091000e+00 -3.391200000e-02
77500.0 1.002208000e+00 -2.939800000e-02
80000.0 1.003114000e+00 -2.643000000e-02
82500.0 1.001881000e+00 -2.281300000e-02
85000.0 1.002138000e+00 -2.002700000e-02
87500.0 1.001108000e+00 -1.698800000e-02
90000.0 1.002409000e+00 -1.320100000e-02
92500.0 1.000920000e+00 -1.059300000e-02
95000.0 1.000936000e+00 -6.185000000e-03
97500.0 1.000823000e+00 -4.031000000e-03
100000.0 1.001145000e+00 1.610000000e-04
102500.0 9.999890000e-01 2.671000000e-03
105000.0 1.000952000e+00 7.264000000e-03
107500.0 1.001207000e+00 9.881000000e-03
110000.0 9.999040000e-01 1.246300000e-02
112500.0 1.000905000e+00 1.590900000e-02
115000.0 1.000013000e+00 1.985800000e-02
117500.0 1.000594000e+00 2.252800000e-02
120000.0 9.998430000e-01 2.531100000e-02
122500.0 1.000158000e+00 2.928800000e-02
125000.0 1.000543000e+00 3.211700000e-02
127500.0 1.001119000e+00 3.605700000e-02
130000.0 1.000648000e+00 3.866400000e-02
132500.0 1.001475000e+00 4.248600000e-02
135000.0 1.000902000e+00 4.576500000e-02
137500.0 1.001347000e+00 5.312500000e-02
140000.0 1.001185000e+00 5.152200000e-02
142500.0 1.001352000e+00 5.541100000e-02
145000.0 1.002248000e+00 5.896800000e-02
147500.0 1.001631000e+00 6.153600000e-02
150000.0 1.002577000e+00 6.525100000e-02
152500.0 1.001938000e+00 6.850600000e-02
155000.0 1.001698000e+00 7.113000000e-02
157500.0 1.002620000e+00 7.410200000e-02
160000.0 1.001816000e+00 7.708300000e-02
162500.0 1.001735000e+00 8.100400000e-02
165000.0 1.002038000e+00 8.392400000e-02
167500.0 1.002459000e+00 8.711300000e-02
170000.0 1.002725000e+00 9.034500000e-02
172500.0 1.002335000e+00 9.289400000e-02
175000.0 1.003211000e+00 9.573200000e-02
177500.0 1.002640000e+00 9.833500000e-02
180000.0 1.003275000e+00 1.021360000e-01
182500.0 1.003049000e+00 1.061690000e-01
185000.0 1.003854000e+00 1.087110000e-01
187500.0 1.002972000e+00 1.114330000e-01
190000.0 1.003234000e+00 1.142760000e-01
192500.0 1.003706000e+00 1.183190000e-01
195000.0 1.003396000e+00 1.216800000e-01
197500.0 1.004138000e+00 1.237780000e-01
200000.0 1.003616000e+00 1.271480000e-01
202500.0 1.004147000e+00 1.306790000e-01
205000.0 1.003854000e+00 1.333140000e-01
207500.0 1.003302000e+00 1.376750000e-01
210000.0 1.004016000e+00 1.401260000e-01
212500.0 1.003371000e+00 1.423760000e-01
215000.0 1.003870000e+00 1.451150000e-01
217500.0 1.003509000e+00 1.487910000e-01
220000.0 1.005162000e+00 1.516900000e-01
222500.0 1.005199000e+00 1.545790000e-01
225000.0 1.004094000e+00 1.578170000e-01
227500.0 1.003875000e+00 1.608710000e-01
230000.0 1.004890000e+00 1.639070000e-01
232500.0 1.004594000e+00 1.665680000e-01
235000.0 1.004964000e+00 1.698460000e-01
237500.0 1.004443000e+00 1.730480000e-01
240000.0 1.005244000e+00 1.752430000e-01
242500.0 1.005289000e+00 1.792510000e-01
245000.0 1.005257000e+00 1.811850000e-01
247500.0 1.005547000e+00 1.844770000e-01
250000.0 1.005386000e+00 1.872290000e-01
252500.0 1.005425000e+00 1.913770000e-01
255000.0 1.004835000e+00 1.930910000e-01
257500.0 1.005578000e+00 1.961710000e-01
260000.0 1.005714000e+00 1.999050000e-01
262500.0 1.005301000e+00 2.021700000e-01
265000.0 1.005997000e+00 2.061850000e-01
267500.0 1.005767000e+00 2.087390000e-01
270000.0 1.005704000e+00 2.109230000e-01
272500.0 1.006065000e+00 2.140770000e-01
275000.0 1.006175000e+00 2.170580000e-01
277500.0 1.005335000e+00 2.204450000e-01
280000.0 1.007194000e+00 2.235780000e-01
282500.0 1.006528000e+00 2.264140000e-01
285000.0 1.006065000e+00 2.285250000e-01
287500.0 1.006440000e+00 2.319550000e-01
290000.0 1.007308000e+00 2.343230000e-01
292500.0 1.006293000e+00 2.379420000e-01
295000.0 1.006501000e+00 2.407190000e-01
297500.0 1.007056000e+00 2.440310000e-01
300000.0 1.006891000e+00 2.466170000e-01
327000.0 1.005499000e+00 2.762130000e-01
354000.0 1.006980000e+00 3.069560000e-01
381000.0 1.007786000e+00 3.375560000e-01
408000.0 1.007767000e+00 3.673420000e-01
435000.0 1.009460000e+00 3.967050000e-01
462000.0 1.010765000e+00 4.263760000e-01
489000.0 1.011816000e+00 4.553390000e-01
516000.0 1.012856000e+00 4.835060000e-01
543000.0 1.014296000e+00 5.117250000e-01
570000.0 1.015704000e+00 5.405560000e-01
597000.0 1.017541000e+00 5.681520000e-01
624000.0 1.018708000e+00 5.967480000e-01
651000.0 1.020626000e+00 6.233390000e-01
678000.0 1.023135000e+00 6.510350000e-01
705000.0 1.025619000e+00 6.786090000e-01
732000.0 1.028462000e+00 7.059430000e-01
759000.0 1.032080000e+00 7.328540000e-01
786000.0 1.036368000e+00 7.603100000e-01
813000.0 1.040450000e+00 7.856340000e-01
840000.0 1.045180000e+00 8.110340000e-01
867000.0 1.050661000e+00 8.365420000e-01
894000.0 1.055660000e+00 8.634940000e-01
921000.0 1.062600000e+00 8.895410000e-01
948000.0 1.068570000e+00 9.146450000e-01
975000.0 1.075622000e+00 9.398670000e-01
1002000.0 1.084203000e+00 9.622150000e-01
1029000.0 1.093740000e+00 9.883830000e-01
1056000.0 1.102236000e+00 1.013150000e+00
1083000.0 1.112161000e+00 1.037768000e+00
1110000.0 1.122513000e+00 1.061432000e+00
1137000.0 1.135448000e+00 1.082930000e+00
1164000.0 1.148695000e+00 1.104522000e+00
1191000.0 1.162879000e+00 1.128844000e+00
1218000.0 1.174295000e+00 1.147529000e+00
1245000.0 1.191572000e+00 1.169371000e+00
1272000.0 1.209045000e+00 1.189978000e+00
1299000.0 1.226134000e+00 1.210668000e+00
1326000.0 1.242746000e+00 1.227071000e+00
1353000.0 1.263640000e+00 1.245647000e+00
1380000.0 1.283702000e+00 1.260881000e+00
1407000.0 1.306003000e+00 1.277653000e+00
1434000.0 1.326154000e+00 1.293595000e+00
1461000.0 1.349869000e+00 1.305250000e+00
1488000.0 1.373500000e+00 1.318403000e+00
1515000.0 1.397544000e+00 1.328665000e+00
1542000.0 1.419948000e+00 1.336061000e+00
1569000.0 1.448048000e+00 1.342548000e+00
1596000.0 1.474331000e+00 1.350101000e+00
1623000.0 1.502244000e+00 1.353056000e+00
1650000.0 1.525951000e+00 1.357181000e+00
1677000.0 1.555283000e+00 1.357010000e+00
1704000.0 1.583281000e+00 1.355722000e+00
1731000.0 1.612913000e+00 1.351140000e+00
1758000.0 1.638379000e+00 1.343628000e+00
1785000.0 1.662299000e+00 1.337329000e+00
1812000.0 1.692261000e+00 1.330677000e+00
1839000.0 1.716466000e+00 1.319392000e+00
1866000.0 1.742897000e+00 1.306556000e+00
1893000.0 1.769160000e+00 1.291641000e+00
1920000.0 1.789146000e+00 1.274424000e+00
1947000.0 1.814110000e+00 1.254935000e+00
1974000.0 1.834692000e+00 1.236808000e+00
2001000.0 1.855549000e+00 1.215420000e+00
2028000.0 1.872739000e+00 1.194217000e+00
2055000.0 1.888668000e+00 1.172233000e+00
2082000.0 1.905053000e+00 1.146358000e+00
2109000.0 1.921182000e+00 1.121599000e+00
2136000.0 1.930419000e+00 1.094830000e+00
2163000.0 1.940724000e+00 1.070640000e+00
2190000.0 1.949162000e+00 1.040500000e+00
2217000.0 1.955539000e+00 1.016573000e+00
2244000.0 1.962202000e+00 9.895390000e-01
2271000.0 1.965809000e+00 9.595210000e-01
2298000.0 1.969130000e+00 9.354920000e-01
2325000.0 1.966280000e+00 9.091750000e-01
2352000.0 1.965702000e+00 8.833730000e-01
2379000.0 1.970347000e+00 8.562040000e-01
2406000.0 1.964572000e+00 8.293960000e-01
2433000.0 1.961007000e+00 8.052350000e-01
2460000.0 1.955121000e+00 7.794460000e-01
2487000.0 1.947983000e+00 7.566130000e-01
2514000.0 1.940181000e+00 7.330840000e-01
2541000.0 1.936297000e+00 7.083350000e-01
2568000.0 1.927101000e+00 6.876430000e-01
2595000.0 1.917123000e+00 6.683780000e-01
2622000.0 1.906942000e+00 6.491970000e-01
2649000.0 1.898350000e+00 6.283940000e-01
2676000.0 1.888756000e+00 6.097430000e-01
2703000.0 1.878526000e+00 5.907000000e-01
2730000.0 1.865868000e+00 5.755010000e-01
2757000.0 1.857191000e+00 5.563480000e-01
2784000.0 1.845618000e+00 5.419430000e-01
2811000.0 1.830683000e+00 5.261320000e-01
2838000.0 1.821404000e+00 5.094650000e-01
2865000.0 1.807369000e+00 4.964700000e-01
2892000.0 1.795439000e+00 4.815770000e-01
2919000.0 1.784144000e+00 4.681930000e-01
2946000.0 1.773904000e+00 4.573070000e-01
2973000.0 1.761775000e+00 4.444590000e-01
3000000.0 1.750087000e+00 4.323100000e-01
3270000.0 1.641097000e+00 3.354750000e-01
3540000.0 1.545803000e+00 2.644990000e-01
3810000.0 1.468957000e+00 2.092570000e-01
4080000.0 1.407749000e+00 1.614240000e-01
4350000.0 1.358245000e+00 1.212840000e-01
4620000.0 1.322048000e+00 7.749700000e-02
4890000.0 1.294858000e+00 3.990600000e-02
5160000.0 1.267787000e+00 2.441000000e-03
5430000.0 1.257811000e+00 -3.355200000e-02
5700000.0 1.246418000e+00 -6.761400000e-02
5970000.0 1.236864000e+00 -9.937000000e-02
6240000.0 1.231823000e+00 -1.284180000e-01
6510000.0 1.226258000e+00 -1.525450000e-01
6780000.0 1.223406000e+00 -1.724520000e-01
7050000.0 1.219588000e+00 -1.864620000e-01
7320000.0 1.220313000e+00 -1.931750000e-01
7590000.0 -2.441510000e-01 -1.258518000e+00
7860000.0 -2.390020000e-01 -1.260143000e+00
8130000.0 -2.385500000e-01 -1.261518000e+00
8400000.0 -2.352940000e-01 -1.262155000e+00
8670000.0 -2.335270000e-01 -1.263928000e+00
8940000.0 -2.313720000e-01 -1.266200000e+00
9210000.0 -2.295690000e-01 -1.267477000e+00
9480000.0 -2.275080000e-01 -1.270743000e+00
9750000.0 -2.263500000e-01 -1.272616000e+00
10020000.0 -2.251600000e-01 -1.274908000e+00
10290000.0 -2.222860000e-01 -1.277660000e+00
10560000.0 -2.193060000e-01 -1.280654000e+00
10830000.0 -2.191170000e-01 -1.282240000e+00
11100000.0 -2.167020000e-01 -1.284910000e+00
11370000.0 -2.157070000e-01 -1.289383000e+00
11640000.0 -2.130090000e-01 -1.291973000e+00
11910000.0 -2.128390000e-01 -1.294642000e+00
12180000.0 -2.107820000e-01 -1.297998000e+00
12450000.0 -2.089400000e-01 -1.300926000e+00
12720000.0 -2.075720000e-01 -1.304019000e+00
12990000.0 -2.051800000e-01 -1.307282000e+00
13260000.0 -2.033860000e-01 -1.309332000e+00
13530000.0 -2.017760000e-01 -1.313285000e+00
13800000.0 -1.990820000e-01 -1.317528000e+00
14070000.0 -1.972940000e-01 -1.320367000e+00
14340000.0 -1.955340000e-01 -1.322866000e+00
14610000.0 -1.950230000e-01 -1.326509000e+00
14880000.0 -1.933740000e-01 -1.331019000e+00
15150000.0 -1.898010000e-01 -1.334249000e+00
15420000.0 -1.877300000e-01 -1.336339000e+00
15690000.0 -1.866490000e-01 -1.341084000e+00
15960000.0 -1.837090000e-01 -1.345608000e+00
16230000.0 -1.830000000e-01 -1.348062000e+00
16500000.0 -1.809310000e-01 -1.350604000e+00
16770000.0 -1.787410000e-01 -1.354627000e+00
17040000.0 -1.769510000e-01 -1.358662000e+00
17310000.0 -1.742850000e-01 -1.363320000e+00
17580000.0 -1.745790000e-01 -1.365775000e+00
17850000.0 -1.706520000e-01 -1.369626000e+00
18120000.0 -1.678190000e-01 -1.371476000e+00
18390000.0 -1.650220000e-01 -1.376735000e+00
18660000.0 -1.634510000e-01 -1.380281000e+00
18930000.0 -1.605170000e-01 -1.384158000e+00
19200000.0 -1.596890000e-01 -1.386836000e+00
19470000.0 -1.576690000e-01 -1.391403000e+00
19740000.0 -1.547750000e-01 -1.395107000e+00
20010000.0 -1.520670000e-01 -1.398525000e+00
20280000.0 -1.499280000e-01 -1.403102000e+00
20550000.0 -1.463050000e-01 -1.404306000e+00
20820000.0 -1.456540000e-01 -1.409781000e+00
21090000.0 -1.419680000e-01 -1.413940000e+00
21360000.0 -1.388110000e-01 -1.416611000e+00
21630000.0 -1.373420000e-01 -1.422239000e+00
21900000.0 -1.346790000e-01 -1.425609000e+00
22170000.0 -1.322190000e-01 -1.428912000e+00
22440000.0 -1.296710000e-01 -1.433803000e+00
22710000.0 -1.268700000e-01 -1.438359000e+00
22980000.0 -1.245940000e-01 -1.440861000e+00
23250000.0 -1.202740000e-01 -1.446260000e+00
23520000.0 -1.170760000e-01 -1.449801000e+00
23790000.0 -1.155490000e-01 -1.454170000e+00
24060000.0 -1.137140000e-01 -1.457273000e+00
24330000.0 -1.084740000e-01 -1.461327000e+00
24600000.0 -1.057590000e-01 -1.465030000e+00
24870000.0 -1.031880000e-01 -1.469391000e+00
25140000.0 -9.909300000e-02 -1.474178000e+00
25410000.0 -9.757600000e-02 -1.479028000e+00
25680000.0 -9.389300000e-02 -1.481691000e+00
25950000.0 -9.106400000e-02 -1.485279000e+00
26220000.0 -8.552800000e-02 -1.490450000e+00
26490000.0 -8.412300000e-02 -1.495436000e+00
26760000.0 -8.083300000e-02 -1.499345000e+00
27030000.0 -7.801600000e-02 -1.502596000e+00
27300000.0 -7.369400000e-02 -1.507819000e+00
27570000.0 -6.964700000e-02 -1.512178000e+00
27840000.0 -6.708100000e-02 -1.515448000e+00
28110000.0 -6.228300000e-02 -1.519390000e+00
28380000.0 -5.960300000e-02 -1.524189000e+00
28650000.0 -5.471400000e-02 -1.530709000e+00
28920000.0 -5.159000000e-02 -1.534460000e+00
29190000.0 -4.658200000e-02 -1.538318000e+00
29460000.0 -4.393300000e-02 -1.541765000e+00
29730000.0 -3.928300000e-02 -1.546708000e+00
30000000.0 -3.696100000e-02 -1.551171000e+00
32700000.0 7.793000000e-03 -1.595089000e+00
35400000.0 5.493200000e-02 -1.638133000e+00
38100000.0 1.100420000e-01 -1.681799000e+00
40800000.0 1.731620000e-01 -1.725972000e+00
43500000.0 2.403230000e-01 -1.766820000e+00
46200000.0 3.165050000e-01 -1.804902000e+00
48900000.0 4.026190000e-01 -1.836385000e+00
51600000.0 4.964550000e-01 -1.862856000e+00
54300000.0 5.975210000e-01 -1.879817000e+00
57000000.0 7.049780000e-01 -1.885566000e+00
59700000.0 8.202630000e-01 -1.880620000e+00
62400000.0 9.352740000e-01 -1.861710000e+00
65100000.0 1.055393000e+00 -1.823733000e+00
67800000.0 1.168436000e+00 -1.771039000e+00
70500000.0 1.277165000e+00 -1.704622000e+00
73200000.0 1.376461000e+00 -1.622745000e+00
75900000.0 1.460134000e+00 -1.526505000e+00
78600000.0 1.530939000e+00 -1.424463000e+00
81300000.0 1.587375000e+00 -1.315054000e+00
84000000.0 1.625726000e+00 -1.202320000e+00
86700000.0 1.652573000e+00 -1.090936000e+00
89400000.0 1.662723000e+00 -9.805280000e-01
92100000.0 1.660036000e+00 -8.789710000e-01
94800000.0 1.652037000e+00 -7.831830000e-01
97500000.0 1.632565000e+00 -6.948590000e-01
100200000.0 1.610873000e+00 -6.162850000e-01
102900000.0 1.578141000e+00 -5.402110000e-01
105600000.0 1.545230000e+00 -4.733910000e-01
108300000.0 1.510316000e+00 -4.130180000e-01
111000000.0 1.473916000e+00 -3.589650000e-01
113700000.0 1.436585000e+00 -3.107320000e-01
116400000.0 1.398962000e+00 -2.683380000e-01
119100000.0 1.362184000e+00 -2.289160000e-01
121800000.0 1.326184000e+00 -1.950800000e-01
124500000.0 1.289025000e+00 -1.636400000e-01
127200000.0 1.254927000e+00 -1.355650000e-01
129900000.0 1.220388000e+00 -1.109300000e-01
132600000.0 1.187122000e+00 -8.931000000e-02
135300000.0 1.155834000e+00 -7.342000000e-02
138000000.0 1.124586000e+00 -5.591000000e-02
140700000.0 1.094703000e+00 -4.159300000e-02
143400000.0 1.067482000e+00 -2.771800000e-02
146100000.0 1.038624000e+00 -1.412300000e-02
148800000.0 1.013422000e+00 -4.354000000e-03
151500000.0 1.000323000e+00 5.220000000e-04
154200000.0 1.000497000e+00 1.550000000e-03
156900000.0 1.000360000e+00 -6.530000000e-04
159600000.0 1.001856000e+00 3.260000000e-04
162300000.0 1.003058000e+00 -4.590000000e-04
165000000.0 1.002005000e+00 1.260000000e-04
167700000.0 1.003174000e+00 -9.160000000e-04
170400000.0 1.002872000e+00 3.850000000e-04
173100000.0 1.003014000e+00 -6.110000000e-04
175800000.0 1.003471000e+00 -1.265000000e-03
178500000.0 1.003891000e+00 -8.180000000e-04
181200000.0 1.001992000e+00 -1.227000000e-03
183900000.0 1.003850000e+00 -4.250000000e-04
186600000.0 1.004151000e+00 5.690000000e-04
189300000.0 1.006414000e+00 -7.980000000e-04
192000000.0 1.005142000e+00 -2.384000000e-03
194700000.0 1.003405000e+00 -7.860000000e-04
197400000.0 1.004916000e+00 -1.653000000e-03
200100000.0 1.005280000e+00 -1.276000000e-03
202800000.0 1.004045000e+00 -6.200000000e-04
205500000.0 1.005852000e+00 -8.220000000e-04
208200000.0 1.004763000e+00 -1.238000000e-03
210900000.0 1.006040000e+00 -2.163000000e-03
213600000.0 1.005609000e+00 -3.265000000e-03
216300000.0 1.007181000e+00 -1.076000000e-03
219000000.0 1.005809000e+00 -1.942000000e-03
221700000.0 1.007123000e+00 -6.880000000e-04
224400000.0 1.005571000e+00 -1.523000000e-03
227100000.0 1.005467000e+00 -8.110000000e-04
229800000.0 1.006190000e+00 -1.302000000e-03
232500000.0 1.006197000e+00 -1.758000000e-03
235200000.0 1.006822000e+00 -1.278000000e-03
237900000.0 1.006331000e+00 -7.450000000e-04
240600000.0 1.005437000e+00 -1.568000000e-03
243300000.0 1.006871000e+00 -8.480000000e-04
246000000.0 1.006517000e+00 -2.086000000e-03
248700000.0 1.007653000e+00 -1.269000000e-03
251400000.0 1.006470000e+00 -1.232000000e-03
254100000.0 1.005572000e+00 -8.380000000e-04
256800000.0 1.003749000e+00 -6.990000000e-04
259500000.0 1.004673000e+00 -3.024000000e-03
262200000.0 1.004326000e+00 -9.530000000e-04
264900000.0 1.004973000e+00 -1.947000000e-03
267600000.0 1.005497000e+00 -9.340000000e-04
270300000.0 1.006153000e+00 -7.790000000e-04
273000000.0 1.004495000e+00 8.800000000e-05
275700000.0 1.003475000e+00 -1.505000000e-03
278400000.0 1.002661000e+00 1.104000000e-03
281100000.0 1.003779000e+00 -1.066000000e-03
283800000.0 1.002410000e+00 -1.160000000e-03
286500000.0 1.002872000e+00 -9.800000000e-04
289200000.0 1.003235000e+00 -6.520000000e-04
291900000.0 1.002509000e+00 -4.320000000e-04
294600000.0 1.003395000e+00 1.871000000e-03
297300000.0 1.002315000e+00 -6.290000000e-04
300000000.0 1.001364000e+00 -5.180000000e-04
311500000.0 1.003330000e+00 -1.652000000e-03
323000000.0 1.004337000e+00 6.080000000e-04
334500000.0 1.005899000e+00 1.260000000e-04
346000000.0 1.006088000e+00 -4.460000000e-04
357500000.0 1.007285000e+00 1.795000000e-03
369000000.0 1.006923000e+00 -3.520000000e-04
380500000.0 1.005820000e+00 -4.000000000e-06
392000000.0 1.006157000e+00 6.690000000e-04
403500000.0 1.005585000e+00 1.080000000e-04
415000000.0 1.004351000e+00 2.718000000e-03
426500000.0 1.001533000e+00 7.600000000e-05
438000000.0 1.000033000e+00 1.434000000e-03
449500000.0 9.977240000e-01 4.700000000e-05
461000000.0 1.001841000e+00 1.416000000e-03
472500000.0 1.004492000e+00 3.398000000e-03
484000000.0 1.004287000e+00 3.483000000e-03
495500000.0 1.006697000e+00 4.394000000e-03
507000000.0 1.006822000e+00 6.492000000e-03
518500000.0 1.008910000e+00 7.886000000e-03
530000000.0 1.008686000e+00 9.612000000e-03
541500000.0 1.009230000e+00 1.005800000e-02
553000000.0 1.010489000e+00 8.497000000e-03
564500000.0 1.007130000e+00 8.717000000e-03
576000000.0 1.005490000e+00 5.866000000e-03
587500000.0 1.006008000e+00 6.879000000e-03
599000000.0 1.003569000e+00 7.198000000e-03
610500000.0 1.004516000e+00 1.073400000e-02
622000000.0 8.636210000e-01 1.653600000e-02
633500000.0 1.009700000e+00 5.369000000e-03
645000000.0 1.018407000e+00 9.614000000e-03
656500000.0 1.022689000e+00 3.913200000e-02
668000000.0 1.014586000e+00 1.095100000e-02
679500000.0 1.016481000e+00 1.036100000e-02
691000000.0 1.019588000e+00 4.276400000e-02
702500000.0 1.015266000e+00 1.209500000e-02
714000000.0 1.014193000e+00 4.365500000e-02
725500000.0 1.008411000e+00 7.467000000e-03
737000000.0 1.005509000e+00 1.346000000e-03
748500000.0 9.985180000e-01 4.265000000e-03
760000000.0 1.005656000e+00 -2.388000000e-03
771500000.0 1.009621000e+00 -1.100000000e-03
783000000.0 1.011730000e+00 -4.568000000e-03
794500000.0 1.013950000e+00 -2.893000000e-03
806000000.0 1.016547000e+00 -4.174000000e-03
817500000.0 1.014661000e+00 -8.737000000e-03
829000000.0 1.018500000e+00 -8.852000000e-03
840500000.0 1.014446000e+00 -4.550000000e-03
852000000.0 1.018214000e+00 -3.430000000e-04
863500000.0 1.015121000e+00 -2.276000000e-03
875000000.0 1.011044000e+00 2.233000000e-03
886500000.0 1.004509000e+00 4.050000000e-04
898000000.0 1.002661000e+00 -9.430000000e-04
909500000.0 1.003631000e+00 2.285000000e-03
921000000.0 1.004342000e+00 -1.137000000e-03
932500000.0 1.004042000e+00 -5.501000000e-03
944000000.0 1.004406000e+00 -6.404000000e-03
955500000.0 1.003444000e+00 -3.563000000e-03
967000000.0 1.004930000e+00 -1.264300000e-02
978500000.0 1.004025000e+00 -1.023900000e-02
990000000.0 1.006165000e+00 -7.660000000e-03
1001500000.0 1.004120000e+00 -1.066400000e-02
1013000000.0 1.003697000e+00 -1.169500000e-02
1024500000.0 1.009690000e+00 -8.687000000e-03
1036000000.0 1.002657000e+00 -6.296000000e-03
1047500000.0 9.998660000e-01 -1.647000000e-03
1059000000.0 1.002401000e+00 5.294000000e-03
1070500000.0 9.994510000e-01 -4.640000000e-04
1082000000.0 1.000220000e+00 -4.327000000e-03
1093500000.0 1.005129000e+00 -5.456000000e-03
1105000000.0 1.006080000e+00 -4.295000000e-03
1116500000.0 1.006068000e+00 -1.180000000e-03
1128000000.0 1.014325000e+00 -3.230300000e-02
1139500000.0 1.004270000e+00 -4.792000000e-03
1151000000.0 1.006517000e+00 -3.692000000e-03
1162500000.0 1.001722000e+00 -3.824000000e-03
1174000000.0 1.008071000e+00 -4.333000000e-03
1185500000.0 1.004652000e+00 -4.382000000e-03
1197000000.0 1.000833000e+00 -3.411000000e-03
1208500000.0 1.004630000e+00 8.829000000e-03
1220000000.0 1.005795000e+00 -4.210000000e-04
1231500000.0 1.004639000e+00 -6.172000000e-03
1243000000.0 1.004788000e+00 -7.146000000e-03
1254500000.0 1.007874000e+00 -6.832000000e-03
1266000000.0 1.006294000e+00 3.104000000e-03
1277500000.0 1.005823000e+00 -4.536000000e-03
1289000000.0 1.003091000e+00 -8.632000000e-03
1300500000.0 1.003125000e+00 -3.872000000e-03
1312000000.0 1.005415000e+00 3.040000000e-03
1323500000.0 1.005335000e+00 6.956000000e-03
1335000000.0 1.006233000e+00 5.612000000e-03
1346500000.0 1.000257000e+00 -4.930000000e-04
1358000000.0 1.008877000e+00 9.452000000e-03
1369500000.0 1.004201000e+00 8.210000000e-03
1381000000.0 9.951680000e-01 1.153100000e-02
1392500000.0 1.008291000e+00 1.120100000e-02
1404000000.0 1.005779000e+00 3.481200000e-02
1415500000.0 1.004718000e+00 1.611900000e-02
1427000000.0 1.002514000e+00 5.531000000e-03
1438500000.0 1.004630000e+00 1.915200000e-02
1450000000.0 1.003145000e+00 1.416200000e-02
