! piloto_saltos / abierto_pausado / r10
# HZ S RI R 50
50000.0 1.006438000e+00 -7.047500000e-02
59500.0 1.006325000e+00 -5.681700000e-02
69000.0 1.002388000e+00 -4.081900000e-02
78500.0 1.002742000e+00 -2.951700000e-02
88000.0 1.001632000e+00 -1.657800000e-02
97500.0 9.996770000e-01 -5.046000000e-03
107000.0 1.000737000e+00 7.964000000e-03
116500.0 9.999260000e-01 2.105300000e-02
126000.0 1.003018000e+00 3.155800000e-02
135500.0 1.000748000e+00 4.460800000e-02
145000.0 1.000957000e+00 5.686600000e-02
154500.0 1.001936000e+00 6.976700000e-02
164000.0 1.001768000e+00 8.106000000e-02
173500.0 1.001948000e+00 9.343300000e-02
183000.0 1.003047000e+00 1.050030000e-01
192500.0 1.003839000e+00 1.159920000e-01
202000.0 1.003547000e+00 1.283220000e-01
211500.0 1.003297000e+00 1.395100000e-01
221000.0 1.004681000e+00 1.513110000e-01
230500.0 1.004025000e+00 1.625880000e-01
240000.0 7.537370000e-01 4.647400000e-02
249500.0 1.004816000e+00 1.856590000e-01
259000.0 1.005329000e+00 1.966400000e-01
268500.0 1.005869000e+00 2.081860000e-01
278000.0 1.005847000e+00 2.188760000e-01
287500.0 1.005204000e+00 2.299860000e-01
297000.0 1.005575000e+00 2.411270000e-01
306500.0 1.007387000e+00 2.517890000e-01
316000.0 1.006821000e+00 2.631590000e-01
325500.0 1.006532000e+00 2.737450000e-01
335000.0 1.007271000e+00 2.843360000e-01
344500.0 1.006050000e+00 2.953210000e-01
354000.0 1.007104000e+00 3.062360000e-01
363500.0 1.007140000e+00 3.165590000e-01
373000.0 1.007571000e+00 3.267490000e-01
382500.0 1.008351000e+00 3.379290000e-01
392000.0 1.007923000e+00 3.478700000e-01
401500.0 1.008586000e+00 3.590180000e-01
411000.0 1.008476000e+00 3.689810000e-01
420500.0 1.008917000e+00 3.790290000e-01
430000.0 1.009343000e+00 3.897090000e-01
439500.0 1.009458000e+00 3.999570000e-01
449000.0 1.010268000e+00 4.104590000e-01
458500.0 1.010638000e+00 4.199440000e-01
468000.0 1.010271000e+00 4.309930000e-01
477500.0 1.010866000e+00 4.397790000e-01
487000.0 1.010255000e+00 4.507880000e-01
496500.0 1.011555000e+00 4.609510000e-01
506000.0 1.012118000e+00 4.711780000e-01
515500.0 1.012856000e+00 4.810940000e-01
525000.0 1.012840000e+00 4.907610000e-01
534500.0 1.012803000e+00 5.000380000e-01
544000.0 1.013582000e+00 5.114940000e-01
553500.0 1.014129000e+00 5.195620000e-01
563000.0 1.015116000e+00 5.294900000e-01
572500.0 1.015237000e+00 5.396180000e-01
582000.0 1.014898000e+00 5.497080000e-01
591500.0 1.015194000e+00 5.590370000e-01
601000.0 1.015507000e+00 5.697890000e-01
610500.0 1.016645000e+00 5.788600000e-01
620000.0 1.016709000e+00 5.880000000e-01
629500.0 1.018267000e+00 5.979500000e-01
639000.0 1.019188000e+00 6.078050000e-01
648500.0 1.018780000e+00 6.177990000e-01
658000.0 1.020409000e+00 6.277390000e-01
667500.0 1.020766000e+00 6.359450000e-01
677000.0 1.021805000e+00 6.455970000e-01
686500.0 1.022212000e+00 6.560080000e-01
696000.0 1.023283000e+00 6.657040000e-01
705500.0 1.024484000e+00 6.746980000e-01
715000.0 1.025435000e+00 6.838290000e-01
724500.0 1.026132000e+00 6.938680000e-01
734000.0 1.027805000e+00 7.014360000e-01
743500.0 1.028396000e+00 7.118600000e-01
753000.0 1.029838000e+00 7.229440000e-01
762500.0 1.029771000e+00 7.312440000e-01
772000.0 1.031483000e+00 7.400960000e-01
781500.0 1.034330000e+00 7.503620000e-01
791000.0 1.033574000e+00 7.581140000e-01
800500.0 1.036855000e+00 7.678580000e-01
810000.0 1.037104000e+00 7.774330000e-01
819500.0 1.038646000e+00 7.864460000e-01
829000.0 1.040069000e+00 7.958880000e-01
838500.0 1.040291000e+00 8.047550000e-01
848000.0 1.043756000e+00 8.138400000e-01
857500.0 1.045536000e+00 8.229890000e-01
867000.0 1.045856000e+00 8.311790000e-01
876500.0 1.049515000e+00 8.414910000e-01
886000.0 1.051520000e+00 8.497130000e-01
895500.0 1.052192000e+00 8.575220000e-01
905000.0 1.053940000e+00 8.670810000e-01
914500.0 1.056145000e+00 8.775700000e-01
924000.0 1.058694000e+00 8.842260000e-01
933500.0 1.061602000e+00 8.941370000e-01
943000.0 1.064161000e+00 9.028430000e-01
952500.0 1.065412000e+00 9.114460000e-01
962000.0 1.066189000e+00 9.201770000e-01
971500.0 1.070847000e+00 9.294390000e-01
981000.0 1.073324000e+00 9.392020000e-01
990500.0 1.060629000e+00 9.677750000e-01
1000000.0 1.092580000e+00 9.357700000e-01
1090000.0 1.106498000e+00 1.036140000e+00
1180000.0 1.145571000e+00 1.110957000e+00
1270000.0 1.193712000e+00 1.182515000e+00
1360000.0 1.253457000e+00 1.244811000e+00
1450000.0 1.323325000e+00 1.296047000e+00
1540000.0 1.403595000e+00 1.330937000e+00
1630000.0 1.490443000e+00 1.353564000e+00
1720000.0 1.578924000e+00 1.356945000e+00
1810000.0 1.669907000e+00 1.338084000e+00
1900000.0 1.754256000e+00 1.295613000e+00
1990000.0 1.830757000e+00 1.237557000e+00
2080000.0 1.889570000e+00 1.164523000e+00
2170000.0 1.935753000e+00 1.083016000e+00
2260000.0 1.955160000e+00 9.936570000e-01
2350000.0 1.967873000e+00 9.033470000e-01
2440000.0 1.959302000e+00 8.136010000e-01
2530000.0 1.940990000e+00 7.324380000e-01
2620000.0 1.912777000e+00 6.627530000e-01
2710000.0 1.882194000e+00 5.973550000e-01
2800000.0 1.844943000e+00 5.395830000e-01
2890000.0 1.805349000e+00 4.900560000e-01
2980000.0 1.766519000e+00 4.479030000e-01
3070000.0 1.728105000e+00 4.104360000e-01
3160000.0 1.689659000e+00 3.756730000e-01
3250000.0 1.654027000e+00 3.450470000e-01
3340000.0 1.620918000e+00 3.191240000e-01
3430000.0 1.588125000e+00 2.928500000e-01
3520000.0 1.555741000e+00 2.726350000e-01
3610000.0 1.529056000e+00 2.492960000e-01
3700000.0 1.502280000e+00 2.327980000e-01
3790000.0 1.477673000e+00 2.138990000e-01
3880000.0 1.455000000e+00 1.978810000e-01
3970000.0 1.434204000e+00 1.807690000e-01
4060000.0 1.416374000e+00 1.665550000e-01
4150000.0 1.396654000e+00 1.512750000e-01
4240000.0 1.380223000e+00 1.368770000e-01
4330000.0 1.364872000e+00 1.223360000e-01
4420000.0 1.349126000e+00 1.088860000e-01
4510000.0 1.338071000e+00 9.370500000e-02
4600000.0 1.325924000e+00 8.100600000e-02
4690000.0 1.316403000e+00 6.814800000e-02
4780000.0 1.306654000e+00 5.549700000e-02
4870000.0 1.298821000e+00 4.266200000e-02
4960000.0 1.292048000e+00 3.001200000e-02
5050000.0 1.276627000e+00 1.682300000e-02
5140000.0 1.270296000e+00 4.634000000e-03
5230000.0 1.267600000e+00 -7.076000000e-03
5320000.0 1.263199000e+00 -2.020800000e-02
5410000.0 1.259691000e+00 -3.071700000e-02
5500000.0 1.255870000e+00 -4.254500000e-02
5590000.0 1.252759000e+00 -5.469500000e-02
5680000.0 1.248412000e+00 -6.471500000e-02
5770000.0 1.247008000e+00 -7.668900000e-02
5860000.0 1.242032000e+00 -8.757200000e-02
5950000.0 1.239000000e+00 -9.770000000e-02
6040000.0 1.235985000e+00 -1.085030000e-01
6130000.0 1.235168000e+00 -1.177640000e-01
6220000.0 1.233370000e+00 -1.266690000e-01
6310000.0 1.230277000e+00 -1.355410000e-01
6400000.0 1.228095000e+00 -1.436380000e-01
6490000.0 1.227282000e+00 -1.516020000e-01
6580000.0 1.224712000e+00 -1.590980000e-01
6670000.0 1.223815000e+00 -1.658920000e-01
6760000.0 1.222736000e+00 -1.703910000e-01
6850000.0 1.222389000e+00 -1.778770000e-01
6940000.0 1.221145000e+00 -1.815880000e-01
7030000.0 1.219851000e+00 -1.860930000e-01
7120000.0 1.219213000e+00 -1.890230000e-01
7210000.0 1.219980000e+00 -1.909470000e-01
7300000.0 1.218444000e+00 -1.931910000e-01
7390000.0 1.218831000e+00 -1.930580000e-01
7480000.0 1.219568000e+00 -1.943100000e-01
7570000.0 -2.430450000e-01 -1.259300000e+00
7660000.0 -2.406050000e-01 -1.259702000e+00
7750000.0 -2.410720000e-01 -1.258848000e+00
7840000.0 -2.406910000e-01 -1.259772000e+00
7930000.0 -2.396270000e-01 -1.260281000e+00
8020000.0 -2.391190000e-01 -1.260573000e+00
8110000.0 -2.384800000e-01 -1.261741000e+00
8200000.0 -2.372900000e-01 -1.262831000e+00
8290000.0 -2.370430000e-01 -1.262360000e+00
8380000.0 -2.365900000e-01 -1.263406000e+00
8470000.0 -2.357740000e-01 -1.263501000e+00
8560000.0 -2.355950000e-01 -1.264343000e+00
8650000.0 -2.343730000e-01 -1.264379000e+00
8740000.0 -2.332090000e-01 -1.265341000e+00
8830000.0 -2.327430000e-01 -1.266363000e+00
8920000.0 -2.322980000e-01 -1.266075000e+00
9010000.0 -2.321620000e-01 -1.267644000e+00
9100000.0 -2.316490000e-01 -1.267260000e+00
9190000.0 -2.305930000e-01 -1.269531000e+00
9280000.0 -2.289720000e-01 -1.269786000e+00
9370000.0 -2.295000000e-01 -1.270777000e+00
9460000.0 -2.286230000e-01 -1.270952000e+00
9550000.0 -2.278370000e-01 -1.271816000e+00
9640000.0 -2.277840000e-01 -1.272522000e+00
9730000.0 -2.262330000e-01 -1.273183000e+00
9820000.0 -2.272300000e-01 -1.273152000e+00
9910000.0 -2.255440000e-01 -1.275278000e+00
10000000.0 -2.240490000e-01 -1.275522000e+00
10900000.0 -1.945780000e-01 -1.289265000e+00
11800000.0 -2.365870000e-01 -1.287856000e+00
12700000.0 -2.062570000e-01 -1.303955000e+00
13600000.0 -2.009450000e-01 -1.315569000e+00
14500000.0 -1.939300000e-01 -1.326484000e+00
15400000.0 -1.880060000e-01 -1.337179000e+00
16300000.0 -1.810070000e-01 -1.348838000e+00
17200000.0 -1.755980000e-01 -1.360862000e+00
18100000.0 -1.690590000e-01 -1.372620000e+00
19000000.0 -1.608400000e-01 -1.385112000e+00
19900000.0 -1.534750000e-01 -1.397984000e+00
20800000.0 -1.455000000e-01 -1.410589000e+00
21700000.0 -1.360810000e-01 -1.423845000e+00
22600000.0 -1.273340000e-01 -1.436863000e+00
23500000.0 -1.192330000e-01 -1.450014000e+00
24400000.0 -1.078340000e-01 -1.463701000e+00
25300000.0 -9.720000000e-02 -1.477445000e+00
26200000.0 -8.705400000e-02 -1.490606000e+00
27100000.0 -7.531500000e-02 -1.504164000e+00
28000000.0 -6.418600000e-02 -1.518815000e+00
28900000.0 -5.111400000e-02 -1.533574000e+00
29800000.0 -3.871900000e-02 -1.547776000e+00
30700000.0 -2.547700000e-02 -1.563270000e+00
31600000.0 -1.125700000e-02 -1.575767000e+00
32500000.0 3.829000000e-03 -1.590373000e+00
33400000.0 1.839800000e-02 -1.607117000e+00
34300000.0 3.487800000e-02 -1.620080000e+00
35200000.0 5.229600000e-02 -1.635809000e+00
36100000.0 6.764600000e-02 -1.649507000e+00
37000000.0 8.575200000e-02 -1.663518000e+00
37900000.0 1.051920000e-01 -1.679538000e+00
38800000.0 1.252180000e-01 -1.695214000e+00
39700000.0 1.455910000e-01 -1.708481000e+00
40600000.0 1.676140000e-01 -1.722712000e+00
41500000.0 1.892710000e-01 -1.735906000e+00
42400000.0 2.114300000e-01 -1.750023000e+00
43300000.0 2.353030000e-01 -1.762964000e+00
44200000.0 2.596120000e-01 -1.776403000e+00
45100000.0 2.850290000e-01 -1.788916000e+00
46000000.0 3.112100000e-01 -1.800800000e+00
46900000.0 3.395070000e-01 -1.812119000e+00
47800000.0 3.676580000e-01 -1.823454000e+00
48700000.0 3.958450000e-01 -1.834248000e+00
49600000.0 4.261150000e-01 -1.843559000e+00
50500000.0 4.563710000e-01 -1.852471000e+00
51400000.0 4.892060000e-01 -1.859065000e+00
52300000.0 5.206070000e-01 -1.866716000e+00
53200000.0 5.535680000e-01 -1.871784000e+00
54100000.0 5.903580000e-01 -1.877937000e+00
55000000.0 6.249610000e-01 -1.882367000e+00
55900000.0 6.596950000e-01 -1.883206000e+00
56800000.0 6.972620000e-01 -1.885377000e+00
57700000.0 7.356360000e-01 -1.884621000e+00
58600000.0 7.731780000e-01 -1.885132000e+00
59500000.0 8.106730000e-01 -1.881539000e+00
60400000.0 8.495300000e-01 -1.876505000e+00
61300000.0 8.870970000e-01 -1.870463000e+00
62200000.0 9.268450000e-01 -1.861718000e+00
63100000.0 9.660480000e-01 -1.853044000e+00
64000000.0 1.005110000e+00 -1.841864000e+00
64900000.0 1.046179000e+00 -1.826841000e+00
65800000.0 1.084537000e+00 -1.812086000e+00
66700000.0 1.121847000e+00 -1.795763000e+00
67600000.0 1.159757000e+00 -1.777386000e+00
68500000.0 1.195608000e+00 -1.756416000e+00
69400000.0 1.232717000e+00 -1.732051000e+00
70300000.0 1.268726000e+00 -1.711453000e+00
71200000.0 1.302198000e+00 -1.684793000e+00
72100000.0 1.336012000e+00 -1.657702000e+00
73000000.0 1.368878000e+00 -1.628479000e+00
73900000.0 1.398349000e+00 -1.598189000e+00
74800000.0 1.429465000e+00 -1.567124000e+00
75700000.0 1.455249000e+00 -1.534251000e+00
76600000.0 1.481204000e+00 -1.501369000e+00
77500000.0 1.505033000e+00 -1.467375000e+00
78400000.0 1.528206000e+00 -1.431631000e+00
79300000.0 1.550027000e+00 -1.393469000e+00
80200000.0 1.567130000e+00 -1.358016000e+00
81100000.0 1.584524000e+00 -1.322526000e+00
82000000.0 1.597962000e+00 -1.284486000e+00
82900000.0 1.615083000e+00 -1.248056000e+00
83800000.0 1.624024000e+00 -1.209637000e+00
84700000.0 1.635936000e+00 -1.174943000e+00
85600000.0 1.644307000e+00 -1.136671000e+00
86500000.0 1.651281000e+00 -1.100549000e+00
87400000.0 1.658488000e+00 -1.061685000e+00
88300000.0 1.660650000e+00 -1.027153000e+00
89200000.0 1.663404000e+00 -9.906250000e-01
90100000.0 1.664261000e+00 -9.568950000e-01
91000000.0 1.663614000e+00 -9.219770000e-01
91900000.0 1.662294000e+00 -8.872950000e-01
92800000.0 1.660865000e+00 -8.538190000e-01
93700000.0 1.655656000e+00 -8.241390000e-01
94600000.0 1.652469000e+00 -7.910250000e-01
95500000.0 1.646794000e+00 -7.615290000e-01
96400000.0 1.642256000e+00 -7.319570000e-01
97300000.0 1.634519000e+00 -7.015020000e-01
98200000.0 1.626564000e+00 -6.743440000e-01
99100000.0 1.618669000e+00 -6.476980000e-01
100000000.0 1.608210000e+00 -6.203940000e-01
109000000.0 1.502113000e+00 -4.005470000e-01
118000000.0 1.376837000e+00 -2.435460000e-01
127000000.0 1.256294000e+00 -1.389250000e-01
136000000.0 1.147524000e+00 -6.968500000e-02
145000000.0 1.049109000e+00 -1.922200000e-02
154000000.0 1.000254000e+00 1.670000000e-04
163000000.0 1.001167000e+00 5.570000000e-04
172000000.0 1.002385000e+00 -2.910000000e-04
181000000.0 1.003717000e+00 -1.041000000e-03
190000000.0 1.004865000e+00 -5.090000000e-04
199000000.0 1.004713000e+00 -1.617000000e-03
208000000.0 1.005453000e+00 -1.240000000e-03
217000000.0 1.006672000e+00 -2.105000000e-03
226000000.0 1.006577000e+00 -1.657000000e-03
235000000.0 1.006323000e+00 -1.120000000e-03
244000000.0 1.005668000e+00 -1.224000000e-03
253000000.0 1.005982000e+00 -2.334000000e-03
262000000.0 1.005392000e+00 -1.330000000e-03
271000000.0 1.004934000e+00 -1.265000000e-03
280000000.0 1.003944000e+00 -2.600000000e-04
289000000.0 1.003134000e+00 -3.870000000e-04
298000000.0 1.002330000e+00 -8.160000000e-04
307000000.0 1.003694000e+00 9.400000000e-05
316000000.0 1.004415000e+00 7.060000000e-04
325000000.0 1.003896000e+00 4.030000000e-04
334000000.0 1.004765000e+00 2.344000000e-03
343000000.0 1.005009000e+00 -4.380000000e-04
352000000.0 1.005769000e+00 -1.085000000e-03
361000000.0 1.029997000e+00 3.154600000e-02
370000000.0 1.005265000e+00 -2.450000000e-04
379000000.0 1.006129000e+00 1.039000000e-03
388000000.0 1.005326000e+00 2.358000000e-03
397000000.0 1.002002000e+00 -3.649000000e-02
406000000.0 1.005445000e+00 5.200000000e-04
415000000.0 1.001114000e+00 -3.453600000e-02
424000000.0 1.003855000e+00 1.645000000e-03
433000000.0 1.002579000e+00 1.295000000e-03
442000000.0 9.995690000e-01 3.900000000e-05
451000000.0 9.999910000e-01 -1.200000000e-04
460000000.0 1.000411000e+00 -2.270000000e-04
469000000.0 1.002414000e+00 2.644000000e-03
478000000.0 1.004509000e+00 3.698000000e-03
487000000.0 1.006353000e+00 5.139000000e-03
496000000.0 1.006875000e+00 3.640000000e-03
505000000.0 1.008169000e+00 7.676000000e-03
514000000.0 1.007397000e+00 7.126000000e-03
523000000.0 1.009012000e+00 1.063000000e-02
532000000.0 1.009229000e+00 6.729000000e-03
541000000.0 1.010655000e+00 8.304000000e-03
550000000.0 1.010163000e+00 7.871000000e-03
559000000.0 1.007466000e+00 7.182000000e-03
568000000.0 1.007887000e+00 7.669000000e-03
577000000.0 1.004546000e+00 7.348000000e-03
586000000.0 1.006276000e+00 8.726000000e-03
595000000.0 1.004461000e+00 8.047000000e-03
604000000.0 1.002573000e+00 5.255000000e-03
613000000.0 1.004858000e+00 9.436000000e-03
622000000.0 1.011664000e+00 7.579000000e-03
631000000.0 1.011841000e+00 4.276000000e-03
640000000.0 1.014482000e+00 1.281600000e-02
649000000.0 1.015192000e+00 7.578000000e-03
658000000.0 1.017120000e+00 1.140800000e-02
667000000.0 1.020867000e+00 8.666000000e-03
676000000.0 1.017214000e+00 7.419000000e-03
685000000.0 1.014331000e+00 9.472000000e-03
694000000.0 1.016266000e+00 5.244000000e-03
703000000.0 1.016826000e+00 7.584000000e-03
712000000.0 1.014468000e+00 3.805000000e-03
721000000.0 1.011957000e+00 7.167000000e-03
730000000.0 1.006397000e+00 5.318000000e-03
739000000.0 1.007402000e+00 -3.860000000e-04
748000000.0 9.996310000e-01 2.184000000e-03
757000000.0 1.001068000e+00 3.629000000e-03
766000000.0 1.007072000e+00 4.490000000e-04
775000000.0 1.009157000e+00 -5.583000000e-03
784000000.0 1.010660000e+00 -5.775000000e-03
793000000.0 1.014999000e+00 -4.713000000e-03
802000000.0 1.017229000e+00 -2.366000000e-03
811000000.0 1.018552000e+00 -2.534000000e-03
820000000.0 1.017837000e+00 -6.471000000e-03
829000000.0 1.014487000e+00 -6.993000000e-03
838000000.0 1.017079000e+00 -9.743000000e-03
847000000.0 1.015202000e+00 -2.256000000e-03
856000000.0 1.016134000e+00 -6.971000000e-03
865000000.0 1.013144000e+00 -3.631000000e-03
874000000.0 1.011790000e+00 -1.720000000e-03
883000000.0 1.004010000e+00 -1.016000000e-03
892000000.0 1.006392000e+00 3.090000000e-04
901000000.0 1.002336000e+00 -2.142000000e-03
910000000.0 1.004956000e+00 -3.569000000e-03
919000000.0 1.000939000e+00 -2.292000000e-03
928000000.0 1.002115000e+00 -4.259000000e-03
937000000.0 1.004991000e+00 -4.919000000e-03
946000000.0 1.004331000e+00 -1.092100000e-02
955000000.0 1.003683000e+00 -2.228400000e-02
964000000.0 1.003508000e+00 -1.094500000e-02
973000000.0 1.002266000e+00 -5.931000000e-03
982000000.0 1.007219000e+00 -7.598000000e-03
991000000.0 1.003475000e+00 -2.936700000e-02
1000000000.0 1.004504000e+00 -9.558000000e-03
1004500000.0 1.003506000e+00 -6.688000000e-03
1009000000.0 1.004261000e+00 -4.918000000e-03
1013500000.0 1.001178000e+00 -7.088000000e-03
1018000000.0 1.004907000e+00 -3.656000000e-03
1022500000.0 1.002553000e+00 -7.175000000e-03
1027000000.0 1.001881000e+00 -3.845000000e-03
1031500000.0 1.001740000e+00 -4.661000000e-03
1036000000.0 1.002852000e+00 -3.060000000e-03
1040500000.0 1.001566000e+00 3.033000000e-03
1045000000.0 9.995200000e-01 -2.959000000e-03
1049500000.0 1.001242000e+00 -1.314000000e-03
1054000000.0 9.993790000e-01 -2.660000000e-03
1058500000.0 1.001878000e+00 2.680000000e-03
1063000000.0 1.003377000e+00 -1.832000000e-03
1067500000.0 1.001834000e+00 -6.250000000e-04
1072000000.0 9.982220000e-01 -5.276000000e-03
1076500000.0 9.999910000e-01 -1.697000000e-03
1081000000.0 1.003139000e+00 -3.060000000e-03
1085500000.0 1.005174000e+00 -3.330000000e-03
1090000000.0 1.000594000e+00 -3.617000000e-03
1094500000.0 1.004554000e+00 -8.400000000e-03
1099000000.0 1.002346000e+00 -3.783000000e-03
1103500000.0 1.002187000e+00 -1.854000000e-03
1108000000.0 1.002069000e+00 -1.889000000e-03
1112500000.0 1.006652000e+00 -8.326000000e-03
1117000000.0 1.005029000e+00 -1.282400000e-02
1121500000.0 9.670090000e-01 -7.372200000e-02
1126000000.0 1.003226000e+00 -8.550000000e-04
1130500000.0 1.002198000e+00 2.731000000e-03
1135000000.0 1.006564000e+00 -5.549000000e-03
1139500000.0 1.005240000e+00 1.700000000e-03
1144000000.0 1.002559000e+00 -9.879000000e-03
1148500000.0 1.000967000e+00 -6.126000000e-03
1153000000.0 1.002910000e+00 -1.147600000e-02
1157500000.0 1.003293000e+00 1.564900000e-02
1162000000.0 1.004219000e+00 -5.367000000e-03
1166500000.0 1.005794000e+00 -6.546000000e-03
1171000000.0 1.004679000e+00 -6.946000000e-03
1175500000.0 1.001570000e+00 -6.816000000e-03
1180000000.0 1.006574000e+00 -3.298000000e-03
1184500000.0 1.002601000e+00 -2.514000000e-03
1189000000.0 1.008554000e+00 -2.768000000e-03
1193500000.0 1.005752000e+00 2.578000000e-03
1198000000.0 1.001833000e+00 -1.073500000e-02
1202500000.0 1.003878000e+00 -7.130000000e-04
1207000000.0 1.002756000e+00 1.650000000e-04
1211500000.0 1.004729000e+00 -1.529000000e-03
1216000000.0 1.002110000e+00 -5.188000000e-03
1220500000.0 1.005066000e+00 3.819000000e-03
1225000000.0 9.997960000e-01 -1.095700000e-02
1229500000.0 1.009500000e+00 -1.606000000e-03
1234000000.0 1.006424000e+00 -1.559000000e-03
1238500000.0 1.005993000e+00 -9.492000000e-03
1243000000.0 1.005257000e+00 -1.262000000e-03
1247500000.0 1.005752000e+00 1.553000000e-03
1252000000.0 1.002764000e+00 -8.148000000e-03
1256500000.0 1.003494000e+00 -3.561000000e-03
1261000000.0 1.006566000e+00 5.874000000e-03
1265500000.0 1.009737000e+00 3.401000000e-03
1270000000.0 1.005964000e+00 -2.556000000e-03
1274500000.0 1.006400000e+00 1.106400000e-02
1279000000.0 1.002507000e+00 -6.736000000e-03
1283500000.0 1.001098000e+00 2.188000000e-03
1288000000.0 1.008633000e+00 -2.959000000e-03
1292500000.0 9.969850000e-01 1.634000000e-03
1297000000.0 1.006077000e+00 -3.636000000e-03
1301500000.0 1.004947000e+00 -1.113000000e-03
1306000000.0 9.991590000e-01 -6.441000000e-03
1310500000.0 1.004643000e+00 4.340000000e-03
1315000000.0 1.005402000e+00 4.269000000e-03
1319500000.0 1.004437000e+00 4.694000000e-03
1324000000.0 9.998300000e-01 -4.850000000e-04
1328500000.0 1.003275000e+00 1.818000000e-03
1333000000.0 1.005174000e+00 5.332000000e-03
1337500000.0 1.004810000e+00 2.115000000e-03
1342000000.0 1.002363000e+00 2.300000000e-04
1346500000.0 1.008386000e+00 -1.070000000e-03
1351000000.0 1.001498000e+00 8.498000000e-03
1355500000.0 1.002625000e+00 -5.220000000e-04
1360000000.0 1.004842000e+00 6.243000000e-03
1364500000.0 1.009874000e+00 3.228000000e-03
1369000000.0 1.012421000e+00 6.925000000e-03
1373500000.0 1.002021000e+00 6.632000000e-03
1378000000.0 1.006462000e+00 5.608000000e-03
1382500000.0 1.004901000e+00 2.761000000e-03
1387000000.0 1.000309000e+00 1.149800000e-02
1391500000.0 1.000397000e+00 1.251600000e-02
1396000000.0 1.007847000e+00 1.207000000e-02
1400500000.0 1.006606000e+00 9.262000000e-03
1405000000.0 9.981260000e-01 1.660000000e-02
1409500000.0 9.994970000e-01 8.648000000e-03
1414000000.0 1.008537000e+00 1.253300000e-02
1418500000.0 1.009041000e+00 1.207700000e-02
1423000000.0 1.002121000e+00 9.034000000e-03
1427500000.0 1.001703000e+00 2.325000000e-02
1432000000.0 1.000367000e+00 1.591700000e-02
1436500000.0 1.002262000e+00 1.543600000e-02
1441000000.0 1.005359000e+00 1.458400000e-02
1445500000.0 1.002101000e+00 2.463900000e-02
1450000000.0 1.001645000e+00 1.315300000e-02
