! piloto_saltos / abierto_101puntos / r06
# HZ S RI R 50
50000.0 1.005424000e+00 -7.038700000e-02
59500.0 1.003362000e+00 -5.645100000e-02
69000.0 1.003306000e+00 -4.125700000e-02
78500.0 1.002409000e+00 -2.827300000e-02
88000.0 1.000870000e+00 -1.656500000e-02
97500.0 1.000354000e+00 -3.325000000e-03
107000.0 1.000620000e+00 8.606000000e-03
116500.0 1.000517000e+00 2.121000000e-02
126000.0 9.981610000e-01 3.484400000e-02
135500.0 1.001238000e+00 4.676000000e-02
145000.0 1.000984000e+00 5.754900000e-02
154500.0 1.001718000e+00 6.987000000e-02
164000.0 1.002537000e+00 8.221500000e-02
173500.0 1.002415000e+00 9.420900000e-02
183000.0 1.002710000e+00 1.058500000e-01
192500.0 1.003869000e+00 1.177490000e-01
202000.0 1.003922000e+00 1.300590000e-01
211500.0 1.003535000e+00 1.407560000e-01
221000.0 1.003962000e+00 1.524450000e-01
230500.0 1.004780000e+00 1.641130000e-01
240000.0 1.005489000e+00 1.754000000e-01
249500.0 1.004891000e+00 1.875940000e-01
259000.0 1.005428000e+00 1.978250000e-01
268500.0 1.005883000e+00 2.096660000e-01
278000.0 1.006412000e+00 2.204880000e-01
287500.0 1.006932000e+00 2.314510000e-01
297000.0 1.006484000e+00 2.428750000e-01
306500.0 1.006406000e+00 2.529050000e-01
316000.0 1.006773000e+00 2.645330000e-01
325500.0 1.007461000e+00 2.753480000e-01
335000.0 1.007027000e+00 2.855880000e-01
344500.0 1.007584000e+00 2.972140000e-01
354000.0 1.009407000e+00 3.070880000e-01
363500.0 1.007595000e+00 3.187510000e-01
373000.0 1.007534000e+00 3.284970000e-01
382500.0 1.008715000e+00 3.392160000e-01
392000.0 1.008428000e+00 3.493130000e-01
401500.0 1.008792000e+00 3.603780000e-01
411000.0 1.009734000e+00 3.705230000e-01
420500.0 1.010941000e+00 3.817180000e-01
430000.0 1.010113000e+00 3.914010000e-01
439500.0 1.009719000e+00 4.025390000e-01
449000.0 1.011204000e+00 4.121220000e-01
458500.0 1.011401000e+00 4.221200000e-01
468000.0 1.011006000e+00 4.320720000e-01
477500.0 1.010937000e+00 4.431840000e-01
487000.0 1.012313000e+00 4.528380000e-01
496500.0 1.012362000e+00 4.634900000e-01
506000.0 1.012784000e+00 4.723260000e-01
515500.0 1.012836000e+00 4.833020000e-01
525000.0 1.012659000e+00 4.932310000e-01
534500.0 1.013681000e+00 5.027060000e-01
544000.0 1.014098000e+00 5.126060000e-01
553500.0 1.015042000e+00 5.225890000e-01
563000.0 1.014510000e+00 5.326140000e-01
572500.0 1.015437000e+00 5.427420000e-01
582000.0 1.016760000e+00 5.512350000e-01
591500.0 1.017580000e+00 5.627730000e-01
601000.0 1.016893000e+00 5.718130000e-01
610500.0 1.018473000e+00 5.825900000e-01
620000.0 1.018950000e+00 5.910530000e-01
629500.0 1.018698000e+00 6.003220000e-01
639000.0 1.020867000e+00 6.115120000e-01
648500.0 1.019678000e+00 6.208330000e-01
658000.0 1.020973000e+00 6.305850000e-01
667500.0 1.021088000e+00 6.391340000e-01
677000.0 1.023857000e+00 6.489200000e-01
686500.0 1.023903000e+00 6.585430000e-01
696000.0 1.024660000e+00 6.670910000e-01
705500.0 1.026221000e+00 6.773530000e-01
715000.0 1.026834000e+00 6.877470000e-01
724500.0 1.027425000e+00 6.955170000e-01
734000.0 1.029371000e+00 7.065380000e-01
743500.0 1.029210000e+00 7.149610000e-01
753000.0 1.030931000e+00 7.248920000e-01
762500.0 1.031806000e+00 7.348110000e-01
772000.0 1.032259000e+00 7.437830000e-01
781500.0 1.034807000e+00 7.533910000e-01
791000.0 1.036515000e+00 7.618290000e-01
800500.0 1.036941000e+00 7.708010000e-01
810000.0 1.039082000e+00 7.803350000e-01
819500.0 1.039659000e+00 7.898560000e-01
829000.0 1.041613000e+00 7.997340000e-01
838500.0 1.042933000e+00 8.091920000e-01
848000.0 1.045516000e+00 8.172300000e-01
857500.0 1.046770000e+00 8.259940000e-01
867000.0 1.048285000e+00 8.346340000e-01
876500.0 1.051772000e+00 8.451390000e-01
886000.0 1.052407000e+00 8.536550000e-01
895500.0 1.055740000e+00 8.627610000e-01
905000.0 1.056292000e+00 8.712360000e-01
914500.0 1.058778000e+00 8.806970000e-01
924000.0 1.061830000e+00 8.902270000e-01
933500.0 1.062572000e+00 8.978910000e-01
943000.0 1.065521000e+00 9.077970000e-01
952500.0 1.067777000e+00 9.152740000e-01
962000.0 1.070069000e+00 9.263340000e-01
971500.0 1.074705000e+00 9.335110000e-01
981000.0 1.075410000e+00 9.423790000e-01
990500.0 1.078539000e+00 9.518240000e-01
1000000.0 1.080726000e+00 9.600660000e-01
1090000.0 1.110525000e+00 1.039494000e+00
1180000.0 1.150156000e+00 1.115253000e+00
1270000.0 1.201029000e+00 1.187452000e+00
1360000.0 1.242782000e+00 1.271183000e+00
1450000.0 1.351761000e+00 1.272195000e+00
1540000.0 1.392824000e+00 1.362317000e+00
1630000.0 1.520679000e+00 1.327526000e+00
1720000.0 1.570775000e+00 1.383642000e+00
1810000.0 1.677918000e+00 1.335643000e+00
1900000.0 1.748116000e+00 1.326740000e+00
1990000.0 1.842086000e+00 1.232519000e+00
2080000.0 1.884460000e+00 1.189741000e+00
2170000.0 1.939664000e+00 1.069950000e+00
2260000.0 1.964073000e+00 9.805560000e-01
2350000.0 1.972792000e+00 8.897600000e-01
2440000.0 1.959171000e+00 8.050540000e-01
2530000.0 1.943611000e+00 7.251100000e-01
2620000.0 1.911297000e+00 6.523690000e-01
2710000.0 1.877128000e+00 5.923240000e-01
2800000.0 1.839550000e+00 5.345900000e-01
2890000.0 1.876020000e+00 6.618600000e-01
2980000.0 1.760237000e+00 4.432660000e-01
3070000.0 1.721018000e+00 4.061220000e-01
3160000.0 1.686179000e+00 3.719630000e-01
3250000.0 1.649816000e+00 3.441490000e-01
3340000.0 1.617050000e+00 3.171780000e-01
3430000.0 1.583756000e+00 2.915790000e-01
3520000.0 1.554855000e+00 2.728410000e-01
3610000.0 1.526258000e+00 2.533010000e-01
3700000.0 1.499988000e+00 2.320760000e-01
3790000.0 1.475387000e+00 2.146820000e-01
3880000.0 1.452222000e+00 1.955110000e-01
3970000.0 1.430967000e+00 1.812230000e-01
4060000.0 1.411969000e+00 1.663100000e-01
4150000.0 1.395337000e+00 1.506970000e-01
4240000.0 1.376893000e+00 1.373230000e-01
4330000.0 1.363369000e+00 1.202870000e-01
4420000.0 1.349168000e+00 1.092230000e-01
4510000.0 1.336231000e+00 9.532900000e-02
4600000.0 1.325614000e+00 7.978400000e-02
4690000.0 1.315812000e+00 6.949400000e-02
4780000.0 1.305337000e+00 5.678200000e-02
4870000.0 1.297248000e+00 4.385400000e-02
4960000.0 1.290697000e+00 3.044200000e-02
5050000.0 1.275824000e+00 1.718800000e-02
5140000.0 1.271390000e+00 6.297000000e-03
5230000.0 1.267352000e+00 -6.749000000e-03
5320000.0 1.262440000e+00 -1.872200000e-02
5410000.0 1.258101000e+00 -3.078700000e-02
5500000.0 1.254243000e+00 -4.340900000e-02
5590000.0 1.250183000e+00 -5.418400000e-02
5680000.0 1.248434000e+00 -6.592600000e-02
5770000.0 1.245380000e+00 -7.587100000e-02
5860000.0 1.241509000e+00 -8.660800000e-02
5950000.0 1.238902000e+00 -9.663300000e-02
6040000.0 1.235711000e+00 -1.076880000e-01
6130000.0 1.233716000e+00 -1.170840000e-01
6220000.0 1.232422000e+00 -1.266920000e-01
6310000.0 1.230684000e+00 -1.344660000e-01
6400000.0 1.228315000e+00 -1.433480000e-01
6490000.0 1.226206000e+00 -1.518810000e-01
6580000.0 1.224626000e+00 -1.595340000e-01
6670000.0 1.223079000e+00 -1.654880000e-01
6760000.0 1.223030000e+00 -1.705680000e-01
6850000.0 1.221563000e+00 -1.769680000e-01
6940000.0 1.220665000e+00 -1.805480000e-01
7030000.0 1.219841000e+00 -1.847810000e-01
7120000.0 1.220408000e+00 -1.890820000e-01
7210000.0 1.218799000e+00 -1.917120000e-01
7300000.0 1.218707000e+00 -1.913720000e-01
7390000.0 1.219440000e+00 -1.934240000e-01
7480000.0 1.218864000e+00 -1.936040000e-01
7570000.0 -2.430690000e-01 -1.257817000e+00
7660000.0 -2.426650000e-01 -1.259312000e+00
7750000.0 -2.410940000e-01 -1.260332000e+00
7840000.0 -2.406930000e-01 -1.260462000e+00
7930000.0 -2.384890000e-01 -1.260209000e+00
8020000.0 -2.381410000e-01 -1.261034000e+00
8110000.0 -2.381510000e-01 -1.260153000e+00
8200000.0 -2.372230000e-01 -1.261941000e+00
8290000.0 -2.372660000e-01 -1.260530000e+00
8380000.0 -2.360040000e-01 -1.263076000e+00
8470000.0 -2.350210000e-01 -1.263246000e+00
8560000.0 -2.343760000e-01 -1.262750000e+00
8650000.0 -2.349200000e-01 -1.265179000e+00
8740000.0 -2.338440000e-01 -1.265291000e+00
8830000.0 -2.342940000e-01 -1.265190000e+00
8920000.0 -2.333020000e-01 -1.265433000e+00
9010000.0 -2.313660000e-01 -1.267274000e+00
9100000.0 -2.307340000e-01 -1.268440000e+00
9190000.0 -2.291540000e-01 -1.269029000e+00
9280000.0 -2.289320000e-01 -1.270288000e+00
9370000.0 -2.294140000e-01 -1.269910000e+00
9460000.0 -2.269170000e-01 -1.270227000e+00
9550000.0 -2.267360000e-01 -1.271467000e+00
9640000.0 -2.265790000e-01 -1.271876000e+00
9730000.0 -2.258690000e-01 -1.273160000e+00
9820000.0 -2.254700000e-01 -1.274893000e+00
9910000.0 -2.250690000e-01 -1.274709000e+00
10000000.0 -2.229570000e-01 -1.274569000e+00
10900000.0 -2.193950000e-01 -1.283582000e+00
11800000.0 -2.123420000e-01 -1.295561000e+00
12700000.0 -2.069170000e-01 -1.305399000e+00
13600000.0 -1.999650000e-01 -1.313704000e+00
14500000.0 -1.958550000e-01 -1.325906000e+00
15400000.0 -1.886850000e-01 -1.337385000e+00
16300000.0 -1.811470000e-01 -1.348931000e+00
17200000.0 -1.757000000e-01 -1.360341000e+00
18100000.0 -1.692550000e-01 -1.371341000e+00
19000000.0 -1.606030000e-01 -1.385289000e+00
19900000.0 -1.531320000e-01 -1.396794000e+00
20800000.0 -1.445070000e-01 -1.410167000e+00
21700000.0 -1.374610000e-01 -1.423640000e+00
22600000.0 -1.273490000e-01 -1.434758000e+00
23500000.0 -1.188460000e-01 -1.449050000e+00
24400000.0 -1.080540000e-01 -1.462725000e+00
25300000.0 -9.789700000e-02 -1.477364000e+00
26200000.0 -8.826100000e-02 -1.489800000e+00
27100000.0 -7.452600000e-02 -1.504046000e+00
28000000.0 -6.510800000e-02 -1.519682000e+00
28900000.0 -2.280000000e-02 -1.536100000e+00
29800000.0 -3.956600000e-02 -1.547643000e+00
30700000.0 -2.506400000e-02 -1.561188000e+00
31600000.0 -1.103300000e-02 -1.577294000e+00
32500000.0 3.218000000e-03 -1.591041000e+00
33400000.0 1.730900000e-02 -1.604833000e+00
34300000.0 3.664100000e-02 -1.621198000e+00
35200000.0 5.134700000e-02 -1.635839000e+00
36100000.0 6.861400000e-02 -1.650477000e+00
37000000.0 8.751900000e-02 -1.665300000e+00
37900000.0 1.040270000e-01 -1.678744000e+00
38800000.0 1.269620000e-01 -1.693957000e+00
39700000.0 1.460040000e-01 -1.707233000e+00
40600000.0 1.679290000e-01 -1.723441000e+00
41500000.0 1.888340000e-01 -1.736198000e+00
42400000.0 2.111740000e-01 -1.750159000e+00
43300000.0 2.365570000e-01 -1.762935000e+00
44200000.0 2.603640000e-01 -1.775003000e+00
45100000.0 2.852140000e-01 -1.789208000e+00
46000000.0 3.115790000e-01 -1.801408000e+00
46900000.0 3.391420000e-01 -1.813714000e+00
47800000.0 3.678840000e-01 -1.823471000e+00
48700000.0 3.954160000e-01 -1.833579000e+00
49600000.0 4.268660000e-01 -1.842698000e+00
50500000.0 4.582570000e-01 -1.850614000e+00
51400000.0 4.897250000e-01 -1.859783000e+00
52300000.0 5.209500000e-01 -1.866859000e+00
53200000.0 5.562140000e-01 -1.872767000e+00
54100000.0 5.926020000e-01 -1.879031000e+00
55000000.0 6.259040000e-01 -1.879728000e+00
55900000.0 6.611790000e-01 -1.884905000e+00
56800000.0 6.980660000e-01 -1.886680000e+00
57700000.0 7.337710000e-01 -1.887301000e+00
58600000.0 7.722170000e-01 -1.883503000e+00
59500000.0 8.104880000e-01 -1.880520000e+00
60400000.0 8.490710000e-01 -1.876710000e+00
61300000.0 8.884220000e-01 -1.869847000e+00
62200000.0 9.264800000e-01 -1.861324000e+00
63100000.0 9.663470000e-01 -1.853608000e+00
64000000.0 1.006755000e+00 -1.840259000e+00
64900000.0 1.045510000e+00 -1.827449000e+00
65800000.0 1.083873000e+00 -1.811528000e+00
66700000.0 1.123139000e+00 -1.793484000e+00
67600000.0 1.159475000e+00 -1.776118000e+00
68500000.0 1.199022000e+00 -1.756464000e+00
69400000.0 1.233513000e+00 -1.735911000e+00
70300000.0 1.267903000e+00 -1.710047000e+00
71200000.0 1.304555000e+00 -1.684757000e+00
72100000.0 1.336823000e+00 -1.655226000e+00
73000000.0 1.368689000e+00 -1.629090000e+00
73900000.0 1.400359000e+00 -1.598942000e+00
74800000.0 1.428546000e+00 -1.567078000e+00
75700000.0 1.454330000e+00 -1.535003000e+00
76600000.0 1.482008000e+00 -1.501477000e+00
77500000.0 1.506298000e+00 -1.465770000e+00
78400000.0 1.528293000e+00 -1.432656000e+00
79300000.0 1.548568000e+00 -1.396349000e+00
80200000.0 1.567101000e+00 -1.359761000e+00
81100000.0 1.581807000e+00 -1.323566000e+00
82000000.0 1.599520000e+00 -1.284392000e+00
82900000.0 1.614310000e+00 -1.246786000e+00
83800000.0 1.624714000e+00 -1.211479000e+00
84700000.0 1.634976000e+00 -1.172782000e+00
85600000.0 1.643805000e+00 -1.135291000e+00
86500000.0 1.650241000e+00 -1.099674000e+00
87400000.0 1.657370000e+00 -1.060797000e+00
88300000.0 1.660676000e+00 -1.024678000e+00
89200000.0 1.663735000e+00 -9.907980000e-01
90100000.0 1.665745000e+00 -9.567180000e-01
91000000.0 1.664982000e+00 -9.222250000e-01
91900000.0 1.662667000e+00 -8.885140000e-01
92800000.0 1.661050000e+00 -8.559100000e-01
93700000.0 1.659191000e+00 -8.235220000e-01
94600000.0 1.652546000e+00 -7.920070000e-01
95500000.0 1.647152000e+00 -7.597400000e-01
96400000.0 1.640885000e+00 -7.311040000e-01
97300000.0 1.635492000e+00 -7.019910000e-01
98200000.0 1.627354000e+00 -6.733120000e-01
99100000.0 1.617710000e+00 -6.468260000e-01
100000000.0 1.609299000e+00 -6.209890000e-01
109000000.0 1.502101000e+00 -3.995780000e-01
118000000.0 1.377265000e+00 -2.434070000e-01
127000000.0 1.257575000e+00 -1.376400000e-01
136000000.0 1.147677000e+00 -6.817200000e-02
145000000.0 1.049870000e+00 -1.957700000e-02
154000000.0 9.999430000e-01 9.160000000e-04
163000000.0 1.001904000e+00 1.600000000e-04
172000000.0 1.002453000e+00 -5.000000000e-04
181000000.0 1.003202000e+00 -5.840000000e-04
190000000.0 1.004343000e+00 -2.443000000e-03
199000000.0 1.005014000e+00 -1.110000000e-03
208000000.0 1.005381000e+00 -2.189000000e-03
217000000.0 1.005693000e+00 -1.190000000e-03
226000000.0 1.005977000e+00 -8.880000000e-04
235000000.0 1.005962000e+00 -1.984000000e-03
244000000.0 1.006427000e+00 -2.242000000e-03
253000000.0 1.005213000e+00 -7.150000000e-04
262000000.0 1.004939000e+00 -1.285000000e-03
271000000.0 1.005641000e+00 2.510000000e-04
280000000.0 1.004471000e+00 -2.160000000e-04
289000000.0 1.001856000e+00 -1.076000000e-03
298000000.0 1.002361000e+00 -8.000000000e-06
307000000.0 1.001653000e+00 -2.800000000e-05
316000000.0 1.001803000e+00 -3.880000000e-04
325000000.0 1.005254000e+00 1.246000000e-03
334000000.0 1.005212000e+00 -8.100000000e-05
343000000.0 1.005219000e+00 1.408000000e-03
352000000.0 1.005770000e+00 -6.620000000e-04
361000000.0 1.005443000e+00 -4.700000000e-04
370000000.0 1.006659000e+00 8.870000000e-04
379000000.0 1.003740000e+00 1.954200000e-02
388000000.0 1.005766000e+00 1.788000000e-03
397000000.0 1.006959000e+00 1.763500000e-02
406000000.0 1.003330000e+00 -1.630900000e-02
415000000.0 1.003684000e+00 2.185000000e-03
424000000.0 1.003149000e+00 6.980000000e-04
433000000.0 1.001533000e+00 1.216000000e-03
442000000.0 1.000752000e+00 -2.180000000e-04
451000000.0 1.001282000e+00 1.756000000e-03
460000000.0 1.000783000e+00 4.038000000e-03
469000000.0 1.003067000e+00 3.256000000e-03
478000000.0 1.004692000e+00 3.701000000e-03
487000000.0 1.005249000e+00 4.155000000e-03
496000000.0 1.007641000e+00 4.956000000e-03
505000000.0 1.007448000e+00 4.898000000e-03
514000000.0 1.007995000e+00 7.169000000e-03
523000000.0 1.008731000e+00 6.077000000e-03
532000000.0 1.008385000e+00 9.297000000e-03
541000000.0 1.008199000e+00 6.052000000e-03
550000000.0 1.007723000e+00 1.043400000e-02
559000000.0 1.008836000e+00 7.945000000e-03
568000000.0 1.008512000e+00 8.327000000e-03
577000000.0 1.007751000e+00 6.424000000e-03
586000000.0 1.004702000e+00 6.541000000e-03
595000000.0 1.004028000e+00 5.854000000e-03
604000000.0 1.005159000e+00 6.335000000e-03
613000000.0 1.005573000e+00 7.552000000e-03
622000000.0 1.006609000e+00 7.876000000e-03
631000000.0 1.009000000e+00 1.010000000e-02
640000000.0 1.011957000e+00 8.133000000e-03
649000000.0 1.010561000e+00 6.660000000e-03
658000000.0 1.016346000e+00 7.398000000e-03
667000000.0 1.017012000e+00 9.367000000e-03
676000000.0 1.016314000e+00 3.901000000e-03
685000000.0 1.016865000e+00 9.398000000e-03
694000000.0 1.015185000e+00 7.763000000e-03
703000000.0 1.011199000e+00 9.235000000e-03
712000000.0 1.013990000e+00 6.001000000e-03
721000000.0 1.011397000e+00 4.263000000e-03
730000000.0 1.006976000e+00 5.691000000e-03
739000000.0 1.003731000e+00 3.143000000e-03
748000000.0 1.001177000e+00 8.480000000e-04
757000000.0 1.004401000e+00 -2.800000000e-04
766000000.0 1.006618000e+00 -1.550000000e-03
775000000.0 1.008632000e+00 -7.546000000e-03
784000000.0 1.011093000e+00 -2.626000000e-03
793000000.0 1.016040000e+00 -4.186000000e-03
802000000.0 1.015991000e+00 -8.221000000e-03
811000000.0 1.016956000e+00 -2.936000000e-03
820000000.0 1.017939000e+00 -7.055000000e-03
829000000.0 1.018925000e+00 -5.691000000e-03
838000000.0 1.018220000e+00 -3.620000000e-03
847000000.0 1.013252000e+00 -6.163000000e-03
856000000.0 1.016456000e+00 -4.366000000e-03
865000000.0 1.013916000e+00 1.417000000e-03
874000000.0 1.010931000e+00 -6.311000000e-03
883000000.0 1.007551000e+00 -3.563000000e-03
892000000.0 1.005012000e+00 5.641000000e-03
901000000.0 9.992910000e-01 -2.361000000e-03
910000000.0 1.003618000e+00 1.223000000e-03
919000000.0 1.004559000e+00 -1.743000000e-03
928000000.0 1.002464000e+00 -8.449000000e-03
937000000.0 1.003775000e+00 -5.676000000e-03
946000000.0 1.005548000e+00 -9.241000000e-03
955000000.0 1.003497000e+00 -8.417000000e-03
964000000.0 1.006612000e+00 -7.552000000e-03
973000000.0 1.005491000e+00 -1.064700000e-02
982000000.0 1.005459000e+00 -4.397000000e-03
991000000.0 1.004570000e+00 -6.656000000e-03
1000000000.0 1.003841000e+00 -9.835000000e-03
1004500000.0 1.003062000e+00 -3.841000000e-03
1009000000.0 1.007154000e+00 -3.598000000e-03
1013500000.0 1.003874000e+00 -7.066000000e-03
1018000000.0 1.004448000e+00 -1.185000000e-02
1022500000.0 1.002038000e+00 -6.997000000e-03
1027000000.0 1.000621000e+00 -3.497000000e-03
1031500000.0 1.002841000e+00 -9.382000000e-03
1036000000.0 1.003149000e+00 -4.063000000e-03
1040500000.0 1.000633000e+00 4.910000000e-04
1045000000.0 1.000846000e+00 5.610000000e-04
1049500000.0 1.002483000e+00 -1.388000000e-03
1054000000.0 1.001982000e+00 -6.460000000e-04
1058500000.0 1.000431000e+00 -2.621000000e-03
1063000000.0 1.003965000e+00 -3.189000000e-03
1067500000.0 1.002992000e+00 -5.442000000e-03
1072000000.0 1.002140000e+00 -3.300000000e-03
1076500000.0 1.003489000e+00 -2.456000000e-03
1081000000.0 1.001783000e+00 -1.870000000e-03
1085500000.0 1.000036000e+00 -5.811000000e-03
1090000000.0 9.987770000e-01 -2.190000000e-04
1094500000.0 1.000787000e+00 -3.824000000e-03
1099000000.0 9.987870000e-01 -5.051000000e-03
1103500000.0 1.001047000e+00 1.514000000e-03
1108000000.0 1.002989000e+00 -1.028000000e-03
1112500000.0 1.004260000e+00 -3.684000000e-03
1117000000.0 9.993940000e-01 -1.927000000e-03
1121500000.0 1.008668000e+00 -4.915000000e-03
1126000000.0 1.008775000e+00 3.537200000e-02
1130500000.0 1.001743000e+00 -3.034000000e-03
1135000000.0 1.008094000e+00 -3.824000000e-03
1139500000.0 1.015641000e+00 2.640700000e-02
1144000000.0 1.003367000e+00 -7.710000000e-04
1148500000.0 1.007538000e+00 4.468000000e-03
1153000000.0 1.006417000e+00 -1.071500000e-02
1157500000.0 1.004576000e+00 -7.438000000e-03
1162000000.0 1.006284000e+00 -9.317000000e-03
1166500000.0 1.008941000e+00 -1.067000000e-03
1171000000.0 1.004578000e+00 -6.910000000e-04
1175500000.0 1.001980000e+00 1.167000000e-03
1180000000.0 9.994900000e-01 -9.061000000e-03
1184500000.0 1.010423000e+00 -5.465000000e-03
1189000000.0 9.972310000e-01 8.125000000e-03
1193500000.0 1.002866000e+00 -4.812000000e-03
1198000000.0 1.001682000e+00 -7.388000000e-03
1202500000.0 1.005915000e+00 -3.925000000e-03
1207000000.0 1.003847000e+00 -6.572000000e-03
1211500000.0 1.001424000e+00 9.530000000e-04
1216000000.0 1.005214000e+00 -4.987000000e-03
1220500000.0 1.002756000e+00 -9.390000000e-04
1225000000.0 1.009338000e+00 1.106000000e-03
1229500000.0 1.000753000e+00 -1.040500000e-02
1234000000.0 1.007144000e+00 -3.492000000e-03
1238500000.0 9.996050000e-01 -3.464000000e-03
1243000000.0 1.006395000e+00 -2.607000000e-03
1247500000.0 1.004149000e+00 2.497000000e-03
1252000000.0 1.001541000e+00 -1.334500000e-02
1256500000.0 1.003233000e+00 -7.922000000e-03
1261000000.0 1.001616000e+00 6.141000000e-03
1265500000.0 1.002732000e+00 -7.110000000e-04
1270000000.0 1.003717000e+00 -1.773000000e-03
1274500000.0 1.002945000e+00 4.874000000e-03
1279000000.0 1.005976000e+00 2.102000000e-03
1283500000.0 1.001062000e+00 5.796000000e-03
1288000000.0 1.002564000e+00 -4.977000000e-03
1292500000.0 1.007508000e+00 5.581000000e-03
1297000000.0 1.007316000e+00 -8.160000000e-04
1301500000.0 1.006937000e+00 -3.649000000e-03
1306000000.0 1.001521000e+00 3.833000000e-03
1310500000.0 9.978230000e-01 5.627000000e-03
1315000000.0 1.000904000e+00 3.200000000e-05
1319500000.0 1.008393000e+00 5.220000000e-04
1324000000.0 1.004386000e+00 1.862000000e-03
1328500000.0 1.002322000e+00 4.750000000e-03
1333000000.0 9.987890000e-01 -5.417000000e-03
1337500000.0 1.001488000e+00 -3.044000000e-03
1342000000.0 1.010087000e+00 3.086000000e-03
1346500000.0 1.008506000e+00 6.640000000e-04
1351000000.0 1.006147000e+00 -9.000000000e-06
1355500000.0 1.000215000e+00 4.507000000e-03
1360000000.0 1.006080000e+00 1.065500000e-02
1364500000.0 1.000290000e+00 6.331000000e-03
1369000000.0 1.003717000e+00 4.753000000e-03
1373500000.0 1.007116000e+00 1.740700000e-02
1378000000.0 1.005242000e+00 1.309700000e-02
1382500000.0 1.009524000e+00 5.697000000e-03
1387000000.0 1.008583000e+00 1.009600000e-02
1391500000.0 1.007354000e+00 5.049000000e-03
1396000000.0 1.005922000e+00 1.128100000e-02
1400500000.0 1.007263000e+00 1.281300000e-02
1405000000.0 1.001788000e+00 1.877100000e-02
1409500000.0 1.004138000e+00 9.893000000e-03
1414000000.0 1.004277000e+00 9.995000000e-03
1418500000.0 1.009845000e+00 1.851700000e-02
1423000000.0 9.944340000e-01 1.241800000e-02
1427500000.0 1.015353000e+00 1.463300000e-02
1432000000.0 1.000505000e+00 1.552000000e-02
1436500000.0 9.997280000e-01 1.616600000e-02
1441000000.0 1.002442000e+00 8.542000000e-03
1445500000.0 1.003674000e+00 1.652400000e-02
1450000000.0 1.003869000e+00 1.300200000e-02
