! piloto_saltos / abierto_101puntos / r08
# HZ S RI R 50
50000.0 1.006111000e+00 -7.032100000e-02
59500.0 1.009343000e+00 -5.704100000e-02
69000.0 1.002334000e+00 -4.014400000e-02
78500.0 1.003209000e+00 -2.896700000e-02
88000.0 1.001289000e+00 -1.661400000e-02
97500.0 1.000933000e+00 -3.041000000e-03
107000.0 1.000538000e+00 9.162000000e-03
116500.0 1.000402000e+00 2.136700000e-02
126000.0 9.983980000e-01 3.535400000e-02
135500.0 1.001712000e+00 4.495000000e-02
145000.0 1.000926000e+00 5.819400000e-02
154500.0 1.001468000e+00 6.991300000e-02
164000.0 1.002372000e+00 8.210300000e-02
173500.0 1.003314000e+00 9.448100000e-02
183000.0 1.002528000e+00 1.059270000e-01
192500.0 1.003159000e+00 1.179920000e-01
202000.0 1.003325000e+00 1.297920000e-01
211500.0 1.004222000e+00 1.409280000e-01
221000.0 1.004179000e+00 1.520730000e-01
230500.0 1.004256000e+00 1.636720000e-01
240000.0 1.005041000e+00 1.757240000e-01
249500.0 1.005238000e+00 1.860040000e-01
259000.0 1.005731000e+00 1.977420000e-01
268500.0 1.005985000e+00 2.084600000e-01
278000.0 1.005753000e+00 2.210770000e-01
287500.0 1.006229000e+00 2.316640000e-01
297000.0 1.006250000e+00 2.426860000e-01
306500.0 1.007798000e+00 2.533120000e-01
316000.0 1.006118000e+00 2.644700000e-01
325500.0 1.007492000e+00 2.754820000e-01
335000.0 1.007933000e+00 2.861240000e-01
344500.0 1.007040000e+00 2.967630000e-01
354000.0 1.008391000e+00 3.079820000e-01
363500.0 1.008938000e+00 3.179190000e-01
373000.0 1.008385000e+00 3.285880000e-01
382500.0 1.008031000e+00 3.400540000e-01
392000.0 1.009033000e+00 3.504730000e-01
401500.0 1.008851000e+00 3.598880000e-01
411000.0 1.009685000e+00 3.708810000e-01
420500.0 1.010131000e+00 3.816210000e-01
430000.0 1.010144000e+00 3.916130000e-01
439500.0 1.009337000e+00 4.022520000e-01
449000.0 1.009703000e+00 4.120180000e-01
458500.0 1.010751000e+00 4.218240000e-01
468000.0 1.011746000e+00 4.326440000e-01
477500.0 1.012143000e+00 4.425020000e-01
487000.0 1.011600000e+00 4.531510000e-01
496500.0 1.012498000e+00 4.630880000e-01
506000.0 1.011897000e+00 4.720260000e-01
515500.0 1.012453000e+00 4.824660000e-01
525000.0 1.013004000e+00 4.922690000e-01
534500.0 1.014678000e+00 5.024730000e-01
544000.0 1.013376000e+00 5.133710000e-01
553500.0 1.014034000e+00 5.220800000e-01
563000.0 1.015828000e+00 5.321770000e-01
572500.0 1.015624000e+00 5.435550000e-01
582000.0 1.016135000e+00 5.525520000e-01
591500.0 1.016839000e+00 5.630930000e-01
601000.0 1.016726000e+00 5.717970000e-01
610500.0 1.017768000e+00 5.817700000e-01
620000.0 1.018162000e+00 5.910740000e-01
629500.0 1.018743000e+00 6.006920000e-01
639000.0 1.019353000e+00 6.106100000e-01
648500.0 1.021264000e+00 6.206320000e-01
658000.0 1.022213000e+00 6.305020000e-01
667500.0 1.022163000e+00 6.389080000e-01
677000.0 1.023113000e+00 6.487640000e-01
686500.0 1.023545000e+00 6.585970000e-01
696000.0 1.025195000e+00 6.679310000e-01
705500.0 1.024092000e+00 6.768070000e-01
715000.0 1.027059000e+00 6.875190000e-01
724500.0 1.028331000e+00 6.967620000e-01
734000.0 1.028431000e+00 7.058920000e-01
743500.0 1.029237000e+00 7.149690000e-01
753000.0 1.031503000e+00 7.255710000e-01
762500.0 1.031574000e+00 7.339380000e-01
772000.0 1.032581000e+00 7.432870000e-01
781500.0 1.034232000e+00 7.523190000e-01
791000.0 1.035875000e+00 7.615540000e-01
800500.0 1.036705000e+00 7.706950000e-01
810000.0 1.039944000e+00 7.800670000e-01
819500.0 1.039661000e+00 7.888460000e-01
829000.0 1.042673000e+00 7.988370000e-01
838500.0 1.042528000e+00 8.072510000e-01
848000.0 1.046165000e+00 8.172100000e-01
857500.0 1.047565000e+00 8.265920000e-01
867000.0 1.048751000e+00 8.358210000e-01
876500.0 1.050785000e+00 8.450470000e-01
886000.0 1.052810000e+00 8.549040000e-01
895500.0 1.053723000e+00 8.630590000e-01
905000.0 1.057819000e+00 8.711070000e-01
914500.0 1.060011000e+00 8.798340000e-01
924000.0 1.060860000e+00 8.885940000e-01
933500.0 1.062525000e+00 8.973990000e-01
943000.0 1.064819000e+00 9.072000000e-01
952500.0 1.069136000e+00 9.152770000e-01
962000.0 1.072682000e+00 9.268500000e-01
971500.0 1.073202000e+00 9.343270000e-01
981000.0 1.075686000e+00 9.421980000e-01
990500.0 1.078390000e+00 9.515590000e-01
1000000.0 1.081708000e+00 9.602290000e-01
1090000.0 1.110539000e+00 1.038762000e+00
1180000.0 1.151080000e+00 1.116481000e+00
1270000.0 1.200931000e+00 1.187387000e+00
1360000.0 1.261154000e+00 1.247853000e+00
1450000.0 1.332084000e+00 1.299210000e+00
1540000.0 1.413117000e+00 1.334957000e+00
1630000.0 1.502039000e+00 1.354589000e+00
1720000.0 1.591974000e+00 1.356250000e+00
1810000.0 1.682770000e+00 1.333990000e+00
1900000.0 1.764427000e+00 1.290302000e+00
1990000.0 1.839824000e+00 1.232201000e+00
2080000.0 1.899366000e+00 1.152787000e+00
2170000.0 1.941216000e+00 1.070472000e+00
2260000.0 1.963186000e+00 9.782720000e-01
2350000.0 1.969931000e+00 8.919030000e-01
2440000.0 1.959836000e+00 8.029740000e-01
2530000.0 1.939129000e+00 7.253210000e-01
2620000.0 1.912456000e+00 6.529640000e-01
2710000.0 1.877541000e+00 5.881320000e-01
2800000.0 1.839785000e+00 5.355580000e-01
2890000.0 1.802177000e+00 4.877680000e-01
2980000.0 1.762426000e+00 4.428960000e-01
3070000.0 1.721517000e+00 4.061460000e-01
3160000.0 1.684394000e+00 3.725380000e-01
3250000.0 1.649299000e+00 3.433970000e-01
3340000.0 1.614734000e+00 3.183070000e-01
3430000.0 1.583638000e+00 2.919290000e-01
3520000.0 1.554323000e+00 2.712190000e-01
3610000.0 1.526900000e+00 2.518000000e-01
3700000.0 1.498571000e+00 2.335520000e-01
3790000.0 1.474805000e+00 2.150780000e-01
3880000.0 1.451013000e+00 1.980370000e-01
3970000.0 1.432051000e+00 1.807870000e-01
4060000.0 1.412367000e+00 1.654690000e-01
4150000.0 1.395335000e+00 1.503230000e-01
4240000.0 1.376834000e+00 1.365960000e-01
4330000.0 1.364024000e+00 1.235590000e-01
4420000.0 1.349909000e+00 1.096200000e-01
4510000.0 1.336674000e+00 9.640500000e-02
4600000.0 1.324958000e+00 8.138200000e-02
4690000.0 1.313833000e+00 6.919100000e-02
4780000.0 1.305767000e+00 5.648200000e-02
4870000.0 1.297797000e+00 4.325300000e-02
4960000.0 1.290566000e+00 3.073700000e-02
5050000.0 1.275684000e+00 1.746400000e-02
5140000.0 1.270669000e+00 5.020000000e-03
5230000.0 1.267368000e+00 -5.049000000e-03
5320000.0 1.260993000e+00 -1.852600000e-02
5410000.0 1.257955000e+00 -2.950200000e-02
5500000.0 1.254377000e+00 -4.233200000e-02
5590000.0 1.252560000e+00 -5.159200000e-02
5680000.0 1.247454000e+00 -6.581800000e-02
5770000.0 1.243380000e+00 -7.646900000e-02
5860000.0 1.240990000e+00 -8.797800000e-02
5950000.0 1.238092000e+00 -9.634100000e-02
6040000.0 1.236460000e+00 -1.056930000e-01
6130000.0 1.233944000e+00 -1.172880000e-01
6220000.0 1.231397000e+00 -1.259190000e-01
6310000.0 1.231383000e+00 -1.356960000e-01
6400000.0 1.229225000e+00 -1.427370000e-01
6490000.0 1.226131000e+00 -1.530800000e-01
6580000.0 1.224455000e+00 -1.596660000e-01
6670000.0 1.223639000e+00 -1.649450000e-01
6760000.0 1.221390000e+00 -1.723110000e-01
6850000.0 1.220830000e+00 -1.771380000e-01
6940000.0 1.220245000e+00 -1.826080000e-01
7030000.0 1.219780000e+00 -1.850560000e-01
7120000.0 1.219862000e+00 -1.883500000e-01
7210000.0 1.218649000e+00 -1.898710000e-01
7300000.0 1.219364000e+00 -1.928060000e-01
7390000.0 1.218759000e+00 -1.930290000e-01
7480000.0 1.220619000e+00 -1.938080000e-01
7570000.0 -2.417520000e-01 -1.258892000e+00
7660000.0 -2.423770000e-01 -1.258981000e+00
7750000.0 -2.413660000e-01 -1.260795000e+00
7840000.0 -2.400960000e-01 -1.260485000e+00
7930000.0 -2.387100000e-01 -1.260088000e+00
8020000.0 -2.394420000e-01 -1.260779000e+00
8110000.0 -2.375240000e-01 -1.261094000e+00
8200000.0 -2.371510000e-01 -1.261420000e+00
8290000.0 -2.375960000e-01 -1.263000000e+00
8380000.0 -2.374430000e-01 -1.262192000e+00
8470000.0 -2.357920000e-01 -1.264190000e+00
8560000.0 -2.336420000e-01 -1.264468000e+00
8650000.0 -2.340740000e-01 -1.265194000e+00
8740000.0 -2.326970000e-01 -1.265083000e+00
8830000.0 -2.323280000e-01 -1.265193000e+00
8920000.0 -2.316080000e-01 -1.266372000e+00
9010000.0 -2.300160000e-01 -1.267161000e+00
9100000.0 -2.303770000e-01 -1.267726000e+00
9190000.0 -2.308290000e-01 -1.268754000e+00
9280000.0 -2.288360000e-01 -1.269377000e+00
9370000.0 -2.277220000e-01 -1.269949000e+00
9460000.0 -2.269060000e-01 -1.270904000e+00
9550000.0 -2.273370000e-01 -1.271085000e+00
9640000.0 -2.257310000e-01 -1.272660000e+00
9730000.0 -2.269510000e-01 -1.272723000e+00
9820000.0 -2.240810000e-01 -1.273816000e+00
9910000.0 -2.249890000e-01 -1.275316000e+00
10000000.0 -2.236330000e-01 -1.275256000e+00
10900000.0 -2.169180000e-01 -1.284404000e+00
11800000.0 -2.128870000e-01 -1.293918000e+00
12700000.0 -2.067490000e-01 -1.303978000e+00
13600000.0 -2.005820000e-01 -1.314489000e+00
14500000.0 -1.942280000e-01 -1.325433000e+00
15400000.0 -1.878170000e-01 -1.336493000e+00
16300000.0 -1.821610000e-01 -1.348588000e+00
17200000.0 -1.747020000e-01 -1.359792000e+00
18100000.0 -1.679620000e-01 -1.373742000e+00
19000000.0 -1.613020000e-01 -1.385508000e+00
19900000.0 -1.534380000e-01 -1.397128000e+00
20800000.0 -1.452550000e-01 -1.409526000e+00
21700000.0 -1.364230000e-01 -1.423479000e+00
22600000.0 -1.293160000e-01 -1.437355000e+00
23500000.0 -1.179090000e-01 -1.450594000e+00
24400000.0 -1.088540000e-01 -1.463673000e+00
25300000.0 -9.742500000e-02 -1.477200000e+00
26200000.0 -8.605600000e-02 -1.491863000e+00
27100000.0 -7.527900000e-02 -1.505626000e+00
28000000.0 -6.394000000e-02 -1.517893000e+00
28900000.0 -5.089000000e-02 -1.532936000e+00
29800000.0 -3.868000000e-02 -1.547264000e+00
30700000.0 -2.520800000e-02 -1.562623000e+00
31600000.0 -1.012700000e-02 -1.577022000e+00
32500000.0 3.028000000e-03 -1.590520000e+00
33400000.0 1.823900000e-02 -1.606278000e+00
34300000.0 3.469900000e-02 -1.620188000e+00
35200000.0 5.110500000e-02 -1.635239000e+00
36100000.0 6.990700000e-02 -1.650455000e+00
37000000.0 8.929700000e-02 -1.664717000e+00
37900000.0 1.050670000e-01 -1.680106000e+00
38800000.0 1.244120000e-01 -1.693367000e+00
39700000.0 1.457650000e-01 -1.708767000e+00
40600000.0 1.675290000e-01 -1.721679000e+00
41500000.0 1.884260000e-01 -1.736945000e+00
42400000.0 2.118600000e-01 -1.748751000e+00
43300000.0 2.351300000e-01 -1.761449000e+00
44200000.0 2.601510000e-01 -1.776416000e+00
45100000.0 2.859070000e-01 -1.787523000e+00
46000000.0 3.126740000e-01 -1.799091000e+00
46900000.0 3.387260000e-01 -1.813249000e+00
47800000.0 3.667490000e-01 -1.823077000e+00
48700000.0 3.960510000e-01 -1.833781000e+00
49600000.0 4.259160000e-01 -1.844366000e+00
50500000.0 4.594220000e-01 -1.852738000e+00
51400000.0 4.893190000e-01 -1.860502000e+00
52300000.0 5.222950000e-01 -1.867172000e+00
53200000.0 5.556840000e-01 -1.873351000e+00
54100000.0 5.914350000e-01 -1.877141000e+00
55000000.0 6.248160000e-01 -1.882612000e+00
55900000.0 6.608310000e-01 -1.885147000e+00
56800000.0 6.984110000e-01 -1.884114000e+00
57700000.0 7.344220000e-01 -1.885831000e+00
58600000.0 7.717110000e-01 -1.884791000e+00
59500000.0 8.122650000e-01 -1.881789000e+00
60400000.0 8.493770000e-01 -1.875431000e+00
61300000.0 8.891030000e-01 -1.869347000e+00
62200000.0 9.280220000e-01 -1.863129000e+00
63100000.0 9.672010000e-01 -1.852921000e+00
64000000.0 1.005284000e+00 -1.839289000e+00
64900000.0 1.045074000e+00 -1.826992000e+00
65800000.0 1.084027000e+00 -1.810888000e+00
66700000.0 1.121784000e+00 -1.796527000e+00
67600000.0 1.162443000e+00 -1.775670000e+00
68500000.0 1.197939000e+00 -1.755735000e+00
69400000.0 1.233582000e+00 -1.736460000e+00
70300000.0 1.266387000e+00 -1.709456000e+00
71200000.0 1.304145000e+00 -1.682020000e+00
72100000.0 1.336321000e+00 -1.657705000e+00
73000000.0 1.367946000e+00 -1.629484000e+00
73900000.0 1.396392000e+00 -1.598063000e+00
74800000.0 1.428860000e+00 -1.565534000e+00
75700000.0 1.454499000e+00 -1.534878000e+00
76600000.0 1.483021000e+00 -1.499238000e+00
77500000.0 1.505942000e+00 -1.466574000e+00
78400000.0 1.528595000e+00 -1.430404000e+00
79300000.0 1.548613000e+00 -1.395286000e+00
80200000.0 1.566598000e+00 -1.358841000e+00
81100000.0 1.585565000e+00 -1.320831000e+00
82000000.0 1.601671000e+00 -1.286524000e+00
82900000.0 1.636616000e+00 -1.214118000e+00
83800000.0 1.601631000e+00 -1.241030000e+00
84700000.0 1.657038000e+00 -1.141357000e+00
85600000.0 1.622917000e+00 -1.167793000e+00
86500000.0 1.672745000e+00 -1.068126000e+00
87400000.0 1.638007000e+00 -1.093055000e+00
88300000.0 1.679342000e+00 -9.949780000e-01
89200000.0 1.661466000e+00 -9.921140000e-01
90100000.0 1.663836000e+00 -9.561530000e-01
91000000.0 1.662500000e+00 -9.228000000e-01
91900000.0 1.664045000e+00 -8.878330000e-01
92800000.0 1.659576000e+00 -8.555440000e-01
93700000.0 1.656773000e+00 -8.230080000e-01
94600000.0 1.654230000e+00 -7.898130000e-01
95500000.0 1.646697000e+00 -7.598980000e-01
96400000.0 1.642016000e+00 -7.320730000e-01
97300000.0 1.635393000e+00 -7.012910000e-01
98200000.0 1.626762000e+00 -6.743250000e-01
99100000.0 1.619125000e+00 -6.469890000e-01
100000000.0 1.610128000e+00 -6.207070000e-01
109000000.0 1.502419000e+00 -3.980540000e-01
118000000.0 1.377941000e+00 -2.448650000e-01
127000000.0 1.257448000e+00 -1.372380000e-01
136000000.0 1.147815000e+00 -6.927100000e-02
145000000.0 1.049670000e+00 -1.796000000e-02
154000000.0 1.000291000e+00 6.380000000e-04
163000000.0 1.001548000e+00 -3.860000000e-04
172000000.0 1.002832000e+00 -1.502000000e-03
181000000.0 1.004588000e+00 -1.240000000e-04
190000000.0 1.004317000e+00 -5.630000000e-04
199000000.0 1.005288000e+00 -1.416000000e-03
208000000.0 1.006068000e+00 -1.883000000e-03
217000000.0 1.005698000e+00 -9.860000000e-04
226000000.0 1.006258000e+00 -1.637000000e-03
235000000.0 1.006275000e+00 -1.282000000e-03
244000000.0 1.005755000e+00 -1.800000000e-03
253000000.0 1.004529000e+00 -1.812900000e-02
262000000.0 1.004659000e+00 -7.600000000e-04
271000000.0 1.004521000e+00 -2.341000000e-03
280000000.0 1.004151000e+00 1.788200000e-02
289000000.0 1.002690000e+00 -7.310000000e-04
298000000.0 9.993080000e-01 -1.692100000e-02
307000000.0 1.003185000e+00 -1.033000000e-03
316000000.0 1.003968000e+00 1.856500000e-02
325000000.0 1.004112000e+00 6.930000000e-04
334000000.0 1.002749000e+00 -1.718700000e-02
343000000.0 1.006584000e+00 -1.610000000e-04
352000000.0 1.006471000e+00 1.858900000e-02
361000000.0 1.021935000e+00 5.374100000e-02
370000000.0 1.007015000e+00 2.800000000e-05
379000000.0 1.007335000e+00 1.808000000e-03
388000000.0 1.012445000e+00 3.622800000e-02
397000000.0 1.007455000e+00 1.811200000e-02
406000000.0 1.004002000e+00 -3.230000000e-04
415000000.0 1.005633000e+00 1.854000000e-03
424000000.0 1.004416000e+00 2.801000000e-03
433000000.0 1.003284000e+00 2.510000000e-04
442000000.0 9.989680000e-01 2.164000000e-03
451000000.0 9.984130000e-01 -1.027000000e-03
460000000.0 1.001676000e+00 1.565000000e-03
469000000.0 1.003008000e+00 4.311000000e-03
478000000.0 1.003851000e+00 4.103000000e-03
487000000.0 1.006199000e+00 4.633000000e-03
496000000.0 1.007900000e+00 6.104000000e-03
505000000.0 1.007691000e+00 6.988000000e-03
514000000.0 1.007643000e+00 7.872000000e-03
523000000.0 1.008782000e+00 1.107900000e-02
532000000.0 1.007800000e+00 5.793000000e-03
541000000.0 1.010294000e+00 8.464000000e-03
550000000.0 1.008368000e+00 1.240900000e-02
559000000.0 1.007255000e+00 1.059000000e-02
568000000.0 1.007316000e+00 4.507000000e-03
577000000.0 1.005814000e+00 6.930000000e-03
586000000.0 1.003905000e+00 8.797000000e-03
595000000.0 1.000480000e+00 7.125000000e-03
604000000.0 1.004614000e+00 5.062000000e-03
613000000.0 1.004348000e+00 3.802000000e-03
622000000.0 1.009178000e+00 8.498000000e-03
631000000.0 1.008981000e+00 5.825000000e-03
640000000.0 1.012873000e+00 8.596000000e-03
649000000.0 1.015812000e+00 1.025500000e-02
658000000.0 1.016790000e+00 7.249000000e-03
667000000.0 1.015515000e+00 7.471000000e-03
676000000.0 1.017623000e+00 6.273000000e-03
685000000.0 1.016070000e+00 8.130000000e-03
694000000.0 1.016906000e+00 4.178000000e-03
703000000.0 1.016738000e+00 7.637000000e-03
712000000.0 1.011479000e+00 -5.400000000e-05
721000000.0 1.010083000e+00 1.806000000e-03
730000000.0 1.010013000e+00 6.493000000e-03
739000000.0 1.006338000e+00 2.135000000e-03
748000000.0 1.000412000e+00 1.869000000e-03
757000000.0 1.001638000e+00 4.630000000e-04
766000000.0 1.007599000e+00 -1.982000000e-03
775000000.0 1.009915000e+00 -3.249000000e-03
784000000.0 1.012414000e+00 -2.968000000e-03
793000000.0 1.013620000e+00 -6.430000000e-04
802000000.0 1.016396000e+00 -9.434000000e-03
811000000.0 1.020063000e+00 -7.517000000e-03
820000000.0 1.018352000e+00 -3.760000000e-03
829000000.0 1.017307000e+00 -8.724000000e-03
838000000.0 1.017874000e+00 -7.875000000e-03
847000000.0 1.015280000e+00 -6.487000000e-03
856000000.0 1.016389000e+00 -3.321000000e-03
865000000.0 1.015233000e+00 -2.607000000e-03
874000000.0 1.009408000e+00 -3.167000000e-03
883000000.0 1.007479000e+00 -6.288000000e-03
892000000.0 1.005451000e+00 -1.237000000e-03
901000000.0 1.001475000e+00 2.194000000e-03
910000000.0 1.002441000e+00 5.190000000e-04
919000000.0 1.001393000e+00 1.683000000e-03
928000000.0 1.002021000e+00 -5.078000000e-03
937000000.0 1.005334000e+00 -1.091300000e-02
946000000.0 1.002974000e+00 -7.268000000e-03
955000000.0 1.003723000e+00 -7.197000000e-03
964000000.0 1.006559000e+00 -1.055900000e-02
973000000.0 1.005845000e+00 -9.184000000e-03
982000000.0 1.004708000e+00 -9.436000000e-03
991000000.0 1.003516000e+00 -5.575000000e-03
1000000000.0 1.003002000e+00 -6.792000000e-03
1004500000.0 1.005266000e+00 -4.531000000e-03
1009000000.0 1.005497000e+00 -4.310000000e-03
1013500000.0 1.003851000e+00 -9.043000000e-03
1018000000.0 1.002737000e+00 -9.550000000e-03
1022500000.0 1.001769000e+00 -4.712000000e-03
1027000000.0 1.000707000e+00 -6.630000000e-03
1031500000.0 1.003439000e+00 -6.826000000e-03
1036000000.0 9.998840000e-01 -3.687000000e-03
1040500000.0 1.002355000e+00 2.726000000e-03
1045000000.0 1.001734000e+00 -1.716000000e-03
1049500000.0 1.001209000e+00 3.539000000e-03
1054000000.0 9.980860000e-01 8.780000000e-04
1058500000.0 1.002635000e+00 -2.962000000e-03
1063000000.0 1.003161000e+00 2.665000000e-03
1067500000.0 1.000088000e+00 -2.901000000e-03
1072000000.0 1.003563000e+00 -5.237000000e-03
1076500000.0 1.000518000e+00 -1.121000000e-03
1081000000.0 1.004119000e+00 2.198000000e-03
1085500000.0 1.000417000e+00 -2.836000000e-03
1090000000.0 1.005075000e+00 -3.468000000e-03
1094500000.0 1.005687000e+00 3.468000000e-03
1099000000.0 1.004192000e+00 -7.828000000e-03
1103500000.0 1.001705000e+00 -2.125000000e-03
1108000000.0 1.004707000e+00 2.600000000e-04
1112500000.0 1.001979000e+00 8.050000000e-04
1117000000.0 1.000390000e+00 -5.684000000e-03
1121500000.0 1.002438000e+00 -9.965000000e-03
1126000000.0 1.017447000e+00 4.936700000e-02
1130500000.0 1.004514000e+00 -7.877000000e-03
1135000000.0 1.007608000e+00 2.288000000e-03
1139500000.0 1.006706000e+00 1.194300000e-02
1144000000.0 1.008767000e+00 -3.127000000e-03
1148500000.0 1.003314000e+00 2.462000000e-03
1153000000.0 1.000704000e+00 -1.613900000e-02
1157500000.0 1.006884000e+00 5.390000000e-04
1162000000.0 1.007487000e+00 -8.831000000e-03
1166500000.0 1.006677000e+00 -3.347000000e-03
1171000000.0 1.004849000e+00 -7.291000000e-03
1175500000.0 1.004442000e+00 -5.312000000e-03
1180000000.0 1.002613000e+00 -5.040000000e-03
1184500000.0 1.005054000e+00 -1.081000000e-03
1189000000.0 1.009701000e+00 6.123000000e-03
1193500000.0 1.006606000e+00 -6.972000000e-03
1198000000.0 1.000836000e+00 -5.012000000e-03
1202500000.0 1.004269000e+00 -4.515000000e-03
1207000000.0 1.002934000e+00 1.908000000e-03
1211500000.0 1.002893000e+00 -5.327000000e-03
1216000000.0 1.005877000e+00 -3.272000000e-03
1220500000.0 1.001712000e+00 -6.337000000e-03
1225000000.0 1.006243000e+00 -1.033300000e-02
1229500000.0 1.003325000e+00 4.470000000e-04
1234000000.0 1.002131000e+00 -5.558000000e-03
1238500000.0 1.004747000e+00 -4.276000000e-03
1243000000.0 1.006897000e+00 -1.002900000e-02
1247500000.0 1.007865000e+00 1.770000000e-04
1252000000.0 1.001983000e+00 -2.400000000e-04
1256500000.0 1.007093000e+00 -1.900000000e-03
1261000000.0 9.990250000e-01 4.445000000e-03
1265500000.0 1.004835000e+00 2.200000000e-04
1270000000.0 1.005994000e+00 2.330000000e-03
1274500000.0 1.005314000e+00 2.639000000e-03
1279000000.0 1.008905000e+00 -2.040000000e-03
1283500000.0 1.000664000e+00 5.371000000e-03
1288000000.0 1.005979000e+00 -1.837000000e-03
1292500000.0 1.000033000e+00 -6.493000000e-03
1297000000.0 1.002380000e+00 -5.364000000e-03
1301500000.0 1.004961000e+00 -8.305000000e-03
1306000000.0 1.000875000e+00 2.078000000e-03
1310500000.0 9.998620000e-01 -1.709000000e-03
1315000000.0 1.009171000e+00 -1.580000000e-04
1319500000.0 1.003045000e+00 2.677000000e-03
1324000000.0 9.971940000e-01 2.918000000e-03
1328500000.0 1.007078000e+00 6.320000000e-03
1333000000.0 1.002188000e+00 1.130300000e-02
1337500000.0 1.004771000e+00 1.654000000e-03
1342000000.0 1.008587000e+00 2.180000000e-04
1346500000.0 1.002910000e+00 3.526000000e-03
1351000000.0 1.005155000e+00 1.323500000e-02
1355500000.0 1.004403000e+00 7.436000000e-03
1360000000.0 1.004805000e+00 6.439000000e-03
1364500000.0 1.000681000e+00 -4.880000000e-04
1369000000.0 1.001996000e+00 9.783000000e-03
1373500000.0 9.999590000e-01 1.655000000e-02
1378000000.0 1.003705000e+00 2.511000000e-03
1382500000.0 1.008527000e+00 1.420100000e-02
1387000000.0 1.004060000e+00 -1.061000000e-03
1391500000.0 1.003705000e+00 4.984000000e-03
1396000000.0 1.000217000e+00 1.417700000e-02
1400500000.0 1.001156000e+00 1.577300000e-02
1405000000.0 9.976620000e-01 1.586300000e-02
1409500000.0 1.001506000e+00 1.142500000e-02
1414000000.0 1.004269000e+00 1.705300000e-02
1418500000.0 1.001595000e+00 1.439400000e-02
1423000000.0 1.007839000e+00 1.617700000e-02
1427500000.0 1.003521000e+00 2.404000000e-03
1432000000.0 1.001703000e+00 1.571400000e-02
1436500000.0 1.003577000e+00 1.816100000e-02
1441000000.0 1.000269000e+00 9.008000000e-03
1445500000.0 1.004097000e+00 6.294000000e-03
1450000000.0 1.003047000e+00 1.760000000e-02
