! piloto_corto / corto_aluminio / r12
# HZ S RI R 50
50000.0 -9.881400000e-01 -3.729900000e-02
59500.0 -9.870980000e-01 -1.827000000e-02
69000.0 -9.908270000e-01 -8.233000000e-03
78500.0 -9.914700000e-01 -5.700000000e-04
88000.0 -9.913880000e-01 3.000000000e-05
97500.0 -9.927140000e-01 8.750000000e-04
107000.0 -9.933310000e-01 -1.396000000e-03
116500.0 -9.934780000e-01 -4.806000000e-03
126000.0 -9.918940000e-01 -9.170000000e-03
135500.0 -9.926730000e-01 -1.544700000e-02
145000.0 -9.918590000e-01 -2.101500000e-02
154500.0 -9.922620000e-01 -2.694400000e-02
164000.0 -9.930330000e-01 -3.515600000e-02
173500.0 -9.922550000e-01 -4.225500000e-02
183000.0 -9.925660000e-01 -4.927200000e-02
192500.0 -9.926430000e-01 -5.803600000e-02
202000.0 -9.922090000e-01 -6.539800000e-02
211500.0 -9.918900000e-01 -7.485000000e-02
221000.0 -9.915010000e-01 -8.333200000e-02
230500.0 -9.916170000e-01 -9.200100000e-02
240000.0 -9.914390000e-01 -1.005200000e-01
249500.0 -9.910060000e-01 -1.094050000e-01
259000.0 -9.917450000e-01 -1.185940000e-01
268500.0 -9.918770000e-01 -1.266140000e-01
278000.0 -9.924170000e-01 -1.361150000e-01
287500.0 -9.926270000e-01 -1.458890000e-01
297000.0 -9.928250000e-01 -1.543990000e-01
306500.0 -9.923440000e-01 -1.643260000e-01
316000.0 -9.932440000e-01 -1.730950000e-01
325500.0 -9.934880000e-01 -1.819140000e-01
335000.0 -9.934940000e-01 -1.917950000e-01
344500.0 -9.936320000e-01 -2.000670000e-01
354000.0 -9.936940000e-01 -2.095770000e-01
363500.0 -9.941780000e-01 -2.193580000e-01
373000.0 -9.940020000e-01 -2.278930000e-01
382500.0 -9.947760000e-01 -2.376770000e-01
392000.0 -9.956160000e-01 -2.460810000e-01
401500.0 -9.954520000e-01 -2.550500000e-01
411000.0 -9.952520000e-01 -2.632710000e-01
420500.0 -9.948360000e-01 -2.734410000e-01
430000.0 -9.962600000e-01 -2.816110000e-01
439500.0 -9.961460000e-01 -2.912710000e-01
449000.0 -9.950800000e-01 -3.003380000e-01
458500.0 -9.959550000e-01 -3.100990000e-01
468000.0 -9.961140000e-01 -3.188000000e-01
477500.0 -9.958990000e-01 -3.289960000e-01
487000.0 -9.967770000e-01 -3.378810000e-01
496500.0 -9.958390000e-01 -3.462360000e-01
506000.0 -9.969110000e-01 -3.555330000e-01
515500.0 -9.972920000e-01 -3.645320000e-01
525000.0 -9.981840000e-01 -3.736340000e-01
534500.0 -9.980760000e-01 -3.824250000e-01
544000.0 -9.985520000e-01 -3.919720000e-01
553500.0 -9.987630000e-01 -4.007420000e-01
563000.0 -9.994960000e-01 -4.095190000e-01
572500.0 -9.996170000e-01 -4.186570000e-01
582000.0 -1.000580000e+00 -4.276670000e-01
591500.0 -1.000709000e+00 -4.360690000e-01
601000.0 -1.000840000e+00 -4.459190000e-01
610500.0 -1.000424000e+00 -4.556480000e-01
620000.0 -1.000637000e+00 -4.639530000e-01
629500.0 -1.001838000e+00 -4.721230000e-01
639000.0 -1.002249000e+00 -4.816270000e-01
648500.0 -1.003030000e+00 -4.907750000e-01
658000.0 -1.003338000e+00 -4.990710000e-01
667500.0 -1.003862000e+00 -5.071010000e-01
677000.0 -1.005419000e+00 -5.171100000e-01
686500.0 -1.004810000e+00 -5.254260000e-01
696000.0 -1.006092000e+00 -5.348910000e-01
705500.0 -1.007239000e+00 -5.439560000e-01
715000.0 -1.006784000e+00 -5.513790000e-01
724500.0 -1.008126000e+00 -5.608320000e-01
734000.0 -1.010018000e+00 -5.701140000e-01
743500.0 -1.009442000e+00 -5.788960000e-01
753000.0 -1.011559000e+00 -5.873180000e-01
762500.0 -1.012444000e+00 -5.963000000e-01
772000.0 -1.012643000e+00 -6.050030000e-01
781500.0 -1.014376000e+00 -6.142320000e-01
791000.0 -1.013688000e+00 -6.215200000e-01
800500.0 -1.016339000e+00 -6.301350000e-01
810000.0 -1.017095000e+00 -6.392880000e-01
819500.0 -1.018314000e+00 -6.486280000e-01
829000.0 -1.019283000e+00 -6.565770000e-01
838500.0 -1.019438000e+00 -6.641520000e-01
848000.0 -1.020518000e+00 -6.720850000e-01
857500.0 -1.020403000e+00 -6.792530000e-01
867000.0 -1.020585000e+00 -6.882370000e-01
876500.0 -1.022581000e+00 -6.967600000e-01
886000.0 -1.024073000e+00 -7.047570000e-01
895500.0 -1.026034000e+00 -7.131550000e-01
905000.0 -1.029773000e+00 -7.222860000e-01
914500.0 -1.031814000e+00 -7.301680000e-01
924000.0 -1.031776000e+00 -7.399170000e-01
933500.0 -1.033754000e+00 -7.468660000e-01
943000.0 -1.035507000e+00 -7.539630000e-01
952500.0 -1.039976000e+00 -7.630510000e-01
962000.0 -1.040299000e+00 -7.722330000e-01
971500.0 -1.042516000e+00 -7.804450000e-01
981000.0 -1.044658000e+00 -7.877100000e-01
990500.0 -1.046205000e+00 -7.972780000e-01
1000000.0 -1.051677000e+00 -8.038850000e-01
1090000.0 -1.071125000e+00 -8.753650000e-01
1180000.0 -1.105482000e+00 -9.457840000e-01
1270000.0 -1.149097000e+00 -1.014002000e+00
1360000.0 -1.202831000e+00 -1.074080000e+00
1450000.0 -1.267315000e+00 -1.125190000e+00
1540000.0 -1.338673000e+00 -1.159820000e+00
1630000.0 -1.418925000e+00 -1.185085000e+00
1720000.0 -1.510880000e+00 -1.188819000e+00
1810000.0 -1.596447000e+00 -1.173466000e+00
1900000.0 -1.679836000e+00 -1.135367000e+00
1990000.0 -1.754018000e+00 -1.080571000e+00
2080000.0 -1.812396000e+00 -1.006476000e+00
2170000.0 -1.856141000e+00 -9.245160000e-01
2260000.0 -1.879481000e+00 -8.345410000e-01
2350000.0 -1.882926000e+00 -7.453820000e-01
2440000.0 -1.871327000e+00 -6.587010000e-01
2530000.0 -1.852158000e+00 -5.771930000e-01
2620000.0 -1.817969000e+00 -5.054120000e-01
2710000.0 -1.781511000e+00 -4.464500000e-01
2800000.0 -1.744078000e+00 -3.895260000e-01
2890000.0 -1.702355000e+00 -3.459030000e-01
2980000.0 -1.663266000e+00 -3.035880000e-01
3070000.0 -1.620042000e+00 -2.699690000e-01
3160000.0 -1.579528000e+00 -2.392970000e-01
3250000.0 -1.543828000e+00 -2.136340000e-01
3340000.0 -1.510270000e+00 -1.872600000e-01
3430000.0 -1.475928000e+00 -1.671700000e-01
3520000.0 -1.445183000e+00 -1.493970000e-01
3610000.0 -1.415612000e+00 -1.310910000e-01
3700000.0 -1.388110000e+00 -1.158340000e-01
3790000.0 -1.364791000e+00 -1.011550000e-01
3880000.0 -1.340294000e+00 -8.587500000e-02
3970000.0 -1.317713000e+00 -7.252300000e-02
4060000.0 -1.299080000e+00 -5.965300000e-02
4150000.0 -1.282030000e+00 -4.705400000e-02
4240000.0 -1.264348000e+00 -3.428300000e-02
4330000.0 -1.249007000e+00 -2.343500000e-02
4420000.0 -1.235232000e+00 -1.197200000e-02
4510000.0 -1.221612000e+00 -7.010000000e-04
4600000.0 -1.210801000e+00 1.065500000e-02
4690000.0 -1.199335000e+00 2.277100000e-02
4780000.0 -1.188998000e+00 3.321000000e-02
4870000.0 -1.178649000e+00 4.330900000e-02
4960000.0 -1.171589000e+00 5.544100000e-02
5050000.0 -1.158245000e+00 6.628800000e-02
5140000.0 -1.151183000e+00 7.572500000e-02
5230000.0 -1.146123000e+00 8.608400000e-02
5320000.0 -1.140895000e+00 9.705100000e-02
5410000.0 -1.137869000e+00 1.084720000e-01
5500000.0 -1.131752000e+00 1.177020000e-01
5590000.0 -1.128758000e+00 1.281380000e-01
5680000.0 -1.122985000e+00 1.375380000e-01
5770000.0 -1.121103000e+00 1.457950000e-01
5860000.0 -1.116461000e+00 1.558560000e-01
5950000.0 -1.111801000e+00 1.656250000e-01
6040000.0 -1.109575000e+00 1.749650000e-01
6130000.0 -1.106509000e+00 1.814290000e-01
6220000.0 -1.104614000e+00 1.897070000e-01
6310000.0 -1.100936000e+00 1.978860000e-01
6400000.0 -1.098039000e+00 2.050980000e-01
6490000.0 -1.096805000e+00 2.124570000e-01
6580000.0 -1.094302000e+00 2.184300000e-01
6670000.0 -1.092149000e+00 2.240030000e-01
6760000.0 -1.090563000e+00 2.291910000e-01
6850000.0 -1.088953000e+00 2.345930000e-01
6940000.0 -1.086907000e+00 2.373760000e-01
7030000.0 -1.087546000e+00 2.417270000e-01
7120000.0 -1.085316000e+00 2.440290000e-01
7210000.0 -1.085492000e+00 2.461940000e-01
7300000.0 -1.083608000e+00 2.477620000e-01
7390000.0 -1.083778000e+00 2.472120000e-01
7480000.0 -1.084250000e+00 2.477170000e-01
7570000.0 2.015130000e-01 1.056148000e+00
7660000.0 2.007180000e-01 1.056327000e+00
7750000.0 1.994170000e-01 1.056334000e+00
7840000.0 1.998020000e-01 1.057534000e+00
7930000.0 1.986850000e-01 1.057479000e+00
8020000.0 1.972000000e-01 1.057995000e+00
8110000.0 1.968360000e-01 1.057920000e+00
8200000.0 1.961830000e-01 1.058820000e+00
8290000.0 1.962410000e-01 1.059398000e+00
8380000.0 1.952400000e-01 1.059593000e+00
8470000.0 1.941060000e-01 1.060314000e+00
8560000.0 1.933930000e-01 1.061005000e+00
8650000.0 1.933960000e-01 1.060770000e+00
8740000.0 1.916170000e-01 1.060725000e+00
8830000.0 1.923120000e-01 1.061651000e+00
8920000.0 1.913880000e-01 1.062087000e+00
9010000.0 1.912220000e-01 1.062424000e+00
9100000.0 1.893530000e-01 1.062546000e+00
9190000.0 1.893190000e-01 1.062850000e+00
9280000.0 1.882520000e-01 1.063647000e+00
9370000.0 1.869780000e-01 1.062604000e+00
9460000.0 1.862230000e-01 1.063708000e+00
9550000.0 1.857400000e-01 1.063516000e+00
9640000.0 1.868620000e-01 1.064484000e+00
9730000.0 1.863120000e-01 1.065871000e+00
9820000.0 1.842050000e-01 1.066929000e+00
9910000.0 1.839320000e-01 1.066633000e+00
10000000.0 1.839810000e-01 1.066754000e+00
10900000.0 1.803950000e-01 1.085661000e+00
11800000.0 1.747970000e-01 1.095455000e+00
12700000.0 1.699590000e-01 1.102020000e+00
13600000.0 1.650910000e-01 1.110237000e+00
14500000.0 1.591440000e-01 1.119734000e+00
15400000.0 1.546300000e-01 1.128273000e+00
16300000.0 1.470830000e-01 1.136822000e+00
17200000.0 1.412970000e-01 1.146085000e+00
18100000.0 1.361210000e-01 1.155323000e+00
19000000.0 1.301340000e-01 1.165232000e+00
19900000.0 1.212300000e-01 1.174574000e+00
20800000.0 1.153540000e-01 1.183898000e+00
21700000.0 1.084260000e-01 1.193782000e+00
22600000.0 1.009940000e-01 1.202619000e+00
23500000.0 9.222300000e-02 1.212350000e+00
24400000.0 8.369900000e-02 1.222655000e+00
25300000.0 7.506600000e-02 1.233267000e+00
26200000.0 6.602500000e-02 1.243206000e+00
27100000.0 5.738300000e-02 1.253679000e+00
28000000.0 4.687300000e-02 1.264191000e+00
28900000.0 3.729500000e-02 1.274894000e+00
29800000.0 2.591800000e-02 1.284377000e+00
30700000.0 1.370400000e-02 1.296106000e+00
31600000.0 3.570000000e-03 1.305787000e+00
32500000.0 -8.253000000e-03 1.314931000e+00
33400000.0 -2.153000000e-02 1.325600000e+00
34300000.0 -3.387200000e-02 1.336149000e+00
35200000.0 -4.638700000e-02 1.345434000e+00
36100000.0 -6.088900000e-02 1.355164000e+00
37000000.0 -7.449000000e-02 1.365837000e+00
37900000.0 -8.992300000e-02 1.375348000e+00
38800000.0 -1.051500000e-01 1.385398000e+00
39700000.0 -1.205080000e-01 1.393930000e+00
40600000.0 -1.366930000e-01 1.402404000e+00
41500000.0 -1.533290000e-01 1.411238000e+00
42400000.0 -1.692920000e-01 1.421158000e+00
43300000.0 -1.866430000e-01 1.426454000e+00
44200000.0 -2.038400000e-01 1.435686000e+00
45100000.0 -2.218300000e-01 1.442695000e+00
46000000.0 -2.409030000e-01 1.450826000e+00
46900000.0 -2.601210000e-01 1.455930000e+00
47800000.0 -2.797560000e-01 1.464068000e+00
48700000.0 -2.978220000e-01 1.468477000e+00
49600000.0 -3.215020000e-01 1.474634000e+00
50500000.0 -3.405590000e-01 1.478553000e+00
51400000.0 -3.628930000e-01 1.483385000e+00
52300000.0 -3.822720000e-01 1.486401000e+00
53200000.0 -4.052100000e-01 1.491778000e+00
54100000.0 -4.266990000e-01 1.493327000e+00
55000000.0 -4.481540000e-01 1.495378000e+00
55900000.0 -4.717460000e-01 1.496832000e+00
56800000.0 -4.937040000e-01 1.498296000e+00
57700000.0 -5.147860000e-01 1.497143000e+00
58600000.0 -5.381970000e-01 1.496069000e+00
59500000.0 -5.622500000e-01 1.496083000e+00
60400000.0 -5.843860000e-01 1.494120000e+00
61300000.0 -6.068560000e-01 1.491720000e+00
62200000.0 -6.317250000e-01 1.487845000e+00
63100000.0 -6.547680000e-01 1.484183000e+00
64000000.0 -6.771650000e-01 1.479406000e+00
64900000.0 -7.001820000e-01 1.474711000e+00
65800000.0 -7.243830000e-01 1.468563000e+00
66700000.0 -7.484540000e-01 1.462080000e+00
67600000.0 -7.697910000e-01 1.453551000e+00
68500000.0 -7.658280000e-01 1.455066000e+00
69400000.0 -8.388440000e-01 1.428545000e+00
70300000.0 -8.102420000e-01 1.437881000e+00
71200000.0 -8.844480000e-01 1.408516000e+00
72100000.0 -8.562870000e-01 1.417844000e+00
73000000.0 -9.259570000e-01 1.384651000e+00
73900000.0 -9.214040000e-01 1.383820000e+00
74800000.0 -9.678690000e-01 1.358374000e+00
75700000.0 -9.388770000e-01 1.372162000e+00
76600000.0 -1.008607000e+00 1.330591000e+00
77500000.0 -9.781080000e-01 1.343135000e+00
78400000.0 -1.023113000e+00 1.314869000e+00
79300000.0 -1.040629000e+00 1.298093000e+00
80200000.0 -1.057154000e+00 1.283439000e+00
81100000.0 -1.076238000e+00 1.264476000e+00
82000000.0 -1.093136000e+00 1.250475000e+00
82900000.0 -1.109168000e+00 1.232450000e+00
83800000.0 -1.125608000e+00 1.214750000e+00
84700000.0 -1.139580000e+00 1.195380000e+00
85600000.0 -1.153313000e+00 1.178017000e+00
86500000.0 -1.167947000e+00 1.158503000e+00
87400000.0 -1.180416000e+00 1.138814000e+00
88300000.0 -1.192609000e+00 1.117079000e+00
89200000.0 -1.206020000e+00 1.098305000e+00
90100000.0 -1.216495000e+00 1.077190000e+00
91000000.0 -1.227681000e+00 1.055743000e+00
91900000.0 -1.235606000e+00 1.036300000e+00
92800000.0 -1.246500000e+00 1.016511000e+00
93700000.0 -1.255674000e+00 9.947440000e-01
94600000.0 -1.263851000e+00 9.725250000e-01
95500000.0 -1.270753000e+00 9.518010000e-01
96400000.0 -1.277284000e+00 9.313470000e-01
97300000.0 -1.282133000e+00 9.093660000e-01
98200000.0 -1.288666000e+00 8.884370000e-01
99100000.0 -1.291976000e+00 8.676840000e-01
100000000.0 -1.297277000e+00 8.472970000e-01
109000000.0 -1.302054000e+00 6.445120000e-01
118000000.0 -1.260333000e+00 4.746850000e-01
127000000.0 -1.193607000e+00 3.441900000e-01
136000000.0 -1.092137000e+00 2.413170000e-01
145000000.0 -1.015385000e+00 1.698260000e-01
154000000.0 -9.733310000e-01 1.431000000e-01
163000000.0 -9.749770000e-01 1.494580000e-01
172000000.0 -9.757150000e-01 1.545680000e-01
181000000.0 -9.779130000e-01 1.618360000e-01
190000000.0 -9.774670000e-01 1.683950000e-01
199000000.0 -9.772500000e-01 1.755440000e-01
208000000.0 -9.825550000e-01 1.664570000e-01
217000000.0 -9.753530000e-01 1.922260000e-01
226000000.0 -9.662900000e-01 2.182110000e-01
235000000.0 -9.722150000e-01 2.091310000e-01
244000000.0 -9.760290000e-01 2.006560000e-01
253000000.0 -9.672790000e-01 2.248920000e-01
262000000.0 -9.571950000e-01 2.501020000e-01
271000000.0 -9.588300000e-01 2.432670000e-01
280000000.0 -9.609220000e-01 2.372500000e-01
289000000.0 -9.500880000e-01 2.599950000e-01
298000000.0 -9.446150000e-01 2.683650000e-01
307000000.0 -9.438860000e-01 2.781150000e-01
316000000.0 -9.442290000e-01 2.878170000e-01
325000000.0 -9.427210000e-01 2.962080000e-01
334000000.0 -9.443830000e-01 3.052920000e-01
343000000.0 -9.421090000e-01 3.118740000e-01
352000000.0 -9.402480000e-01 3.216650000e-01
361000000.0 -9.390430000e-01 3.306410000e-01
370000000.0 -9.366390000e-01 3.367900000e-01
379000000.0 -9.126570000e-01 3.731730000e-01
388000000.0 -9.308340000e-01 3.506520000e-01
397000000.0 -9.248950000e-01 3.582730000e-01
406000000.0 -9.220760000e-01 3.669160000e-01
415000000.0 -9.167950000e-01 3.730100000e-01
424000000.0 -9.037950000e-01 3.970600000e-01
433000000.0 -9.053700000e-01 3.884210000e-01
442000000.0 -8.974350000e-01 3.942440000e-01
451000000.0 -8.938790000e-01 4.035950000e-01
460000000.0 -8.936490000e-01 4.106440000e-01
469000000.0 -8.911310000e-01 4.220800000e-01
478000000.0 -8.897680000e-01 4.295080000e-01
487000000.0 -8.873560000e-01 4.381970000e-01
496000000.0 -8.847000000e-01 4.471220000e-01
505000000.0 -8.824550000e-01 4.556590000e-01
514000000.0 -8.789640000e-01 4.618200000e-01
523000000.0 -8.723830000e-01 4.689890000e-01
532000000.0 -8.674140000e-01 4.778000000e-01
541000000.0 -8.657740000e-01 4.841630000e-01
550000000.0 -8.630150000e-01 4.883750000e-01
559000000.0 -8.531690000e-01 4.967800000e-01
568000000.0 -8.486980000e-01 5.015090000e-01
577000000.0 -8.420830000e-01 5.092730000e-01
586000000.0 -8.380310000e-01 5.116690000e-01
595000000.0 -8.298880000e-01 5.169170000e-01
604000000.0 -8.230580000e-01 5.247400000e-01
613000000.0 -8.182280000e-01 5.345180000e-01
622000000.0 -8.179850000e-01 5.446180000e-01
631000000.0 -8.139610000e-01 5.529820000e-01
640000000.0 -8.066010000e-01 5.596460000e-01
649000000.0 -8.052780000e-01 5.687860000e-01
658000000.0 -7.987540000e-01 5.764240000e-01
667000000.0 -7.912490000e-01 5.784030000e-01
676000000.0 -7.861690000e-01 5.884440000e-01
685000000.0 -7.822470000e-01 5.947610000e-01
694000000.0 -7.705660000e-01 6.017200000e-01
703000000.0 -7.692020000e-01 6.085910000e-01
712000000.0 -7.633350000e-01 6.140950000e-01
721000000.0 -7.622760000e-01 6.140230000e-01
730000000.0 -7.532590000e-01 6.208260000e-01
739000000.0 -7.476400000e-01 6.262640000e-01
748000000.0 -7.427590000e-01 6.283740000e-01
757000000.0 -7.382430000e-01 6.350100000e-01
766000000.0 -7.305010000e-01 6.439070000e-01
775000000.0 -7.285390000e-01 6.469900000e-01
784000000.0 -7.214470000e-01 6.589750000e-01
793000000.0 -7.145800000e-01 6.620360000e-01
802000000.0 -7.082560000e-01 6.703150000e-01
811000000.0 -7.024100000e-01 6.747860000e-01
820000000.0 -6.998970000e-01 6.791240000e-01
829000000.0 -6.922510000e-01 6.848750000e-01
838000000.0 -6.866990000e-01 6.915140000e-01
847000000.0 -6.814190000e-01 6.960070000e-01
856000000.0 -6.752870000e-01 7.004240000e-01
865000000.0 -6.739530000e-01 7.040700000e-01
874000000.0 -6.653910000e-01 7.111180000e-01
883000000.0 -6.588480000e-01 7.166040000e-01
892000000.0 -6.533690000e-01 7.196100000e-01
901000000.0 -6.461140000e-01 7.299290000e-01
910000000.0 -6.443900000e-01 7.317490000e-01
919000000.0 -6.389310000e-01 7.401910000e-01
928000000.0 -6.295150000e-01 7.448150000e-01
937000000.0 -6.226960000e-01 7.544410000e-01
946000000.0 -6.192040000e-01 7.591640000e-01
955000000.0 -6.128970000e-01 7.641640000e-01
964000000.0 -6.067990000e-01 7.691690000e-01
973000000.0 -6.002920000e-01 7.744880000e-01
982000000.0 -5.934930000e-01 7.802190000e-01
991000000.0 -5.854260000e-01 7.840490000e-01
1000000000.0 -5.768540000e-01 7.899140000e-01
1004500000.0 -5.760720000e-01 7.882110000e-01
1009000000.0 -5.676230000e-01 7.921090000e-01
1013500000.0 -5.676810000e-01 7.937900000e-01
1018000000.0 -5.633210000e-01 7.944790000e-01
1022500000.0 -5.593510000e-01 7.975340000e-01
1027000000.0 -5.528390000e-01 7.997400000e-01
1031500000.0 -5.539440000e-01 7.985210000e-01
1036000000.0 -5.461620000e-01 8.036550000e-01
1040500000.0 -5.416500000e-01 8.065310000e-01
1045000000.0 -5.380100000e-01 8.074140000e-01
1049500000.0 -5.323690000e-01 8.098310000e-01
1054000000.0 -5.334050000e-01 8.107850000e-01
1058500000.0 -5.256840000e-01 8.166820000e-01
1063000000.0 -5.231450000e-01 8.194490000e-01
1067500000.0 -5.176920000e-01 8.226460000e-01
1072000000.0 -5.182890000e-01 8.250300000e-01
1076500000.0 -5.146200000e-01 8.268430000e-01
1081000000.0 -5.148200000e-01 8.293610000e-01
1085500000.0 -5.077570000e-01 8.360650000e-01
1090000000.0 -5.082700000e-01 8.342940000e-01
1094500000.0 -5.026600000e-01 8.382560000e-01
1099000000.0 -4.993050000e-01 8.415650000e-01
1103500000.0 -4.923890000e-01 8.463630000e-01
1108000000.0 -4.888530000e-01 8.485230000e-01
1112500000.0 -4.902750000e-01 8.490620000e-01
1117000000.0 -4.825080000e-01 8.538350000e-01
1121500000.0 -4.812110000e-01 8.555050000e-01
1126000000.0 -4.826820000e-01 8.542730000e-01
1130500000.0 -4.730330000e-01 8.578360000e-01
1135000000.0 -4.674530000e-01 8.605850000e-01
1139500000.0 -4.663330000e-01 8.613930000e-01
1144000000.0 -4.580690000e-01 8.656280000e-01
1148500000.0 -4.579240000e-01 8.653770000e-01
1153000000.0 -4.524260000e-01 8.645730000e-01
1157500000.0 -4.475160000e-01 8.691940000e-01
1162000000.0 -4.405710000e-01 8.729770000e-01
1166500000.0 -4.415540000e-01 8.702870000e-01
1171000000.0 -4.378080000e-01 8.705450000e-01
1175500000.0 -4.297050000e-01 8.741310000e-01
1180000000.0 -4.282330000e-01 8.737560000e-01
1184500000.0 -4.220050000e-01 8.779750000e-01
1189000000.0 -4.201000000e-01 8.755430000e-01
1193500000.0 -4.090100000e-01 8.796080000e-01
1198000000.0 -4.109810000e-01 8.767460000e-01
1202500000.0 -4.075170000e-01 8.793710000e-01
1207000000.0 -3.995920000e-01 8.838450000e-01
1211500000.0 -3.952490000e-01 8.843420000e-01
1216000000.0 -3.944390000e-01 8.859190000e-01
1220500000.0 -3.912170000e-01 8.887440000e-01
1225000000.0 -3.837580000e-01 8.922550000e-01
1229500000.0 -3.808060000e-01 8.939950000e-01
1234000000.0 -3.778290000e-01 8.951110000e-01
1238500000.0 -3.742610000e-01 8.965130000e-01
1243000000.0 -3.713800000e-01 8.996570000e-01
1247500000.0 -3.649800000e-01 9.017110000e-01
1252000000.0 -3.616910000e-01 9.044500000e-01
1256500000.0 -3.574240000e-01 9.044960000e-01
1261000000.0 -3.565100000e-01 9.056160000e-01
1265500000.0 -3.498590000e-01 9.080180000e-01
1270000000.0 -3.481300000e-01 9.082960000e-01
1274500000.0 -3.387820000e-01 9.119280000e-01
1279000000.0 -3.357420000e-01 9.114780000e-01
1283500000.0 -3.317200000e-01 9.118570000e-01
1288000000.0 -3.291920000e-01 9.126120000e-01
1292500000.0 -3.255090000e-01 9.130450000e-01
1297000000.0 -3.166550000e-01 9.124310000e-01
1301500000.0 -3.205930000e-01 9.155300000e-01
1306000000.0 -3.157950000e-01 9.121770000e-01
1310500000.0 -3.082520000e-01 9.120590000e-01
1315000000.0 -3.006810000e-01 9.111920000e-01
1319500000.0 -3.003720000e-01 9.145120000e-01
1324000000.0 -2.919780000e-01 9.168150000e-01
1328500000.0 -2.930280000e-01 9.139400000e-01
1333000000.0 -2.876220000e-01 9.161180000e-01
1337500000.0 -2.787210000e-01 9.190770000e-01
1342000000.0 -2.825040000e-01 9.136530000e-01
1346500000.0 -2.718640000e-01 9.124160000e-01
1351000000.0 -2.712740000e-01 9.150490000e-01
1355500000.0 -2.608310000e-01 9.153880000e-01
1360000000.0 -2.599490000e-01 9.150450000e-01
1364500000.0 -2.512540000e-01 9.236930000e-01
1369000000.0 -2.521290000e-01 9.248120000e-01
1373500000.0 -2.435360000e-01 9.273700000e-01
1378000000.0 -2.439150000e-01 9.297450000e-01
1382500000.0 -2.359860000e-01 9.277100000e-01
1387000000.0 -2.360870000e-01 9.274540000e-01
1391500000.0 -2.277700000e-01 9.299230000e-01
1396000000.0 -2.240010000e-01 9.327310000e-01
1400500000.0 -2.115880000e-01 9.319530000e-01
1405000000.0 -2.023020000e-01 9.395990000e-01
1409500000.0 -2.158940000e-01 9.354860000e-01
1414000000.0 -1.995300000e-01 9.402550000e-01
1418500000.0 -1.972050000e-01 9.373510000e-01
1423000000.0 -2.011400000e-01 9.455520000e-01
1427500000.0 -1.897950000e-01 9.496240000e-01
1432000000.0 -1.884130000e-01 9.399950000e-01
1436500000.0 -1.847030000e-01 9.445770000e-01
1441000000.0 -1.847250000e-01 9.452810000e-01
1445500000.0 -1.731830000e-01 9.490710000e-01
1450000000.0 -1.716660000e-01 9.442390000e-01
