! piloto_corto / aire / r22
# HZ S RI R 50
50000.0 1.005410000e+00 -7.234200000e-02
59500.0 1.008224000e+00 -5.779000000e-02
69000.0 1.005518000e+00 -4.609000000e-02
78500.0 1.001742000e+00 -3.087200000e-02
88000.0 1.000455000e+00 -1.836900000e-02
97500.0 1.000478000e+00 -6.265000000e-03
107000.0 1.000344000e+00 5.970000000e-03
116500.0 9.999860000e-01 1.867100000e-02
126000.0 1.002446000e+00 3.157700000e-02
135500.0 1.000687000e+00 4.351400000e-02
145000.0 1.000189000e+00 5.480100000e-02
154500.0 1.000626000e+00 6.565000000e-02
164000.0 1.001636000e+00 7.916800000e-02
173500.0 1.002202000e+00 9.051900000e-02
183000.0 1.002120000e+00 1.017900000e-01
192500.0 1.002700000e+00 1.131550000e-01
202000.0 1.003060000e+00 1.253860000e-01
211500.0 1.002864000e+00 1.364830000e-01
221000.0 1.002827000e+00 1.481170000e-01
230500.0 1.003065000e+00 1.592340000e-01
240000.0 7.908850000e-01 5.631400000e-02
249500.0 1.004002000e+00 1.823100000e-01
259000.0 1.004613000e+00 1.925430000e-01
268500.0 1.004821000e+00 2.043290000e-01
278000.0 1.004653000e+00 2.144090000e-01
287500.0 1.005428000e+00 2.264610000e-01
297000.0 1.005584000e+00 2.366210000e-01
306500.0 1.005809000e+00 2.475690000e-01
316000.0 1.006471000e+00 2.584430000e-01
325500.0 1.005493000e+00 2.697760000e-01
335000.0 1.006131000e+00 2.797860000e-01
344500.0 1.006072000e+00 2.906950000e-01
354000.0 1.006379000e+00 3.011820000e-01
363500.0 1.006319000e+00 3.112280000e-01
373000.0 1.006897000e+00 3.218170000e-01
382500.0 1.007008000e+00 3.327720000e-01
392000.0 1.007604000e+00 3.428160000e-01
401500.0 1.007711000e+00 3.523590000e-01
411000.0 1.007530000e+00 3.641710000e-01
420500.0 1.008192000e+00 3.730290000e-01
430000.0 1.007923000e+00 3.837240000e-01
439500.0 1.013502000e+00 3.746930000e-01
449000.0 1.008036000e+00 4.046710000e-01
458500.0 1.014110000e+00 3.955570000e-01
468000.0 1.008746000e+00 4.244300000e-01
477500.0 1.015582000e+00 4.160620000e-01
487000.0 1.003651000e+00 4.632520000e-01
496500.0 1.015710000e+00 4.360810000e-01
506000.0 1.003813000e+00 4.825670000e-01
515500.0 1.016875000e+00 4.563950000e-01
525000.0 1.004422000e+00 5.028940000e-01
534500.0 1.011818000e+00 4.937000000e-01
544000.0 1.011808000e+00 5.038550000e-01
553500.0 1.011812000e+00 5.132250000e-01
563000.0 1.011461000e+00 5.233450000e-01
572500.0 1.013334000e+00 5.333850000e-01
582000.0 1.013567000e+00 5.426120000e-01
591500.0 1.014126000e+00 5.516070000e-01
601000.0 1.013954000e+00 5.613960000e-01
610500.0 1.015772000e+00 5.703840000e-01
620000.0 1.015398000e+00 5.809520000e-01
629500.0 1.015949000e+00 5.910820000e-01
639000.0 1.017608000e+00 5.987550000e-01
648500.0 1.017544000e+00 6.083670000e-01
658000.0 1.017716000e+00 6.179930000e-01
667500.0 1.018074000e+00 6.285910000e-01
677000.0 1.018804000e+00 6.375680000e-01
686500.0 1.019391000e+00 6.476410000e-01
696000.0 1.020335000e+00 6.562700000e-01
705500.0 1.021513000e+00 6.660810000e-01
715000.0 1.022148000e+00 6.754640000e-01
724500.0 1.023802000e+00 6.847830000e-01
734000.0 1.025687000e+00 6.925580000e-01
743500.0 1.025535000e+00 7.016740000e-01
753000.0 1.025925000e+00 7.109790000e-01
762500.0 1.027564000e+00 7.201460000e-01
772000.0 1.029033000e+00 7.304330000e-01
781500.0 1.029637000e+00 7.402150000e-01
791000.0 1.031203000e+00 7.489940000e-01
800500.0 1.033164000e+00 7.578590000e-01
810000.0 1.031904000e+00 7.670050000e-01
819500.0 1.035482000e+00 7.754120000e-01
829000.0 1.036708000e+00 7.843160000e-01
838500.0 1.038403000e+00 7.942220000e-01
848000.0 1.041231000e+00 8.048150000e-01
857500.0 1.041198000e+00 8.117480000e-01
867000.0 1.042775000e+00 8.207150000e-01
876500.0 1.044805000e+00 8.306310000e-01
886000.0 1.047421000e+00 8.387330000e-01
895500.0 1.048643000e+00 8.462120000e-01
905000.0 1.050825000e+00 8.550120000e-01
914500.0 1.052455000e+00 8.651970000e-01
924000.0 1.054493000e+00 8.738660000e-01
933500.0 1.056913000e+00 8.825350000e-01
943000.0 1.058130000e+00 8.920580000e-01
952500.0 1.061647000e+00 8.999800000e-01
962000.0 1.061026000e+00 9.094630000e-01
971500.0 1.065325000e+00 9.175130000e-01
981000.0 1.067519000e+00 9.262620000e-01
990500.0 1.070703000e+00 9.353620000e-01
1000000.0 1.073298000e+00 9.422670000e-01
1090000.0 1.098329000e+00 1.021204000e+00
1180000.0 1.137585000e+00 1.098388000e+00
1270000.0 1.184472000e+00 1.168591000e+00
1360000.0 1.239236000e+00 1.230511000e+00
1450000.0 1.306168000e+00 1.282587000e+00
1540000.0 1.383269000e+00 1.323584000e+00
1630000.0 1.467313000e+00 1.344547000e+00
1720000.0 1.554919000e+00 1.351161000e+00
1810000.0 1.646035000e+00 1.338467000e+00
1900000.0 1.729648000e+00 1.308750000e+00
1990000.0 1.807819000e+00 1.252813000e+00
2080000.0 1.870311000e+00 1.181143000e+00
2170000.0 1.922286000e+00 1.098785000e+00
2260000.0 1.949985000e+00 1.007449000e+00
2350000.0 1.961172000e+00 9.179830000e-01
2440000.0 1.961143000e+00 8.351480000e-01
2530000.0 1.948380000e+00 7.510900000e-01
2620000.0 1.921327000e+00 6.738230000e-01
2710000.0 1.888347000e+00 6.096240000e-01
2800000.0 1.857484000e+00 5.493890000e-01
2890000.0 1.817281000e+00 4.970220000e-01
2980000.0 1.778912000e+00 4.514850000e-01
3070000.0 1.741105000e+00 4.108470000e-01
3160000.0 1.701431000e+00 3.735300000e-01
3250000.0 1.666242000e+00 3.441030000e-01
3340000.0 1.630685000e+00 3.138150000e-01
3430000.0 1.598087000e+00 2.873170000e-01
3520000.0 1.567560000e+00 2.659990000e-01
3610000.0 1.538482000e+00 2.449990000e-01
3700000.0 1.510591000e+00 2.248580000e-01
3790000.0 1.487422000e+00 2.052110000e-01
3880000.0 1.464797000e+00 1.891240000e-01
3970000.0 1.440084000e+00 1.709450000e-01
4060000.0 1.420671000e+00 1.553200000e-01
4150000.0 1.401682000e+00 1.408000000e-01
4240000.0 1.385306000e+00 1.268840000e-01
4330000.0 1.371537000e+00 1.123500000e-01
4420000.0 1.355375000e+00 9.954100000e-02
4510000.0 1.343114000e+00 8.476800000e-02
4600000.0 1.329750000e+00 6.950200000e-02
4690000.0 1.319631000e+00 5.686900000e-02
4780000.0 1.310004000e+00 4.460700000e-02
4870000.0 1.301224000e+00 3.087000000e-02
4960000.0 1.293853000e+00 1.782100000e-02
5050000.0 1.279907000e+00 5.684000000e-03
5140000.0 1.274879000e+00 -6.278000000e-03
5230000.0 1.269314000e+00 -1.877400000e-02
5320000.0 1.263416000e+00 -3.219300000e-02
5410000.0 1.259588000e+00 -4.344900000e-02
5500000.0 1.255921000e+00 -5.509400000e-02
5590000.0 1.254232000e+00 -6.751400000e-02
5680000.0 1.250015000e+00 -7.924400000e-02
5770000.0 1.245102000e+00 -8.939400000e-02
5860000.0 1.241762000e+00 -1.008680000e-01
5950000.0 1.238754000e+00 -1.101280000e-01
6040000.0 1.236558000e+00 -1.209480000e-01
6130000.0 1.233139000e+00 -1.311970000e-01
6220000.0 1.230662000e+00 -1.401490000e-01
6310000.0 1.228428000e+00 -1.495790000e-01
6400000.0 1.227696000e+00 -1.573210000e-01
6490000.0 1.225053000e+00 -1.653950000e-01
6580000.0 1.224079000e+00 -1.723330000e-01
6670000.0 1.221348000e+00 -1.802240000e-01
6760000.0 1.220403000e+00 -1.853280000e-01
6850000.0 1.219489000e+00 -1.908070000e-01
6940000.0 1.218905000e+00 -1.972730000e-01
7030000.0 1.218636000e+00 -2.003100000e-01
7120000.0 1.217759000e+00 -2.047480000e-01
7210000.0 1.217581000e+00 -2.059230000e-01
7300000.0 1.216805000e+00 -2.072080000e-01
7390000.0 1.217064000e+00 -2.091600000e-01
7480000.0 1.217110000e+00 -2.073380000e-01
7570000.0 -2.593250000e-01 -1.255416000e+00
7660000.0 -2.589320000e-01 -1.256308000e+00
7750000.0 -2.569390000e-01 -1.256397000e+00
7840000.0 -2.579740000e-01 -1.256566000e+00
7930000.0 -2.577860000e-01 -1.256899000e+00
8020000.0 -2.561170000e-01 -1.256818000e+00
8110000.0 -2.551990000e-01 -1.258531000e+00
8200000.0 -2.551730000e-01 -1.258750000e+00
8290000.0 -2.548880000e-01 -1.259212000e+00
8380000.0 -2.527810000e-01 -1.259791000e+00
8470000.0 -2.541350000e-01 -1.258595000e+00
8560000.0 -2.526510000e-01 -1.260419000e+00
8650000.0 -2.522050000e-01 -1.260904000e+00
8740000.0 -2.517720000e-01 -1.260647000e+00
8830000.0 -2.512460000e-01 -1.261923000e+00
8920000.0 -2.510920000e-01 -1.261617000e+00
9010000.0 -2.509720000e-01 -1.263552000e+00
9100000.0 -2.504510000e-01 -1.263034000e+00
9190000.0 -2.286400000e-01 -1.270403000e+00
9280000.0 -2.487340000e-01 -1.266806000e+00
9370000.0 -2.488810000e-01 -1.266538000e+00
9460000.0 -2.482460000e-01 -1.267671000e+00
9550000.0 -2.473500000e-01 -1.268525000e+00
9640000.0 -2.467570000e-01 -1.268272000e+00
9730000.0 -2.463210000e-01 -1.267704000e+00
9820000.0 -2.456090000e-01 -1.270385000e+00
9910000.0 -2.460550000e-01 -1.270143000e+00
10000000.0 -2.450970000e-01 -1.271706000e+00
10900000.0 -2.395910000e-01 -1.279929000e+00
11800000.0 -2.363930000e-01 -1.288237000e+00
12700000.0 -2.336410000e-01 -1.298999000e+00
13600000.0 -2.285220000e-01 -1.309487000e+00
14500000.0 -2.251080000e-01 -1.320506000e+00
15400000.0 -2.202670000e-01 -1.330646000e+00
16300000.0 -2.163430000e-01 -1.340955000e+00
17200000.0 -2.123370000e-01 -1.354611000e+00
18100000.0 -2.053780000e-01 -1.367022000e+00
19000000.0 -2.007750000e-01 -1.378595000e+00
19900000.0 -1.958570000e-01 -1.390210000e+00
20800000.0 -1.906960000e-01 -1.403392000e+00
21700000.0 -1.849220000e-01 -1.415632000e+00
22600000.0 -1.773790000e-01 -1.428259000e+00
23500000.0 -1.711530000e-01 -1.441930000e+00
24400000.0 -1.642320000e-01 -1.455474000e+00
25300000.0 -1.557440000e-01 -1.470037000e+00
26200000.0 -1.487000000e-01 -1.483939000e+00
27100000.0 -1.384850000e-01 -1.497160000e+00
28000000.0 -1.289620000e-01 -1.512600000e+00
28900000.0 -1.203220000e-01 -1.527281000e+00
29800000.0 -1.098500000e-01 -1.542259000e+00
30700000.0 -9.906800000e-02 -1.556107000e+00
31600000.0 -8.853400000e-02 -1.570986000e+00
32500000.0 -7.472000000e-02 -1.586136000e+00
33400000.0 -6.323400000e-02 -1.601641000e+00
34300000.0 -5.068000000e-02 -1.617946000e+00
35200000.0 -3.649200000e-02 -1.632147000e+00
36100000.0 -2.412100000e-02 -1.648818000e+00
37000000.0 -9.145000000e-03 -1.663661000e+00
37900000.0 7.252000000e-03 -1.678585000e+00
38800000.0 2.422600000e-02 -1.693944000e+00
39700000.0 4.003500000e-02 -1.709479000e+00
40600000.0 5.772600000e-02 -1.723537000e+00
41500000.0 7.743700000e-02 -1.740917000e+00
42400000.0 9.609600000e-02 -1.756520000e+00
43300000.0 1.162740000e-01 -1.770356000e+00
44200000.0 1.375940000e-01 -1.784162000e+00
45100000.0 1.588170000e-01 -1.798762000e+00
46000000.0 1.820550000e-01 -1.813766000e+00
46900000.0 2.063840000e-01 -1.827186000e+00
47800000.0 2.304500000e-01 -1.841116000e+00
48700000.0 2.571890000e-01 -1.854751000e+00
49600000.0 2.832570000e-01 -1.864863000e+00
50500000.0 3.097900000e-01 -1.875336000e+00
51400000.0 3.367010000e-01 -1.888440000e+00
52300000.0 3.662500000e-01 -1.896398000e+00
53200000.0 3.971920000e-01 -1.907401000e+00
54100000.0 4.265620000e-01 -1.915565000e+00
55000000.0 4.605980000e-01 -1.922694000e+00
55900000.0 4.925550000e-01 -1.931888000e+00
56800000.0 5.279210000e-01 -1.936326000e+00
57700000.0 5.615340000e-01 -1.939521000e+00
58600000.0 5.944970000e-01 -1.942594000e+00
59500000.0 6.310750000e-01 -1.942914000e+00
60400000.0 6.693700000e-01 -1.943713000e+00
61300000.0 7.027680000e-01 -1.942278000e+00
62200000.0 7.366960000e-01 -1.938444000e+00
63100000.0 7.771120000e-01 -1.935777000e+00
64000000.0 8.132440000e-01 -1.931297000e+00
64900000.0 8.519010000e-01 -1.920834000e+00
65800000.0 8.884910000e-01 -1.912767000e+00
66700000.0 9.270310000e-01 -1.901132000e+00
67600000.0 9.649400000e-01 -1.889774000e+00
68500000.0 1.001706000e+00 -1.873459000e+00
69400000.0 1.036144000e+00 -1.855914000e+00
70300000.0 1.073588000e+00 -1.838388000e+00
71200000.0 1.108755000e+00 -1.820845000e+00
72100000.0 1.141946000e+00 -1.796735000e+00
73000000.0 1.175440000e+00 -1.773945000e+00
73900000.0 1.206247000e+00 -1.749710000e+00
74800000.0 1.238533000e+00 -1.723796000e+00
75700000.0 1.268046000e+00 -1.696925000e+00
76600000.0 1.293850000e+00 -1.669178000e+00
77500000.0 1.324062000e+00 -1.639912000e+00
78400000.0 1.348343000e+00 -1.608531000e+00
79300000.0 1.371539000e+00 -1.576514000e+00
80200000.0 1.392192000e+00 -1.544300000e+00
81100000.0 1.412097000e+00 -1.512875000e+00
82000000.0 1.432581000e+00 -1.480287000e+00
82900000.0 1.451371000e+00 -1.445632000e+00
83800000.0 1.464907000e+00 -1.413031000e+00
84700000.0 1.479175000e+00 -1.378298000e+00
85600000.0 1.490150000e+00 -1.343566000e+00
86500000.0 1.499694000e+00 -1.309150000e+00
87400000.0 1.511301000e+00 -1.273786000e+00
88300000.0 1.518535000e+00 -1.243453000e+00
89200000.0 1.523264000e+00 -1.208412000e+00
90100000.0 1.529138000e+00 -1.174029000e+00
91000000.0 1.531969000e+00 -1.141088000e+00
91900000.0 1.534258000e+00 -1.109348000e+00
92800000.0 1.536601000e+00 -1.077712000e+00
93700000.0 1.536746000e+00 -1.047726000e+00
94600000.0 1.534986000e+00 -1.016186000e+00
95500000.0 1.534170000e+00 -9.860350000e-01
96400000.0 1.531402000e+00 -9.582100000e-01
97300000.0 1.525973000e+00 -9.307160000e-01
98200000.0 1.521509000e+00 -9.020500000e-01
99100000.0 1.518583000e+00 -8.752630000e-01
100000000.0 1.511110000e+00 -8.467710000e-01
109000000.0 1.428621000e+00 -6.241570000e-01
118000000.0 1.322108000e+00 -4.631490000e-01
127000000.0 1.211604000e+00 -3.539840000e-01
136000000.0 1.111325000e+00 -2.785720000e-01
145000000.0 1.018598000e+00 -2.225150000e-01
154000000.0 9.707310000e-01 -2.044640000e-01
163000000.0 9.684300000e-01 -2.167780000e-01
172000000.0 9.667290000e-01 -2.295690000e-01
181000000.0 9.633030000e-01 -2.405210000e-01
190000000.0 9.612280000e-01 -2.505450000e-01
199000000.0 9.572370000e-01 -2.622500000e-01
208000000.0 9.534960000e-01 -2.742340000e-01
217000000.0 9.511390000e-01 -2.849500000e-01
226000000.0 9.466280000e-01 -2.955220000e-01
235000000.0 9.439130000e-01 -3.062980000e-01
244000000.0 9.388120000e-01 -3.179920000e-01
253000000.0 9.344640000e-01 -3.279240000e-01
262000000.0 9.297100000e-01 -3.387490000e-01
271000000.0 9.252490000e-01 -3.490060000e-01
280000000.0 9.208420000e-01 -3.599090000e-01
289000000.0 9.144930000e-01 -3.709300000e-01
298000000.0 9.112010000e-01 -3.801610000e-01
307000000.0 9.058420000e-01 -3.898930000e-01
316000000.0 9.000660000e-01 -4.008750000e-01
325000000.0 8.992740000e-01 -4.135400000e-01
334000000.0 8.925510000e-01 -4.215980000e-01
343000000.0 8.898770000e-01 -4.285050000e-01
352000000.0 8.823790000e-01 -4.408070000e-01
361000000.0 8.698240000e-01 -4.655180000e-01
370000000.0 8.954980000e-01 -4.319500000e-01
379000000.0 8.792420000e-01 -4.539380000e-01
388000000.0 8.617750000e-01 -4.800050000e-01
397000000.0 8.144420000e-01 -5.227300000e-01
406000000.0 8.501050000e-01 -4.971110000e-01
415000000.0 8.418970000e-01 -5.042790000e-01
424000000.0 8.359380000e-01 -5.165490000e-01
433000000.0 8.274190000e-01 -5.258190000e-01
442000000.0 8.167650000e-01 -5.327900000e-01
451000000.0 8.131940000e-01 -5.407630000e-01
460000000.0 8.079450000e-01 -5.526220000e-01
469000000.0 8.046840000e-01 -5.617180000e-01
478000000.0 7.988960000e-01 -5.700160000e-01
487000000.0 7.956270000e-01 -5.786770000e-01
496000000.0 7.880890000e-01 -5.890250000e-01
505000000.0 7.831650000e-01 -5.992950000e-01
514000000.0 7.766380000e-01 -6.091490000e-01
523000000.0 7.735680000e-01 -6.154440000e-01
532000000.0 7.666600000e-01 -6.216510000e-01
541000000.0 7.592460000e-01 -6.336010000e-01
550000000.0 7.587520000e-01 -6.386970000e-01
559000000.0 7.437500000e-01 -6.498790000e-01
568000000.0 7.334000000e-01 -6.576310000e-01
577000000.0 7.230080000e-01 -6.628420000e-01
586000000.0 7.135820000e-01 -6.723190000e-01
595000000.0 7.056830000e-01 -6.775320000e-01
604000000.0 6.986230000e-01 -6.887480000e-01
613000000.0 6.917070000e-01 -6.979330000e-01
622000000.0 6.871140000e-01 -7.063010000e-01
631000000.0 6.795710000e-01 -7.177530000e-01
640000000.0 6.717330000e-01 -7.278090000e-01
649000000.0 6.645140000e-01 -7.354990000e-01
658000000.0 6.563700000e-01 -7.448730000e-01
667000000.0 6.501330000e-01 -7.545210000e-01
676000000.0 6.393510000e-01 -7.604570000e-01
685000000.0 6.327890000e-01 -7.672560000e-01
694000000.0 6.233500000e-01 -7.718060000e-01
703000000.0 6.087350000e-01 -7.761770000e-01
712000000.0 5.925310000e-01 -7.784900000e-01
721000000.0 5.911770000e-01 -7.858750000e-01
730000000.0 5.791770000e-01 -7.902110000e-01
739000000.0 5.660390000e-01 -7.921140000e-01
748000000.0 5.549740000e-01 -7.954960000e-01
757000000.0 5.459910000e-01 -8.025010000e-01
766000000.0 5.344700000e-01 -8.125900000e-01
775000000.0 5.248310000e-01 -8.214490000e-01
784000000.0 5.100590000e-01 -8.332360000e-01
793000000.0 5.041310000e-01 -8.357820000e-01
802000000.0 4.930840000e-01 -8.452780000e-01
811000000.0 4.840680000e-01 -8.501550000e-01
820000000.0 4.722460000e-01 -8.540100000e-01
829000000.0 4.638720000e-01 -8.596250000e-01
838000000.0 4.508020000e-01 -8.682370000e-01
847000000.0 4.421400000e-01 -8.674410000e-01
856000000.0 4.368070000e-01 -8.702740000e-01
865000000.0 4.267800000e-01 -8.719940000e-01
874000000.0 4.185460000e-01 -8.748860000e-01
883000000.0 4.071290000e-01 -8.775490000e-01
892000000.0 4.038230000e-01 -8.761720000e-01
901000000.0 3.901180000e-01 -8.771760000e-01
910000000.0 3.798450000e-01 -8.848340000e-01
919000000.0 3.707360000e-01 -8.861710000e-01
928000000.0 3.582410000e-01 -8.910210000e-01
937000000.0 3.482480000e-01 -8.931050000e-01
946000000.0 3.336810000e-01 -8.999540000e-01
955000000.0 3.274930000e-01 -8.995240000e-01
964000000.0 3.154790000e-01 -9.042160000e-01
973000000.0 3.091110000e-01 -9.058160000e-01
982000000.0 2.946700000e-01 -9.090550000e-01
991000000.0 2.907950000e-01 -9.106780000e-01
1000000000.0 2.790550000e-01 -9.134160000e-01
1004500000.0 2.715180000e-01 -9.168050000e-01
1009000000.0 2.689560000e-01 -9.171460000e-01
1013500000.0 2.638510000e-01 -9.176780000e-01
1018000000.0 2.601830000e-01 -9.187640000e-01
1022500000.0 2.577050000e-01 -9.186070000e-01
1027000000.0 2.547500000e-01 -9.192180000e-01
1031500000.0 2.488450000e-01 -9.214860000e-01
1036000000.0 2.437590000e-01 -9.230580000e-01
1040500000.0 2.355570000e-01 -9.248730000e-01
1045000000.0 2.312210000e-01 -9.264040000e-01
1049500000.0 2.279250000e-01 -9.257370000e-01
1054000000.0 2.265710000e-01 -9.269580000e-01
1058500000.0 2.188250000e-01 -9.294190000e-01
1063000000.0 2.139420000e-01 -9.296130000e-01
1067500000.0 2.079430000e-01 -9.308790000e-01
1072000000.0 2.087990000e-01 -9.299250000e-01
1076500000.0 2.011310000e-01 -9.309800000e-01
1081000000.0 1.988110000e-01 -9.322210000e-01
1085500000.0 1.925330000e-01 -9.332570000e-01
1090000000.0 1.893050000e-01 -9.363250000e-01
1094500000.0 1.810150000e-01 -9.350710000e-01
1099000000.0 1.752720000e-01 -9.374220000e-01
1103500000.0 1.749150000e-01 -9.389620000e-01
1108000000.0 1.703700000e-01 -9.379100000e-01
1112500000.0 1.650740000e-01 -9.390290000e-01
1117000000.0 1.599850000e-01 -9.407860000e-01
1121500000.0 1.521340000e-01 -9.419190000e-01
1126000000.0 1.606470000e-01 -9.429550000e-01
1130500000.0 1.412440000e-01 -9.421770000e-01
1135000000.0 1.369790000e-01 -9.450280000e-01
1139500000.0 1.342760000e-01 -9.439010000e-01
1144000000.0 1.233250000e-01 -9.460200000e-01
1148500000.0 1.209810000e-01 -9.482080000e-01
1153000000.0 8.265000000e-02 -9.381020000e-01
1157500000.0 1.139440000e-01 -9.476530000e-01
1162000000.0 9.296800000e-02 -9.447580000e-01
1166500000.0 1.051810000e-01 -9.426550000e-01
1171000000.0 1.147670000e-01 -9.452650000e-01
1175500000.0 8.616200000e-02 -9.507400000e-01
1180000000.0 6.861300000e-02 -9.457960000e-01
1184500000.0 7.523300000e-02 -9.489400000e-01
1189000000.0 8.594700000e-02 -9.467270000e-01
1193500000.0 6.337400000e-02 -9.488180000e-01
1198000000.0 4.055900000e-02 -9.457370000e-01
1202500000.0 5.146100000e-02 -9.479330000e-01
1207000000.0 6.411800000e-02 -9.508680000e-01
1211500000.0 4.643500000e-02 -9.480650000e-01
1216000000.0 4.342400000e-02 -9.473220000e-01
1220500000.0 3.456900000e-02 -9.533990000e-01
1225000000.0 3.007000000e-02 -9.487150000e-01
1229500000.0 2.960600000e-02 -9.562490000e-01
1234000000.0 2.658700000e-02 -9.533910000e-01
1238500000.0 1.357300000e-02 -9.504620000e-01
1243000000.0 1.767000000e-02 -9.530170000e-01
1247500000.0 1.162400000e-02 -9.550120000e-01
1252000000.0 1.038100000e-02 -9.511380000e-01
1256500000.0 3.881000000e-03 -9.517990000e-01
1261000000.0 3.081000000e-03 -9.529480000e-01
1265500000.0 -1.296100000e-02 -9.527930000e-01
1270000000.0 -1.695200000e-02 -9.543250000e-01
1274500000.0 -1.797400000e-02 -9.540020000e-01
1279000000.0 -2.048800000e-02 -9.541820000e-01
1283500000.0 -3.435100000e-02 -9.506840000e-01
1288000000.0 -3.546400000e-02 -9.542530000e-01
1292500000.0 -4.010800000e-02 -9.521890000e-01
1297000000.0 -4.344000000e-02 -9.466550000e-01
1301500000.0 -5.010400000e-02 -9.534730000e-01
1306000000.0 -5.850500000e-02 -9.511930000e-01
1310500000.0 -5.570700000e-02 -9.502450000e-01
1315000000.0 -6.309800000e-02 -9.495970000e-01
1319500000.0 -7.038600000e-02 -9.466770000e-01
1324000000.0 -6.981700000e-02 -9.487550000e-01
1328500000.0 -8.407900000e-02 -9.474930000e-01
1333000000.0 -9.082400000e-02 -9.514650000e-01
1337500000.0 -9.603700000e-02 -9.390760000e-01
1342000000.0 -9.660500000e-02 -9.433740000e-01
1346500000.0 -1.143130000e-01 -9.405510000e-01
1351000000.0 -1.057340000e-01 -9.439810000e-01
1355500000.0 -1.188160000e-01 -9.402380000e-01
1360000000.0 -1.102650000e-01 -9.402790000e-01
1364500000.0 -1.150940000e-01 -9.441950000e-01
1369000000.0 -1.261710000e-01 -9.397720000e-01
1373500000.0 -1.229040000e-01 -9.482030000e-01
1378000000.0 -1.276620000e-01 -9.433420000e-01
1382500000.0 -1.391150000e-01 -9.423720000e-01
1387000000.0 -1.406550000e-01 -9.370090000e-01
1391500000.0 -1.344150000e-01 -9.505910000e-01
1396000000.0 -1.439140000e-01 -9.509900000e-01
1400500000.0 -1.592750000e-01 -9.444530000e-01
1405000000.0 -1.549500000e-01 -9.503700000e-01
1409500000.0 -1.649210000e-01 -9.433270000e-01
1414000000.0 -1.663330000e-01 -9.433240000e-01
1418500000.0 -1.717510000e-01 -9.400660000e-01
1423000000.0 -1.709140000e-01 -9.386730000e-01
1427500000.0 -1.725580000e-01 -9.504980000e-01
1432000000.0 -1.834190000e-01 -9.428410000e-01
1436500000.0 -1.903350000e-01 -9.368940000e-01
1441000000.0 -1.872500000e-01 -9.412440000e-01
1445500000.0 -1.946810000e-01 -9.390860000e-01
1450000000.0 -2.027380000e-01 -9.334490000e-01
