! piloto_corto / aire / r07
# HZ S RI R 50
50000.0 1.005264000e+00 -7.224400000e-02
59500.0 1.006196000e+00 -5.927800000e-02
69000.0 1.003570000e+00 -4.448300000e-02
78500.0 1.002389000e+00 -3.290600000e-02
88000.0 1.000823000e+00 -2.150200000e-02
97500.0 1.000213000e+00 -8.308000000e-03
107000.0 9.992780000e-01 4.349000000e-03
116500.0 9.999770000e-01 1.571600000e-02
126000.0 1.001671000e+00 2.720600000e-02
135500.0 1.000253000e+00 4.049100000e-02
145000.0 9.994850000e-01 5.207000000e-02
154500.0 1.000682000e+00 6.409000000e-02
164000.0 1.000901000e+00 7.602100000e-02
173500.0 1.001501000e+00 8.701300000e-02
183000.0 1.001902000e+00 9.909900000e-02
192500.0 1.001715000e+00 1.100480000e-01
202000.0 1.002523000e+00 1.222130000e-01
211500.0 1.002730000e+00 1.333960000e-01
221000.0 1.002946000e+00 1.448120000e-01
230500.0 1.002546000e+00 1.556630000e-01
240000.0 1.002822000e+00 1.666060000e-01
249500.0 1.003666000e+00 1.779360000e-01
259000.0 1.010603000e+00 2.060580000e-01
268500.0 1.003732000e+00 2.003060000e-01
278000.0 1.004479000e+00 2.113030000e-01
287500.0 1.004407000e+00 2.218670000e-01
297000.0 1.003987000e+00 2.323530000e-01
306500.0 1.003963000e+00 2.435490000e-01
316000.0 1.004327000e+00 2.535090000e-01
325500.0 1.005154000e+00 2.641330000e-01
335000.0 1.004834000e+00 2.754460000e-01
344500.0 1.004724000e+00 2.853890000e-01
354000.0 1.005243000e+00 2.959460000e-01
363500.0 1.005605000e+00 3.065420000e-01
373000.0 1.004948000e+00 3.167120000e-01
382500.0 1.005493000e+00 3.281570000e-01
392000.0 1.005896000e+00 3.374300000e-01
401500.0 1.005899000e+00 3.471700000e-01
411000.0 1.005686000e+00 3.573430000e-01
420500.0 1.006657000e+00 3.686340000e-01
430000.0 1.006242000e+00 3.786570000e-01
439500.0 1.007061000e+00 3.882330000e-01
449000.0 1.006757000e+00 3.979600000e-01
458500.0 1.007412000e+00 4.083390000e-01
468000.0 1.007395000e+00 4.180910000e-01
477500.0 1.007394000e+00 4.285720000e-01
487000.0 1.007522000e+00 4.385270000e-01
496500.0 1.008164000e+00 4.481910000e-01
506000.0 1.009294000e+00 4.581140000e-01
515500.0 1.008784000e+00 4.675190000e-01
525000.0 1.008826000e+00 4.775980000e-01
534500.0 1.009547000e+00 4.869470000e-01
544000.0 1.009421000e+00 4.969540000e-01
553500.0 1.009933000e+00 5.066580000e-01
563000.0 1.010266000e+00 5.158610000e-01
572500.0 1.011018000e+00 5.261570000e-01
582000.0 1.011276000e+00 5.352570000e-01
591500.0 1.010865000e+00 5.456970000e-01
601000.0 1.011455000e+00 5.548410000e-01
610500.0 1.013453000e+00 5.633440000e-01
620000.0 1.012973000e+00 5.742950000e-01
629500.0 1.012728000e+00 5.821220000e-01
639000.0 1.013405000e+00 5.911960000e-01
648500.0 1.014703000e+00 6.013940000e-01
658000.0 1.013776000e+00 6.107130000e-01
667500.0 1.015172000e+00 6.202050000e-01
677000.0 1.016988000e+00 6.298580000e-01
686500.0 1.017206000e+00 6.384920000e-01
696000.0 1.017159000e+00 6.474930000e-01
705500.0 1.018099000e+00 6.571940000e-01
715000.0 1.019785000e+00 6.660150000e-01
724500.0 1.019322000e+00 6.751190000e-01
734000.0 1.020838000e+00 6.856200000e-01
743500.0 1.021731000e+00 6.936520000e-01
753000.0 1.021206000e+00 7.025270000e-01
762500.0 1.023833000e+00 7.114730000e-01
772000.0 1.024251000e+00 7.212490000e-01
781500.0 1.025160000e+00 7.303980000e-01
791000.0 1.026610000e+00 7.395170000e-01
800500.0 1.028127000e+00 7.484300000e-01
810000.0 1.028838000e+00 7.559480000e-01
819500.0 1.029630000e+00 7.663550000e-01
829000.0 1.031887000e+00 7.751640000e-01
838500.0 1.033884000e+00 7.838210000e-01
848000.0 1.034119000e+00 7.923170000e-01
857500.0 1.035443000e+00 8.016090000e-01
867000.0 1.036640000e+00 8.097200000e-01
876500.0 1.037954000e+00 8.184570000e-01
886000.0 1.041016000e+00 8.286670000e-01
895500.0 1.042636000e+00 8.363160000e-01
905000.0 1.043448000e+00 8.452050000e-01
914500.0 1.045464000e+00 8.550430000e-01
924000.0 1.046967000e+00 8.629360000e-01
933500.0 1.049926000e+00 8.722980000e-01
943000.0 1.051171000e+00 8.794550000e-01
952500.0 1.053275000e+00 8.892180000e-01
962000.0 1.056235000e+00 8.976040000e-01
971500.0 1.060012000e+00 9.058800000e-01
981000.0 1.059956000e+00 9.160880000e-01
990500.0 1.063905000e+00 9.237330000e-01
1000000.0 1.065608000e+00 9.318090000e-01
1090000.0 1.089340000e+00 1.010588000e+00
1180000.0 1.123883000e+00 1.084106000e+00
1270000.0 1.169114000e+00 1.153167000e+00
1360000.0 1.220579000e+00 1.217936000e+00
1450000.0 1.285452000e+00 1.269971000e+00
1540000.0 1.356355000e+00 1.313756000e+00
1630000.0 1.439879000e+00 1.342696000e+00
1720000.0 1.523174000e+00 1.353276000e+00
1810000.0 1.611681000e+00 1.342405000e+00
1900000.0 1.677341000e+00 1.344409000e+00
1990000.0 1.796331000e+00 1.231533000e+00
2080000.0 1.826556000e+00 1.237391000e+00
2170000.0 1.912478000e+00 1.092358000e+00
2260000.0 1.918896000e+00 1.074457000e+00
2350000.0 1.965468000e+00 9.154430000e-01
2440000.0 1.945680000e+00 9.034800000e-01
2530000.0 1.956121000e+00 7.452990000e-01
2620000.0 1.926363000e+00 7.032180000e-01
2710000.0 1.897144000e+00 6.339290000e-01
2800000.0 1.864463000e+00 5.703540000e-01
2890000.0 1.828668000e+00 5.149250000e-01
2980000.0 1.788285000e+00 4.663120000e-01
3070000.0 1.751320000e+00 4.233590000e-01
3160000.0 1.712952000e+00 3.867740000e-01
3250000.0 1.678339000e+00 3.519690000e-01
3340000.0 1.641724000e+00 3.214980000e-01
3430000.0 1.608331000e+00 2.930990000e-01
3520000.0 1.576862000e+00 2.725280000e-01
3610000.0 1.547918000e+00 2.468620000e-01
3700000.0 1.520770000e+00 2.283260000e-01
3790000.0 1.496358000e+00 2.092540000e-01
3880000.0 1.471125000e+00 1.906280000e-01
3970000.0 1.449230000e+00 1.742120000e-01
4060000.0 1.429562000e+00 1.585150000e-01
4150000.0 1.407930000e+00 1.419190000e-01
4240000.0 1.391987000e+00 1.257850000e-01
4330000.0 1.376986000e+00 1.118410000e-01
4420000.0 1.360341000e+00 9.466400000e-02
4510000.0 1.348201000e+00 8.398400000e-02
4600000.0 1.336006000e+00 6.957800000e-02
4690000.0 1.324412000e+00 5.543400000e-02
4780000.0 1.315047000e+00 4.228600000e-02
4870000.0 1.305745000e+00 2.848400000e-02
4960000.0 1.298096000e+00 1.643300000e-02
5050000.0 1.282289000e+00 3.900000000e-03
5140000.0 1.278592000e+00 -8.535000000e-03
5230000.0 1.272580000e+00 -1.995100000e-02
5320000.0 1.267716000e+00 -3.285000000e-02
5410000.0 1.264122000e+00 -4.562400000e-02
5500000.0 1.258880000e+00 -5.822700000e-02
5590000.0 1.254717000e+00 -6.918600000e-02
5680000.0 1.251386000e+00 -7.940300000e-02
5770000.0 1.247919000e+00 -9.135100000e-02
5860000.0 1.244416000e+00 -1.032500000e-01
5950000.0 1.242299000e+00 -1.114260000e-01
6040000.0 1.239092000e+00 -1.228340000e-01
6130000.0 1.236524000e+00 -1.329030000e-01
6220000.0 1.233404000e+00 -1.414190000e-01
6310000.0 1.231282000e+00 -1.516370000e-01
6400000.0 1.229115000e+00 -1.609460000e-01
6490000.0 1.227983000e+00 -1.682410000e-01
6580000.0 1.225931000e+00 -1.747750000e-01
6670000.0 1.225197000e+00 -1.812520000e-01
6760000.0 1.224015000e+00 -1.871860000e-01
6850000.0 1.221878000e+00 -1.931540000e-01
6940000.0 1.221199000e+00 -1.987000000e-01
7030000.0 1.220622000e+00 -2.027710000e-01
7120000.0 1.219799000e+00 -2.057940000e-01
7210000.0 1.217764000e+00 -2.081680000e-01
7300000.0 1.218828000e+00 -2.108220000e-01
7390000.0 1.218135000e+00 -2.108440000e-01
7480000.0 1.217973000e+00 -2.116920000e-01
7570000.0 -2.609290000e-01 -1.258331000e+00
7660000.0 -2.616740000e-01 -1.258123000e+00
7750000.0 -2.608330000e-01 -1.256915000e+00
7840000.0 -2.596420000e-01 -1.258182000e+00
7930000.0 -2.582750000e-01 -1.259004000e+00
8020000.0 -2.600460000e-01 -1.259104000e+00
8110000.0 -2.588610000e-01 -1.258806000e+00
8200000.0 -2.568970000e-01 -1.260440000e+00
8290000.0 -2.578260000e-01 -1.260031000e+00
8380000.0 -2.564380000e-01 -1.261274000e+00
8470000.0 -2.565490000e-01 -1.261126000e+00
8560000.0 -2.558980000e-01 -1.260987000e+00
8650000.0 -2.546480000e-01 -1.262268000e+00
8740000.0 -2.544140000e-01 -1.262877000e+00
8830000.0 -2.539910000e-01 -1.264005000e+00
8920000.0 -2.542710000e-01 -1.264495000e+00
9010000.0 -2.537100000e-01 -1.265141000e+00
9100000.0 -2.528560000e-01 -1.265433000e+00
9190000.0 -2.525050000e-01 -1.266357000e+00
9280000.0 -2.514870000e-01 -1.267866000e+00
9370000.0 -2.513510000e-01 -1.266634000e+00
9460000.0 -2.499790000e-01 -1.269037000e+00
9550000.0 -2.503840000e-01 -1.269942000e+00
9640000.0 -2.503010000e-01 -1.269674000e+00
9730000.0 -2.494450000e-01 -1.271741000e+00
9820000.0 -2.491710000e-01 -1.271388000e+00
9910000.0 -2.481100000e-01 -1.272419000e+00
10000000.0 -2.491980000e-01 -1.272281000e+00
10900000.0 -2.444180000e-01 -1.281215000e+00
11800000.0 -2.404780000e-01 -1.290038000e+00
12700000.0 -2.377290000e-01 -1.300383000e+00
13600000.0 -2.324880000e-01 -1.309894000e+00
14500000.0 -2.290260000e-01 -1.321445000e+00
15400000.0 -2.255430000e-01 -1.333013000e+00
16300000.0 -2.212050000e-01 -1.343795000e+00
17200000.0 -2.170820000e-01 -1.355186000e+00
18100000.0 -2.124140000e-01 -1.368414000e+00
19000000.0 -2.084540000e-01 -1.379184000e+00
19900000.0 -2.024440000e-01 -1.392450000e+00
20800000.0 -1.976000000e-01 -1.405109000e+00
21700000.0 -1.917080000e-01 -1.418067000e+00
22600000.0 -1.854110000e-01 -1.430000000e+00
23500000.0 -1.791170000e-01 -1.444276000e+00
24400000.0 -1.714750000e-01 -1.457941000e+00
25300000.0 -1.647770000e-01 -1.470343000e+00
26200000.0 -1.548760000e-01 -1.485763000e+00
27100000.0 -1.488840000e-01 -1.499529000e+00
28000000.0 -1.393660000e-01 -1.513384000e+00
28900000.0 -1.295940000e-01 -1.528620000e+00
29800000.0 -1.209200000e-01 -1.542760000e+00
30700000.0 -1.103110000e-01 -1.558575000e+00
31600000.0 -9.949900000e-02 -1.573206000e+00
32500000.0 -8.842400000e-02 -1.589139000e+00
33400000.0 -7.564000000e-02 -1.604818000e+00
34300000.0 -6.321600000e-02 -1.619406000e+00
35200000.0 -5.080800000e-02 -1.634095000e+00
36100000.0 -3.721700000e-02 -1.651019000e+00
37000000.0 -2.288700000e-02 -1.666213000e+00
37900000.0 -8.064000000e-03 -1.682393000e+00
38800000.0 7.795000000e-03 -1.698827000e+00
39700000.0 2.585900000e-02 -1.713009000e+00
40600000.0 4.165300000e-02 -1.727883000e+00
41500000.0 6.055200000e-02 -1.744317000e+00
42400000.0 7.938900000e-02 -1.757936000e+00
43300000.0 9.908900000e-02 -1.773543000e+00
44200000.0 1.203320000e-01 -1.787920000e+00
45100000.0 1.407410000e-01 -1.803133000e+00
46000000.0 1.625010000e-01 -1.817472000e+00
46900000.0 1.861680000e-01 -1.831746000e+00
47800000.0 2.100990000e-01 -1.844460000e+00
48700000.0 2.347420000e-01 -1.857513000e+00
49600000.0 2.592020000e-01 -1.870486000e+00
50500000.0 2.873440000e-01 -1.883325000e+00
51400000.0 3.148030000e-01 -1.891039000e+00
52300000.0 3.434620000e-01 -1.904353000e+00
53200000.0 3.374800000e-01 -1.917906000e+00
54100000.0 4.444810000e-01 -1.919729000e+00
55000000.0 3.974570000e-01 -1.936047000e+00
55900000.0 5.061480000e-01 -1.931359000e+00
56800000.0 4.623340000e-01 -1.952192000e+00
57700000.0 5.733390000e-01 -1.941814000e+00
58600000.0 5.294140000e-01 -1.959203000e+00
59500000.0 6.020230000e-01 -1.954457000e+00
60400000.0 6.380150000e-01 -1.955290000e+00
61300000.0 6.762140000e-01 -1.954424000e+00
62200000.0 7.126510000e-01 -1.953599000e+00
63100000.0 7.481450000e-01 -1.949681000e+00
64000000.0 7.839840000e-01 -1.945310000e+00
64900000.0 8.220650000e-01 -1.937138000e+00
65800000.0 8.600250000e-01 -1.927827000e+00
66700000.0 8.972370000e-01 -1.917262000e+00
67600000.0 9.351820000e-01 -1.905570000e+00
68500000.0 9.709190000e-01 -1.893172000e+00
69400000.0 1.006929000e+00 -1.875307000e+00
70300000.0 1.041709000e+00 -1.858770000e+00
71200000.0 1.078832000e+00 -1.840261000e+00
72100000.0 1.112629000e+00 -1.820939000e+00
73000000.0 1.146543000e+00 -1.796682000e+00
73900000.0 1.176185000e+00 -1.773185000e+00
74800000.0 1.209972000e+00 -1.749642000e+00
75700000.0 1.238606000e+00 -1.721362000e+00
76600000.0 1.266882000e+00 -1.694276000e+00
77500000.0 1.293557000e+00 -1.665637000e+00
78400000.0 1.320086000e+00 -1.639446000e+00
79300000.0 1.344610000e+00 -1.604968000e+00
80200000.0 1.367056000e+00 -1.574863000e+00
81100000.0 1.385698000e+00 -1.540371000e+00
82000000.0 1.405796000e+00 -1.507882000e+00
82900000.0 1.424426000e+00 -1.477843000e+00
83800000.0 1.440639000e+00 -1.443547000e+00
84700000.0 1.453655000e+00 -1.409582000e+00
85600000.0 1.467839000e+00 -1.374973000e+00
86500000.0 1.479438000e+00 -1.340945000e+00
87400000.0 1.488932000e+00 -1.307177000e+00
88300000.0 1.496261000e+00 -1.274109000e+00
89200000.0 1.502912000e+00 -1.240621000e+00
90100000.0 1.508607000e+00 -1.207628000e+00
91000000.0 1.512295000e+00 -1.174883000e+00
91900000.0 1.515463000e+00 -1.143250000e+00
92800000.0 1.516903000e+00 -1.112401000e+00
93700000.0 1.516002000e+00 -1.081794000e+00
94600000.0 1.517695000e+00 -1.050929000e+00
95500000.0 1.514916000e+00 -1.019958000e+00
96400000.0 1.513846000e+00 -9.921030000e-01
97300000.0 1.509598000e+00 -9.615990000e-01
98200000.0 1.506727000e+00 -9.369360000e-01
99100000.0 1.498369000e+00 -9.067000000e-01
100000000.0 1.496149000e+00 -8.825410000e-01
109000000.0 1.415400000e+00 -6.583460000e-01
118000000.0 1.310563000e+00 -4.959040000e-01
127000000.0 1.204687000e+00 -3.820480000e-01
136000000.0 1.102247000e+00 -3.075050000e-01
145000000.0 1.012428000e+00 -2.520820000e-01
154000000.0 9.639150000e-01 -2.348580000e-01
163000000.0 9.613890000e-01 -2.479950000e-01
172000000.0 9.572850000e-01 -2.615920000e-01
181000000.0 9.534210000e-01 -2.737470000e-01
190000000.0 9.500880000e-01 -2.864370000e-01
199000000.0 9.457950000e-01 -2.994630000e-01
208000000.0 9.406960000e-01 -3.120800000e-01
217000000.0 9.371770000e-01 -3.234450000e-01
226000000.0 9.327640000e-01 -3.363270000e-01
235000000.0 9.272240000e-01 -3.477920000e-01
244000000.0 9.217520000e-01 -3.597200000e-01
253000000.0 9.169090000e-01 -3.708990000e-01
262000000.0 9.110320000e-01 -3.828990000e-01
271000000.0 9.053950000e-01 -3.958510000e-01
280000000.0 8.988420000e-01 -4.063550000e-01
289000000.0 8.930620000e-01 -4.175950000e-01
298000000.0 8.845910000e-01 -4.288840000e-01
307000000.0 8.799540000e-01 -4.415090000e-01
316000000.0 8.764800000e-01 -4.519850000e-01
325000000.0 8.694220000e-01 -4.609230000e-01
334000000.0 8.619580000e-01 -4.729840000e-01
343000000.0 8.592630000e-01 -4.838250000e-01
352000000.0 8.516630000e-01 -4.924870000e-01
361000000.0 8.036510000e-01 -5.390510000e-01
370000000.0 8.398630000e-01 -5.160260000e-01
379000000.0 8.342980000e-01 -5.249990000e-01
388000000.0 8.242550000e-01 -5.358440000e-01
397000000.0 8.292820000e-01 -5.304530000e-01
406000000.0 8.112310000e-01 -5.547810000e-01
415000000.0 8.008670000e-01 -5.660640000e-01
424000000.0 8.036090000e-01 -5.609330000e-01
433000000.0 7.855560000e-01 -5.842450000e-01
442000000.0 7.729650000e-01 -5.934540000e-01
451000000.0 7.638680000e-01 -6.018600000e-01
460000000.0 7.618850000e-01 -6.120670000e-01
469000000.0 7.536190000e-01 -6.225490000e-01
478000000.0 7.505820000e-01 -6.303510000e-01
487000000.0 7.430510000e-01 -6.429200000e-01
496000000.0 7.381820000e-01 -6.487630000e-01
505000000.0 7.298830000e-01 -6.607000000e-01
514000000.0 7.222020000e-01 -6.695530000e-01
523000000.0 7.139930000e-01 -6.781930000e-01
532000000.0 7.060400000e-01 -6.867640000e-01
541000000.0 7.001380000e-01 -6.965630000e-01
550000000.0 6.890340000e-01 -7.004750000e-01
559000000.0 6.784630000e-01 -7.120420000e-01
568000000.0 6.699360000e-01 -7.206030000e-01
577000000.0 6.586860000e-01 -7.279630000e-01
586000000.0 6.486400000e-01 -7.363370000e-01
595000000.0 6.349150000e-01 -7.429660000e-01
604000000.0 6.287340000e-01 -7.491420000e-01
613000000.0 6.205480000e-01 -7.586690000e-01
622000000.0 6.100500000e-01 -7.734660000e-01
631000000.0 6.048700000e-01 -7.803920000e-01
640000000.0 5.989000000e-01 -7.883960000e-01
649000000.0 5.871120000e-01 -7.967350000e-01
658000000.0 5.781230000e-01 -8.075720000e-01
667000000.0 5.663980000e-01 -8.145540000e-01
676000000.0 5.589060000e-01 -8.196340000e-01
685000000.0 5.465270000e-01 -8.249710000e-01
694000000.0 5.399260000e-01 -8.325000000e-01
703000000.0 5.240060000e-01 -8.365660000e-01
712000000.0 5.121450000e-01 -8.390420000e-01
721000000.0 5.066690000e-01 -8.414730000e-01
730000000.0 4.913920000e-01 -8.468750000e-01
739000000.0 4.770990000e-01 -8.482140000e-01
748000000.0 4.648840000e-01 -8.505940000e-01
757000000.0 4.555990000e-01 -8.585000000e-01
766000000.0 4.454110000e-01 -8.654500000e-01
775000000.0 4.294310000e-01 -8.731390000e-01
784000000.0 4.190610000e-01 -8.806900000e-01
793000000.0 4.083450000e-01 -8.883660000e-01
802000000.0 3.976660000e-01 -8.938030000e-01
811000000.0 3.857910000e-01 -8.982380000e-01
820000000.0 3.732100000e-01 -9.037310000e-01
829000000.0 3.650210000e-01 -9.064000000e-01
838000000.0 3.544240000e-01 -9.096640000e-01
847000000.0 3.445830000e-01 -9.118940000e-01
856000000.0 3.301090000e-01 -9.162710000e-01
865000000.0 3.250150000e-01 -9.173330000e-01
874000000.0 3.178020000e-01 -9.183970000e-01
883000000.0 3.105920000e-01 -9.189130000e-01
892000000.0 2.989230000e-01 -9.205550000e-01
901000000.0 2.907160000e-01 -9.188350000e-01
910000000.0 2.803660000e-01 -9.211910000e-01
919000000.0 2.636260000e-01 -9.275490000e-01
928000000.0 2.549260000e-01 -9.293880000e-01
937000000.0 2.435570000e-01 -9.298230000e-01
946000000.0 2.326420000e-01 -9.316760000e-01
955000000.0 2.248610000e-01 -9.346700000e-01
964000000.0 2.158680000e-01 -9.359840000e-01
973000000.0 2.010220000e-01 -9.393450000e-01
982000000.0 1.929940000e-01 -9.403750000e-01
991000000.0 1.842180000e-01 -9.418900000e-01
1000000000.0 1.753940000e-01 -9.431180000e-01
1004500000.0 1.724280000e-01 -9.443750000e-01
1009000000.0 1.637420000e-01 -9.452520000e-01
1013500000.0 1.578400000e-01 -9.471030000e-01
1018000000.0 1.561930000e-01 -9.465700000e-01
1022500000.0 1.465830000e-01 -9.488800000e-01
1027000000.0 1.447320000e-01 -9.482520000e-01
1031500000.0 1.387810000e-01 -9.502210000e-01
1036000000.0 1.364410000e-01 -9.506280000e-01
1040500000.0 1.303250000e-01 -9.517540000e-01
1045000000.0 1.261540000e-01 -9.507220000e-01
1049500000.0 1.223900000e-01 -9.520880000e-01
1054000000.0 1.137870000e-01 -9.540170000e-01
1058500000.0 1.073270000e-01 -9.539330000e-01
1063000000.0 1.052830000e-01 -9.539820000e-01
1067500000.0 1.030860000e-01 -9.553810000e-01
1072000000.0 9.611000000e-02 -9.543650000e-01
1076500000.0 9.443200000e-02 -9.558960000e-01
1081000000.0 8.796000000e-02 -9.568720000e-01
1085500000.0 8.193600000e-02 -9.594260000e-01
1090000000.0 7.555100000e-02 -9.611260000e-01
1094500000.0 7.193400000e-02 -9.612860000e-01
1099000000.0 7.176600000e-02 -9.609170000e-01
1103500000.0 6.832900000e-02 -9.584070000e-01
1108000000.0 5.934100000e-02 -9.602830000e-01
1112500000.0 5.749500000e-02 -9.600990000e-01
1117000000.0 4.487100000e-02 -9.609850000e-01
1121500000.0 4.154800000e-02 -9.624490000e-01
1126000000.0 9.010000000e-03 -9.542590000e-01
1130500000.0 2.831300000e-02 -9.630610000e-01
1135000000.0 2.794900000e-02 -9.601770000e-01
1139500000.0 2.709900000e-02 -9.622980000e-01
1144000000.0 1.239700000e-02 -9.611390000e-01
1148500000.0 2.924300000e-02 -9.639420000e-01
1153000000.0 4.073600000e-02 -9.675360000e-01
1157500000.0 1.773000000e-03 -9.599780000e-01
1162000000.0 -4.205000000e-03 -9.612230000e-01
1166500000.0 -1.233800000e-02 -9.613310000e-01
1171000000.0 -1.647400000e-02 -9.565600000e-01
1175500000.0 -2.052500000e-02 -9.640470000e-01
1180000000.0 -2.239400000e-02 -9.588350000e-01
1184500000.0 -3.005200000e-02 -9.597540000e-01
1189000000.0 -3.288800000e-02 -9.600330000e-01
1193500000.0 -4.077500000e-02 -9.589650000e-01
1198000000.0 -4.792900000e-02 -9.582810000e-01
1202500000.0 -4.808700000e-02 -9.610180000e-01
1207000000.0 -5.744500000e-02 -9.589340000e-01
1211500000.0 -6.322800000e-02 -9.599980000e-01
1216000000.0 -6.870000000e-02 -9.616280000e-01
1220500000.0 -6.632600000e-02 -9.646220000e-01
1225000000.0 -7.607200000e-02 -9.568440000e-01
1229500000.0 -7.846200000e-02 -9.553610000e-01
1234000000.0 -7.980600000e-02 -9.585990000e-01
1238500000.0 -9.205900000e-02 -9.601160000e-01
1243000000.0 -8.829700000e-02 -9.604670000e-01
1247500000.0 -9.501300000e-02 -9.573740000e-01
1252000000.0 -1.016510000e-01 -9.558640000e-01
1256500000.0 -1.027930000e-01 -9.583750000e-01
1261000000.0 -9.846000000e-02 -9.575970000e-01
1265500000.0 -1.176850000e-01 -9.562710000e-01
1270000000.0 -1.156400000e-01 -9.571950000e-01
1274500000.0 -1.162650000e-01 -9.579250000e-01
1279000000.0 -1.206750000e-01 -9.607100000e-01
1283500000.0 -1.317970000e-01 -9.528290000e-01
1288000000.0 -1.406330000e-01 -9.530240000e-01
1292500000.0 -1.458830000e-01 -9.541290000e-01
1297000000.0 -1.420950000e-01 -9.609090000e-01
1301500000.0 -1.463940000e-01 -9.496470000e-01
1306000000.0 -1.574640000e-01 -9.486980000e-01
1310500000.0 -1.537220000e-01 -9.572970000e-01
1315000000.0 -1.648860000e-01 -9.471870000e-01
1319500000.0 -1.713760000e-01 -9.426280000e-01
1324000000.0 -1.788360000e-01 -9.485840000e-01
1328500000.0 -1.815550000e-01 -9.392180000e-01
1333000000.0 -1.868500000e-01 -9.460610000e-01
1337500000.0 -1.985980000e-01 -9.404700000e-01
1342000000.0 -1.969470000e-01 -9.351490000e-01
1346500000.0 -2.146020000e-01 -9.308650000e-01
1351000000.0 -2.083950000e-01 -9.340920000e-01
1355500000.0 -2.138110000e-01 -9.400270000e-01
1360000000.0 -2.195910000e-01 -9.350620000e-01
1364500000.0 -2.227640000e-01 -9.385090000e-01
1369000000.0 -2.277960000e-01 -9.446560000e-01
1373500000.0 -2.298480000e-01 -9.347860000e-01
1378000000.0 -2.417340000e-01 -9.381700000e-01
1382500000.0 -2.380540000e-01 -9.386890000e-01
1387000000.0 -2.380540000e-01 -9.423560000e-01
1391500000.0 -2.513800000e-01 -9.392980000e-01
1396000000.0 -2.519440000e-01 -9.428990000e-01
1400500000.0 -2.432960000e-01 -9.371250000e-01
1405000000.0 -2.507090000e-01 -9.424330000e-01
1409500000.0 -2.597040000e-01 -9.377800000e-01
1414000000.0 -2.628720000e-01 -9.436240000e-01
1418500000.0 -2.659560000e-01 -9.328510000e-01
1423000000.0 -2.684020000e-01 -9.410710000e-01
1427500000.0 -2.720850000e-01 -9.435590000e-01
1432000000.0 -2.748510000e-01 -9.405860000e-01
1436500000.0 -2.808110000e-01 -9.363760000e-01
1441000000.0 -2.832510000e-01 -9.392050000e-01
1445500000.0 -2.971250000e-01 -9.335860000e-01
1450000000.0 -2.968230000e-01 -9.283260000e-01
