! piloto_corto / aire / r16
# HZ S RI R 50
50000.0 1.005904000e+00 -7.133300000e-02
59500.0 1.004618000e+00 -5.781700000e-02
69000.0 1.003636000e+00 -4.433600000e-02
78500.0 1.002606000e+00 -3.234000000e-02
88000.0 1.001219000e+00 -1.922200000e-02
97500.0 1.000434000e+00 -6.469000000e-03
107000.0 1.000116000e+00 5.814000000e-03
116500.0 9.996680000e-01 1.730800000e-02
126000.0 1.000329000e+00 3.219200000e-02
135500.0 9.999600000e-01 4.166300000e-02
145000.0 1.001494000e+00 5.413500000e-02
154500.0 1.001277000e+00 6.615900000e-02
164000.0 1.001257000e+00 7.767400000e-02
173500.0 1.001641000e+00 8.966500000e-02
183000.0 1.002745000e+00 1.013830000e-01
192500.0 1.002478000e+00 1.125840000e-01
202000.0 1.002522000e+00 1.237200000e-01
211500.0 1.002800000e+00 1.354190000e-01
221000.0 1.003765000e+00 1.469200000e-01
230500.0 1.004089000e+00 1.586400000e-01
240000.0 1.005185000e+00 1.695400000e-01
249500.0 1.004657000e+00 1.814510000e-01
259000.0 1.004223000e+00 1.917680000e-01
268500.0 1.004392000e+00 2.034970000e-01
278000.0 1.004391000e+00 2.142480000e-01
287500.0 1.004498000e+00 2.253480000e-01
297000.0 1.005440000e+00 2.361690000e-01
306500.0 1.004812000e+00 2.468550000e-01
316000.0 1.005550000e+00 2.578220000e-01
325500.0 1.006034000e+00 2.685420000e-01
335000.0 1.005561000e+00 2.783580000e-01
344500.0 1.005687000e+00 2.894220000e-01
354000.0 1.005689000e+00 3.000920000e-01
363500.0 1.005545000e+00 3.103520000e-01
373000.0 1.006429000e+00 3.206210000e-01
382500.0 1.007009000e+00 3.310490000e-01
392000.0 1.006568000e+00 3.425230000e-01
401500.0 1.007560000e+00 3.527950000e-01
411000.0 1.007891000e+00 3.630670000e-01
420500.0 1.008033000e+00 3.725720000e-01
430000.0 1.007185000e+00 3.830950000e-01
439500.0 1.007997000e+00 3.930280000e-01
449000.0 1.008400000e+00 4.036350000e-01
458500.0 1.008328000e+00 4.125860000e-01
468000.0 1.008561000e+00 4.227650000e-01
477500.0 1.008722000e+00 4.328070000e-01
487000.0 1.009191000e+00 4.435390000e-01
496500.0 1.008940000e+00 4.532700000e-01
506000.0 1.010089000e+00 4.629700000e-01
515500.0 1.011028000e+00 4.730110000e-01
525000.0 1.010694000e+00 4.834610000e-01
534500.0 1.010563000e+00 4.930550000e-01
544000.0 1.011676000e+00 5.021290000e-01
553500.0 1.011500000e+00 5.117600000e-01
563000.0 1.011942000e+00 5.217360000e-01
572500.0 1.012853000e+00 5.310670000e-01
582000.0 1.013040000e+00 5.411610000e-01
591500.0 1.013166000e+00 5.509840000e-01
601000.0 1.013454000e+00 5.601820000e-01
610500.0 1.013822000e+00 5.694730000e-01
620000.0 1.015536000e+00 5.791200000e-01
629500.0 1.015079000e+00 5.886730000e-01
639000.0 1.015510000e+00 5.978030000e-01
648500.0 1.015927000e+00 6.075510000e-01
658000.0 1.016013000e+00 6.169760000e-01
667500.0 1.017941000e+00 6.263660000e-01
677000.0 1.019009000e+00 6.362910000e-01
686500.0 1.019289000e+00 6.453570000e-01
696000.0 1.019443000e+00 6.557440000e-01
705500.0 1.020725000e+00 6.639000000e-01
715000.0 1.022660000e+00 6.728290000e-01
724500.0 1.022549000e+00 6.830390000e-01
734000.0 1.023465000e+00 6.919460000e-01
743500.0 1.024778000e+00 7.015150000e-01
753000.0 1.025726000e+00 7.108550000e-01
762500.0 1.026406000e+00 7.188450000e-01
772000.0 1.027896000e+00 7.283480000e-01
781500.0 1.028634000e+00 7.380590000e-01
791000.0 1.030425000e+00 7.464360000e-01
800500.0 1.043850000e+00 7.674200000e-01
810000.0 1.033036000e+00 7.658060000e-01
819500.0 1.034364000e+00 7.741150000e-01
829000.0 1.036022000e+00 7.838640000e-01
838500.0 1.038185000e+00 7.913170000e-01
848000.0 1.039006000e+00 8.024200000e-01
857500.0 1.041321000e+00 8.100740000e-01
867000.0 1.043385000e+00 8.187630000e-01
876500.0 1.042251000e+00 8.276600000e-01
886000.0 1.045839000e+00 8.365200000e-01
895500.0 1.047640000e+00 8.446590000e-01
905000.0 1.048841000e+00 8.554270000e-01
914500.0 1.050744000e+00 8.634740000e-01
924000.0 1.053635000e+00 8.722320000e-01
933500.0 1.056052000e+00 8.815050000e-01
943000.0 1.057676000e+00 8.894730000e-01
952500.0 1.058586000e+00 8.983970000e-01
962000.0 1.061770000e+00 9.076320000e-01
971500.0 1.062746000e+00 9.160820000e-01
981000.0 1.065778000e+00 9.250190000e-01
990500.0 1.068044000e+00 9.331040000e-01
1000000.0 1.071054000e+00 9.420150000e-01
1090000.0 1.095988000e+00 1.020118000e+00
1180000.0 1.134109000e+00 1.095212000e+00
1270000.0 1.180713000e+00 1.164644000e+00
1360000.0 1.235482000e+00 1.228059000e+00
1450000.0 1.303091000e+00 1.282284000e+00
1540000.0 1.377253000e+00 1.320319000e+00
1630000.0 1.462695000e+00 1.344698000e+00
1720000.0 1.551118000e+00 1.350843000e+00
1810000.0 1.642390000e+00 1.338589000e+00
1900000.0 1.724137000e+00 1.305394000e+00
1990000.0 1.802158000e+00 1.253588000e+00
2080000.0 1.869434000e+00 1.182256000e+00
2170000.0 1.916400000e+00 1.103618000e+00
2260000.0 1.945565000e+00 1.020934000e+00
2350000.0 1.959684000e+00 9.270510000e-01
2440000.0 1.960589000e+00 8.412650000e-01
2530000.0 1.944906000e+00 7.565170000e-01
2620000.0 1.922753000e+00 6.808950000e-01
2710000.0 1.891678000e+00 6.135210000e-01
2800000.0 1.858512000e+00 5.546320000e-01
2890000.0 1.819467000e+00 5.003560000e-01
2980000.0 1.779858000e+00 4.541320000e-01
3070000.0 1.742625000e+00 4.112080000e-01
3160000.0 1.705466000e+00 3.759650000e-01
3250000.0 1.670522000e+00 3.453460000e-01
3340000.0 1.632756000e+00 3.163480000e-01
3430000.0 1.599129000e+00 2.892750000e-01
3520000.0 1.570027000e+00 2.674680000e-01
3610000.0 1.541110000e+00 2.453630000e-01
3700000.0 1.513464000e+00 2.241600000e-01
3790000.0 1.488498000e+00 2.075040000e-01
3880000.0 1.466652000e+00 1.885570000e-01
3970000.0 1.443251000e+00 1.733800000e-01
4060000.0 1.422332000e+00 1.558820000e-01
4150000.0 1.405776000e+00 1.407070000e-01
4240000.0 1.386652000e+00 1.264140000e-01
4330000.0 1.371362000e+00 1.110160000e-01
4420000.0 1.356939000e+00 9.725700000e-02
4510000.0 1.344602000e+00 8.320300000e-02
4600000.0 1.331710000e+00 6.958000000e-02
4690000.0 1.320578000e+00 5.723100000e-02
4780000.0 1.312279000e+00 4.236800000e-02
4870000.0 1.302445000e+00 3.010800000e-02
4960000.0 1.295393000e+00 1.774500000e-02
5050000.0 1.280486000e+00 5.629000000e-03
5140000.0 1.275959000e+00 -7.991000000e-03
5230000.0 1.270094000e+00 -1.961300000e-02
5320000.0 1.265341000e+00 -3.291100000e-02
5410000.0 1.260560000e+00 -4.461100000e-02
5500000.0 1.257223000e+00 -5.667700000e-02
5590000.0 1.253393000e+00 -6.728900000e-02
5680000.0 1.251460000e+00 -8.079500000e-02
5770000.0 1.245955000e+00 -9.162800000e-02
5860000.0 1.243730000e+00 -1.015090000e-01
5950000.0 1.240176000e+00 -1.127720000e-01
6040000.0 1.237323000e+00 -1.233310000e-01
6130000.0 1.235172000e+00 -1.326960000e-01
6220000.0 1.233709000e+00 -1.404660000e-01
6310000.0 1.230193000e+00 -1.500400000e-01
6400000.0 1.228775000e+00 -1.589960000e-01
6490000.0 1.226558000e+00 -1.671990000e-01
6580000.0 1.225763000e+00 -1.736840000e-01
6670000.0 1.223615000e+00 -1.806350000e-01
6760000.0 1.220722000e+00 -1.875640000e-01
6850000.0 1.220001000e+00 -1.917950000e-01
6940000.0 1.218688000e+00 -1.970930000e-01
7030000.0 1.218411000e+00 -2.013300000e-01
7120000.0 1.217772000e+00 -2.048150000e-01
7210000.0 1.217386000e+00 -2.078710000e-01
7300000.0 1.217942000e+00 -2.096930000e-01
7390000.0 1.218092000e+00 -2.107020000e-01
7480000.0 1.217002000e+00 -2.104880000e-01
7570000.0 -2.605930000e-01 -1.256520000e+00
7660000.0 -2.603080000e-01 -1.257367000e+00
7750000.0 -2.589020000e-01 -1.257342000e+00
7840000.0 -2.581450000e-01 -1.258151000e+00
7930000.0 -2.581550000e-01 -1.257951000e+00
8020000.0 -2.575780000e-01 -1.258171000e+00
8110000.0 -2.570370000e-01 -1.259035000e+00
8200000.0 -2.572540000e-01 -1.259779000e+00
8290000.0 -2.560750000e-01 -1.259453000e+00
8380000.0 -2.563660000e-01 -1.259204000e+00
8470000.0 -2.553830000e-01 -1.260867000e+00
8560000.0 -2.555070000e-01 -1.261117000e+00
8650000.0 -2.540320000e-01 -1.261985000e+00
8740000.0 -2.527800000e-01 -1.263047000e+00
8830000.0 -2.540950000e-01 -1.263234000e+00
8920000.0 -2.541210000e-01 -1.264840000e+00
9010000.0 -2.521060000e-01 -1.263978000e+00
9100000.0 -2.521660000e-01 -1.265602000e+00
9190000.0 -2.523640000e-01 -1.266374000e+00
9280000.0 -2.523920000e-01 -1.265370000e+00
9370000.0 -2.502430000e-01 -1.267110000e+00
9460000.0 -2.500100000e-01 -1.266295000e+00
9550000.0 -2.506150000e-01 -1.268384000e+00
9640000.0 -2.494990000e-01 -1.268463000e+00
9730000.0 -2.494790000e-01 -1.268756000e+00
9820000.0 -2.493630000e-01 -1.271135000e+00
9910000.0 -2.483280000e-01 -1.271312000e+00
10000000.0 -2.474030000e-01 -1.273624000e+00
10900000.0 -2.450140000e-01 -1.281432000e+00
11800000.0 -2.405990000e-01 -1.289522000e+00
12700000.0 -2.359280000e-01 -1.299651000e+00
13600000.0 -2.322350000e-01 -1.310337000e+00
14500000.0 -2.533540000e-01 -1.315741000e+00
15400000.0 -2.003300000e-01 -1.337602000e+00
16300000.0 -2.454270000e-01 -1.337706000e+00
17200000.0 -1.920620000e-01 -1.360979000e+00
18100000.0 -2.376750000e-01 -1.361487000e+00
19000000.0 -1.841350000e-01 -1.385108000e+00
19900000.0 -2.039820000e-01 -1.391452000e+00
20800000.0 -1.717530000e-01 -1.408302000e+00
21700000.0 -2.171690000e-01 -1.410473000e+00
22600000.0 -1.832450000e-01 -1.430798000e+00
23500000.0 -1.781950000e-01 -1.444381000e+00
24400000.0 -1.714880000e-01 -1.457714000e+00
25300000.0 -1.640220000e-01 -1.470603000e+00
26200000.0 -1.559320000e-01 -1.484788000e+00
27100000.0 -1.481010000e-01 -1.498570000e+00
28000000.0 -1.385320000e-01 -1.515067000e+00
28900000.0 -1.297720000e-01 -1.528724000e+00
29800000.0 -1.197590000e-01 -1.543130000e+00
30700000.0 -1.095050000e-01 -1.558811000e+00
31600000.0 -9.838300000e-02 -1.572361000e+00
32500000.0 -8.749100000e-02 -1.588877000e+00
33400000.0 -7.636200000e-02 -1.603353000e+00
34300000.0 -6.230600000e-02 -1.617734000e+00
35200000.0 -5.187500000e-02 -1.634824000e+00
36100000.0 -3.612600000e-02 -1.648854000e+00
37000000.0 -2.228600000e-02 -1.664824000e+00
37900000.0 -7.463000000e-03 -1.679456000e+00
38800000.0 8.940000000e-03 -1.695845000e+00
39700000.0 2.484900000e-02 -1.710393000e+00
40600000.0 4.202400000e-02 -1.726631000e+00
41500000.0 6.050100000e-02 -1.742346000e+00
42400000.0 7.837300000e-02 -1.757258000e+00
43300000.0 9.951400000e-02 -1.773488000e+00
44200000.0 1.186870000e-01 -1.788678000e+00
45100000.0 1.418890000e-01 -1.802717000e+00
46000000.0 1.629540000e-01 -1.817592000e+00
46900000.0 1.856760000e-01 -1.831585000e+00
47800000.0 2.101520000e-01 -1.844606000e+00
48700000.0 2.340310000e-01 -1.857450000e+00
49600000.0 2.613560000e-01 -1.869626000e+00
50500000.0 2.883750000e-01 -1.882589000e+00
51400000.0 3.143460000e-01 -1.893645000e+00
52300000.0 3.439890000e-01 -1.903264000e+00
53200000.0 3.726200000e-01 -1.914638000e+00
54100000.0 4.035480000e-01 -1.921082000e+00
55000000.0 4.341880000e-01 -1.928381000e+00
55900000.0 4.663770000e-01 -1.936920000e+00
56800000.0 5.000000000e-01 -1.942401000e+00
57700000.0 5.346500000e-01 -1.948044000e+00
58600000.0 5.684190000e-01 -1.952994000e+00
59500000.0 6.021200000e-01 -1.953260000e+00
60400000.0 6.389100000e-01 -1.953745000e+00
61300000.0 6.730830000e-01 -1.953963000e+00
62200000.0 7.130690000e-01 -1.951328000e+00
63100000.0 7.488430000e-01 -1.948112000e+00
64000000.0 7.867950000e-01 -1.944631000e+00
64900000.0 8.236190000e-01 -1.936679000e+00
65800000.0 8.592630000e-01 -1.929617000e+00
66700000.0 8.992310000e-01 -1.915969000e+00
67600000.0 9.369110000e-01 -1.905957000e+00
68500000.0 9.724230000e-01 -1.890349000e+00
69400000.0 1.008287000e+00 -1.877476000e+00
70300000.0 1.044419000e+00 -1.858260000e+00
71200000.0 1.079235000e+00 -1.840031000e+00
72100000.0 1.111784000e+00 -1.818422000e+00
73000000.0 1.147364000e+00 -1.794765000e+00
73900000.0 1.177974000e+00 -1.773507000e+00
74800000.0 1.207789000e+00 -1.747494000e+00
75700000.0 1.236455000e+00 -1.722924000e+00
76600000.0 1.268115000e+00 -1.690087000e+00
77500000.0 1.292023000e+00 -1.663904000e+00
78400000.0 1.321252000e+00 -1.636488000e+00
79300000.0 1.341750000e+00 -1.604585000e+00
80200000.0 1.366676000e+00 -1.573523000e+00
81100000.0 1.386651000e+00 -1.541966000e+00
82000000.0 1.405934000e+00 -1.510262000e+00
82900000.0 1.421867000e+00 -1.476901000e+00
83800000.0 1.438822000e+00 -1.439285000e+00
84700000.0 1.454381000e+00 -1.408253000e+00
85600000.0 1.465271000e+00 -1.372707000e+00
86500000.0 1.476946000e+00 -1.342913000e+00
87400000.0 1.487524000e+00 -1.308445000e+00
88300000.0 1.495131000e+00 -1.273777000e+00
89200000.0 1.500856000e+00 -1.239759000e+00
90100000.0 1.507545000e+00 -1.206481000e+00
91000000.0 1.509815000e+00 -1.174851000e+00
91900000.0 1.514029000e+00 -1.142316000e+00
92800000.0 1.514574000e+00 -1.111664000e+00
93700000.0 1.517374000e+00 -1.081753000e+00
94600000.0 1.515203000e+00 -1.050357000e+00
95500000.0 1.514685000e+00 -1.021913000e+00
96400000.0 1.513027000e+00 -9.916700000e-01
97300000.0 1.509379000e+00 -9.620720000e-01
98200000.0 1.503560000e+00 -9.355730000e-01
99100000.0 1.502191000e+00 -9.080200000e-01
100000000.0 1.493713000e+00 -8.808340000e-01
109000000.0 1.414518000e+00 -6.565960000e-01
118000000.0 1.310341000e+00 -4.968930000e-01
127000000.0 1.203246000e+00 -3.823180000e-01
136000000.0 1.102937000e+00 -3.095840000e-01
145000000.0 1.011455000e+00 -2.520230000e-01
154000000.0 9.636060000e-01 -2.345260000e-01
163000000.0 9.604250000e-01 -2.478590000e-01
172000000.0 9.555580000e-01 -2.609020000e-01
181000000.0 9.529250000e-01 -2.737900000e-01
190000000.0 9.491690000e-01 -2.867530000e-01
199000000.0 9.443540000e-01 -2.987070000e-01
208000000.0 9.402780000e-01 -3.117230000e-01
217000000.0 9.359910000e-01 -3.243620000e-01
226000000.0 9.316210000e-01 -3.352740000e-01
235000000.0 9.261470000e-01 -3.487600000e-01
244000000.0 9.206070000e-01 -3.604990000e-01
253000000.0 9.152320000e-01 -3.728220000e-01
262000000.0 9.090830000e-01 -3.839220000e-01
271000000.0 9.019810000e-01 -3.958680000e-01
280000000.0 8.967720000e-01 -4.069190000e-01
289000000.0 8.895000000e-01 -4.186080000e-01
298000000.0 8.828030000e-01 -4.289320000e-01
307000000.0 8.781480000e-01 -4.407900000e-01
316000000.0 8.738070000e-01 -4.526630000e-01
325000000.0 8.666350000e-01 -4.638820000e-01
334000000.0 8.609950000e-01 -4.743970000e-01
343000000.0 8.573690000e-01 -4.826420000e-01
352000000.0 8.503270000e-01 -4.941490000e-01
361000000.0 8.423810000e-01 -5.064730000e-01
370000000.0 8.341390000e-01 -5.151010000e-01
379000000.0 8.207150000e-01 -4.937220000e-01
388000000.0 8.199670000e-01 -5.364010000e-01
397000000.0 8.140500000e-01 -5.457090000e-01
406000000.0 8.043180000e-01 -5.577470000e-01
415000000.0 8.178840000e-01 -5.100380000e-01
424000000.0 7.950850000e-01 -5.520190000e-01
433000000.0 7.796320000e-01 -5.848710000e-01
442000000.0 7.594400000e-01 -5.660030000e-01
451000000.0 7.585990000e-01 -6.028690000e-01
460000000.0 7.476590000e-01 -6.017410000e-01
469000000.0 7.426280000e-01 -5.983370000e-01
478000000.0 7.669750000e-01 -5.747260000e-01
487000000.0 7.594870000e-01 -5.813790000e-01
496000000.0 7.403220000e-01 -5.886150000e-01
505000000.0 7.147310000e-01 -6.326740000e-01
514000000.0 7.105090000e-01 -6.674060000e-01
523000000.0 7.002380000e-01 -6.728050000e-01
532000000.0 6.958490000e-01 -6.774110000e-01
541000000.0 6.800310000e-01 -6.901260000e-01
550000000.0 6.804440000e-01 -7.034150000e-01
559000000.0 6.677060000e-01 -7.119640000e-01
568000000.0 6.572340000e-01 -7.200250000e-01
577000000.0 6.479730000e-01 -7.268870000e-01
586000000.0 6.382860000e-01 -7.347790000e-01
595000000.0 6.203420000e-01 -7.384480000e-01
604000000.0 6.157120000e-01 -7.501510000e-01
613000000.0 6.041590000e-01 -7.546950000e-01
622000000.0 5.958820000e-01 -7.661970000e-01
631000000.0 5.846610000e-01 -7.729470000e-01
640000000.0 5.788070000e-01 -7.831000000e-01
649000000.0 5.725380000e-01 -7.945840000e-01
658000000.0 5.633200000e-01 -8.034100000e-01
667000000.0 5.499410000e-01 -8.112340000e-01
676000000.0 5.426470000e-01 -8.145460000e-01
685000000.0 5.304910000e-01 -8.242240000e-01
694000000.0 5.179430000e-01 -8.257540000e-01
703000000.0 5.076490000e-01 -8.303240000e-01
712000000.0 4.930940000e-01 -8.412270000e-01
721000000.0 4.843570000e-01 -8.432500000e-01
730000000.0 4.711570000e-01 -8.453050000e-01
739000000.0 4.606030000e-01 -8.459380000e-01
748000000.0 4.488400000e-01 -8.493370000e-01
757000000.0 4.403730000e-01 -8.554360000e-01
766000000.0 4.230530000e-01 -8.644270000e-01
775000000.0 4.132020000e-01 -8.706740000e-01
784000000.0 3.992250000e-01 -8.787990000e-01
793000000.0 3.900530000e-01 -8.868420000e-01
802000000.0 3.727940000e-01 -8.928390000e-01
811000000.0 3.639560000e-01 -8.995710000e-01
820000000.0 3.552830000e-01 -9.011570000e-01
829000000.0 3.409620000e-01 -9.047880000e-01
838000000.0 3.346990000e-01 -9.060160000e-01
847000000.0 3.208520000e-01 -9.105800000e-01
856000000.0 3.119490000e-01 -9.122210000e-01
865000000.0 3.041380000e-01 -9.083500000e-01
874000000.0 2.877810000e-01 -9.116980000e-01
883000000.0 2.846710000e-01 -9.113010000e-01
892000000.0 2.707970000e-01 -9.162330000e-01
901000000.0 2.606270000e-01 -9.170750000e-01
910000000.0 2.544340000e-01 -9.172940000e-01
919000000.0 2.415590000e-01 -9.220270000e-01
928000000.0 2.275580000e-01 -9.248380000e-01
937000000.0 2.164220000e-01 -9.259430000e-01
946000000.0 2.050010000e-01 -9.288970000e-01
955000000.0 1.940160000e-01 -9.290090000e-01
964000000.0 1.807630000e-01 -9.312890000e-01
973000000.0 1.699980000e-01 -9.320580000e-01
982000000.0 1.642790000e-01 -9.338830000e-01
991000000.0 1.558620000e-01 -9.359260000e-01
1000000000.0 1.379430000e-01 -9.380220000e-01
1004500000.0 1.347710000e-01 -9.355050000e-01
1009000000.0 1.333440000e-01 -9.368300000e-01
1013500000.0 1.267030000e-01 -9.382520000e-01
1018000000.0 1.169260000e-01 -9.382930000e-01
1022500000.0 1.152860000e-01 -9.377750000e-01
1027000000.0 1.148780000e-01 -9.394090000e-01
1031500000.0 1.047400000e-01 -9.401610000e-01
1036000000.0 1.001640000e-01 -9.402600000e-01
1040500000.0 9.476400000e-02 -9.415420000e-01
1045000000.0 8.853700000e-02 -9.436590000e-01
1049500000.0 8.679000000e-02 -9.418520000e-01
1054000000.0 8.461900000e-02 -9.426330000e-01
1058500000.0 7.797600000e-02 -9.408800000e-01
1063000000.0 7.110200000e-02 -9.428580000e-01
1067500000.0 6.779100000e-02 -9.419970000e-01
1072000000.0 6.042200000e-02 -9.437550000e-01
1076500000.0 5.026300000e-02 -9.434480000e-01
1081000000.0 4.541900000e-02 -9.444130000e-01
1085500000.0 4.606000000e-02 -9.445530000e-01
1090000000.0 3.888300000e-02 -9.424710000e-01
1094500000.0 3.595800000e-02 -9.455130000e-01
1099000000.0 2.866000000e-02 -9.471110000e-01
1103500000.0 2.354200000e-02 -9.472110000e-01
1108000000.0 1.771800000e-02 -9.446880000e-01
1112500000.0 1.113400000e-02 -9.457080000e-01
1117000000.0 9.377000000e-03 -9.484160000e-01
1121500000.0 -1.363400000e-02 -9.437930000e-01
1126000000.0 1.108300000e-02 -9.465580000e-01
1130500000.0 -9.355000000e-03 -9.473230000e-01
1135000000.0 2.350000000e-03 -9.451690000e-01
1139500000.0 1.820400000e-02 -9.529210000e-01
1144000000.0 -2.711200000e-02 -9.430780000e-01
1148500000.0 -3.423200000e-02 -9.428970000e-01
1153000000.0 -3.557000000e-02 -9.417970000e-01
1157500000.0 -4.083100000e-02 -9.398370000e-01
1162000000.0 -4.831600000e-02 -9.408440000e-01
1166500000.0 -5.600400000e-02 -9.402510000e-01
1171000000.0 -5.952500000e-02 -9.395430000e-01
1175500000.0 -6.771300000e-02 -9.398930000e-01
1180000000.0 -7.119400000e-02 -9.356500000e-01
1184500000.0 -7.176800000e-02 -9.410050000e-01
1189000000.0 -8.377600000e-02 -9.355010000e-01
1193500000.0 -8.433300000e-02 -9.373030000e-01
1198000000.0 -9.717900000e-02 -9.322840000e-01
1202500000.0 -9.626100000e-02 -9.349870000e-01
1207000000.0 -1.056440000e-01 -9.342090000e-01
1211500000.0 -1.070910000e-01 -9.348970000e-01
1216000000.0 -1.067710000e-01 -9.357570000e-01
1220500000.0 -1.141520000e-01 -9.368260000e-01
1225000000.0 -1.248020000e-01 -9.283700000e-01
1229500000.0 -1.277780000e-01 -9.353870000e-01
1234000000.0 -1.324930000e-01 -9.353720000e-01
1238500000.0 -1.335430000e-01 -9.298550000e-01
1243000000.0 -1.421300000e-01 -9.309450000e-01
1247500000.0 -1.453010000e-01 -9.337650000e-01
1252000000.0 -1.440760000e-01 -9.302690000e-01
1256500000.0 -1.514970000e-01 -9.309040000e-01
1261000000.0 -1.561740000e-01 -9.262880000e-01
1265500000.0 -1.661660000e-01 -9.237520000e-01
1270000000.0 -1.721700000e-01 -9.293840000e-01
1274500000.0 -1.757200000e-01 -9.301430000e-01
1279000000.0 -1.797130000e-01 -9.257620000e-01
1283500000.0 -1.809920000e-01 -9.260620000e-01
1288000000.0 -1.849460000e-01 -9.293580000e-01
1292500000.0 -1.915130000e-01 -9.216380000e-01
1297000000.0 -2.019300000e-01 -9.226600000e-01
1301500000.0 -2.199550000e-01 -9.132200000e-01
1306000000.0 -2.067440000e-01 -9.206350000e-01
1310500000.0 -2.124560000e-01 -9.114200000e-01
1315000000.0 -2.240450000e-01 -9.097470000e-01
1319500000.0 -2.256160000e-01 -9.108730000e-01
1324000000.0 -2.299080000e-01 -9.130490000e-01
1328500000.0 -2.408850000e-01 -9.037390000e-01
1333000000.0 -2.385400000e-01 -9.055260000e-01
1337500000.0 -2.496250000e-01 -9.007870000e-01
1342000000.0 -2.530320000e-01 -9.024420000e-01
1346500000.0 -2.645230000e-01 -9.000930000e-01
1351000000.0 -2.709780000e-01 -8.958650000e-01
1355500000.0 -2.695770000e-01 -8.999030000e-01
1360000000.0 -2.715290000e-01 -8.996070000e-01
1364500000.0 -2.778550000e-01 -8.975370000e-01
1369000000.0 -2.822290000e-01 -9.081520000e-01
1373500000.0 -2.798980000e-01 -8.957330000e-01
1378000000.0 -2.880980000e-01 -8.960230000e-01
1382500000.0 -2.940580000e-01 -8.936060000e-01
1387000000.0 -3.033360000e-01 -8.944210000e-01
1391500000.0 -3.012020000e-01 -8.991450000e-01
1396000000.0 -3.035610000e-01 -8.944830000e-01
1400500000.0 -3.091460000e-01 -8.888820000e-01
1405000000.0 -3.093710000e-01 -8.919460000e-01
1409500000.0 -3.227010000e-01 -8.940340000e-01
1414000000.0 -3.207340000e-01 -8.946380000e-01
1418500000.0 -3.315420000e-01 -8.864540000e-01
1423000000.0 -3.414040000e-01 -8.996240000e-01
1427500000.0 -3.648680000e-01 -8.797740000e-01
1432000000.0 -3.425010000e-01 -8.881030000e-01
1436500000.0 -3.383690000e-01 -8.882530000e-01
1441000000.0 -3.483410000e-01 -8.825740000e-01
1445500000.0 -3.634780000e-01 -8.715460000e-01
1450000000.0 -3.538210000e-01 -8.826300000e-01
