! piloto_corto / corto_cobre / r01
# HZ S RI R 50
50000.0 -1.005936000e+00 -7.229600000e-02
59500.0 -9.776030000e-01 3.340100000e-02
69000.0 -1.015879000e+00 -4.996000000e-03
78500.0 -9.990370000e-01 -1.662000000e-03
88000.0 -9.993270000e-01 7.140000000e-04
97500.0 -9.994390000e-01 1.394000000e-03
107000.0 -9.999780000e-01 -4.060000000e-04
116500.0 -9.998440000e-01 -4.334000000e-03
126000.0 -1.000510000e+00 -7.404000000e-03
135500.0 -9.994250000e-01 -1.436800000e-02
145000.0 -9.990430000e-01 -1.919900000e-02
154500.0 -9.987400000e-01 -2.513700000e-02
164000.0 -9.995230000e-01 -3.276900000e-02
173500.0 -9.986780000e-01 -3.874500000e-02
183000.0 -9.988740000e-01 -4.757300000e-02
192500.0 -9.987040000e-01 -5.455000000e-02
202000.0 -9.983200000e-01 -6.319700000e-02
211500.0 -9.984210000e-01 -7.058200000e-02
221000.0 -9.990080000e-01 -8.029200000e-02
230500.0 -9.990900000e-01 -8.803000000e-02
240000.0 -9.991900000e-01 -9.715000000e-02
249500.0 -9.993360000e-01 -1.047250000e-01
259000.0 -9.986920000e-01 -1.143640000e-01
268500.0 -9.992550000e-01 -1.234030000e-01
278000.0 -9.988530000e-01 -1.320770000e-01
287500.0 -9.996970000e-01 -1.410680000e-01
297000.0 -9.992080000e-01 -1.504400000e-01
306500.0 -9.990720000e-01 -1.584390000e-01
316000.0 -9.991030000e-01 -1.687920000e-01
325500.0 -1.000190000e+00 -1.774090000e-01
335000.0 -9.998570000e-01 -1.859200000e-01
344500.0 -1.000022000e+00 -1.947960000e-01
354000.0 -9.999070000e-01 -2.037400000e-01
363500.0 -9.996390000e-01 -2.124680000e-01
373000.0 -9.998180000e-01 -2.222000000e-01
382500.0 -9.999760000e-01 -2.314180000e-01
392000.0 -1.000633000e+00 -2.398610000e-01
401500.0 -1.001032000e+00 -2.480220000e-01
411000.0 -9.998820000e-01 -2.583390000e-01
420500.0 -1.000079000e+00 -2.671190000e-01
430000.0 -1.001229000e+00 -2.759780000e-01
439500.0 -1.000857000e+00 -2.847310000e-01
449000.0 -1.000877000e+00 -2.934970000e-01
458500.0 -1.001442000e+00 -3.029770000e-01
468000.0 -1.001143000e+00 -3.118180000e-01
477500.0 -1.002244000e+00 -3.205780000e-01
487000.0 -1.001747000e+00 -3.290320000e-01
496500.0 -1.001073000e+00 -3.394920000e-01
506000.0 -1.002227000e+00 -3.475230000e-01
515500.0 -1.001472000e+00 -3.563770000e-01
525000.0 -1.002144000e+00 -3.651090000e-01
534500.0 -1.001412000e+00 -3.740120000e-01
544000.0 -1.002680000e+00 -3.834260000e-01
553500.0 -1.002709000e+00 -3.934230000e-01
563000.0 -1.002993000e+00 -4.008240000e-01
572500.0 -1.002969000e+00 -4.089990000e-01
582000.0 -1.002048000e+00 -4.179830000e-01
591500.0 -1.002882000e+00 -4.270700000e-01
601000.0 -1.003223000e+00 -4.360890000e-01
610500.0 -1.004065000e+00 -4.439860000e-01
620000.0 -1.003442000e+00 -4.523820000e-01
629500.0 -1.004175000e+00 -4.619570000e-01
639000.0 -1.005433000e+00 -4.716410000e-01
648500.0 -1.005126000e+00 -4.788610000e-01
658000.0 -1.006235000e+00 -4.877970000e-01
667500.0 -1.006195000e+00 -4.965050000e-01
677000.0 -1.005929000e+00 -5.062120000e-01
686500.0 -1.007035000e+00 -5.143790000e-01
696000.0 -1.007277000e+00 -5.225730000e-01
705500.0 -1.007617000e+00 -5.317950000e-01
715000.0 -1.008896000e+00 -5.407710000e-01
724500.0 -1.008932000e+00 -5.482860000e-01
734000.0 -1.009843000e+00 -5.561660000e-01
743500.0 -1.009485000e+00 -5.657420000e-01
753000.0 -1.011247000e+00 -5.742260000e-01
762500.0 -1.012225000e+00 -5.833210000e-01
772000.0 -1.012723000e+00 -5.910340000e-01
781500.0 -1.013880000e+00 -5.998250000e-01
791000.0 -1.014711000e+00 -6.077290000e-01
800500.0 -1.013956000e+00 -6.161110000e-01
810000.0 -1.015750000e+00 -6.246770000e-01
819500.0 -1.016052000e+00 -6.345920000e-01
829000.0 -1.017787000e+00 -6.411930000e-01
838500.0 -1.019253000e+00 -6.498220000e-01
848000.0 -1.019333000e+00 -6.589280000e-01
857500.0 -1.021225000e+00 -6.672460000e-01
867000.0 -1.022992000e+00 -6.759190000e-01
876500.0 -1.023926000e+00 -6.838900000e-01
886000.0 -1.024761000e+00 -6.915820000e-01
895500.0 -1.025164000e+00 -7.012490000e-01
905000.0 -1.026266000e+00 -7.081820000e-01
914500.0 -1.029466000e+00 -7.171790000e-01
924000.0 -1.029928000e+00 -7.256910000e-01
933500.0 -1.032560000e+00 -7.322910000e-01
943000.0 -1.034806000e+00 -7.418030000e-01
952500.0 -1.036437000e+00 -7.489130000e-01
962000.0 -1.036757000e+00 -7.587570000e-01
971500.0 -1.037222000e+00 -7.650640000e-01
981000.0 -1.040915000e+00 -7.727170000e-01
990500.0 -1.042675000e+00 -7.816620000e-01
1000000.0 -1.046146000e+00 -7.898410000e-01
1090000.0 -1.066323000e+00 -8.655940000e-01
1180000.0 -1.099067000e+00 -9.375960000e-01
1270000.0 -1.135647000e+00 -1.001053000e+00
1360000.0 -1.184177000e+00 -1.062925000e+00
1450000.0 -1.241569000e+00 -1.118365000e+00
1540000.0 -1.309000000e+00 -1.164333000e+00
1630000.0 -1.383023000e+00 -1.191689000e+00
1720000.0 -1.465691000e+00 -1.207241000e+00
1810000.0 -1.549882000e+00 -1.200752000e+00
1900000.0 -1.632708000e+00 -1.173797000e+00
1990000.0 -1.714317000e+00 -1.132990000e+00
2080000.0 -1.781823000e+00 -1.067767000e+00
2170000.0 -1.833211000e+00 -9.947650000e-01
2260000.0 -1.871016000e+00 -9.101980000e-01
2350000.0 -1.890331000e+00 -8.186150000e-01
2440000.0 -1.889121000e+00 -7.297840000e-01
2530000.0 -1.877982000e+00 -6.499030000e-01
2620000.0 -1.852814000e+00 -5.696260000e-01
2710000.0 -1.826428000e+00 -5.008180000e-01
2800000.0 -1.787399000e+00 -4.383340000e-01
2890000.0 -1.747067000e+00 -3.862830000e-01
2980000.0 -1.709219000e+00 -3.380820000e-01
3070000.0 -1.665436000e+00 -2.989200000e-01
3160000.0 -1.628400000e+00 -2.626900000e-01
3250000.0 -1.588851000e+00 -2.306890000e-01
3340000.0 -1.553706000e+00 -2.046110000e-01
3430000.0 -1.517095000e+00 -1.818000000e-01
3520000.0 -1.486857000e+00 -1.603480000e-01
3610000.0 -1.453427000e+00 -1.395470000e-01
3700000.0 -1.425550000e+00 -1.233940000e-01
3790000.0 -1.400129000e+00 -1.036450000e-01
3880000.0 -1.375129000e+00 -9.161100000e-02
3970000.0 -1.351335000e+00 -7.424300000e-02
4060000.0 -1.329396000e+00 -6.173000000e-02
4150000.0 -1.310988000e+00 -4.837900000e-02
4240000.0 -1.293325000e+00 -3.567700000e-02
4330000.0 -1.276889000e+00 -2.287600000e-02
4420000.0 -1.260865000e+00 -1.041900000e-02
4510000.0 -1.247275000e+00 2.266000000e-03
4600000.0 -1.233233000e+00 1.278900000e-02
4690000.0 -1.222732000e+00 2.532400000e-02
4780000.0 -1.211620000e+00 3.587200000e-02
4870000.0 -1.202554000e+00 4.658400000e-02
4960000.0 -1.194849000e+00 5.798100000e-02
5050000.0 -1.178140000e+00 6.794900000e-02
5140000.0 -1.170753000e+00 7.941000000e-02
5230000.0 -1.166427000e+00 9.052700000e-02
5320000.0 -1.161236000e+00 1.002710000e-01
5410000.0 -1.155158000e+00 1.120230000e-01
5500000.0 -1.151574000e+00 1.213570000e-01
5590000.0 -1.146363000e+00 1.322270000e-01
5680000.0 -1.142528000e+00 1.413410000e-01
5770000.0 -1.136755000e+00 1.518840000e-01
5860000.0 -1.133097000e+00 1.591320000e-01
5950000.0 -1.129998000e+00 1.688020000e-01
6040000.0 -1.126248000e+00 1.773510000e-01
6130000.0 -1.122782000e+00 1.870060000e-01
6220000.0 -1.120761000e+00 1.950830000e-01
6310000.0 -1.117309000e+00 2.019010000e-01
6400000.0 -1.113290000e+00 2.093760000e-01
6490000.0 -1.112290000e+00 2.168170000e-01
6580000.0 -1.109175000e+00 2.215120000e-01
6670000.0 -1.107362000e+00 2.276950000e-01
6760000.0 -1.106608000e+00 2.340700000e-01
6850000.0 -1.104774000e+00 2.378890000e-01
6940000.0 -1.103397000e+00 2.418820000e-01
7030000.0 -1.102516000e+00 2.460200000e-01
7120000.0 -1.101174000e+00 2.476400000e-01
7210000.0 -1.101222000e+00 2.501130000e-01
7300000.0 -1.100402000e+00 2.502970000e-01
7390000.0 -1.100041000e+00 2.529800000e-01
7480000.0 -1.099766000e+00 2.514510000e-01
7570000.0 2.052920000e-01 1.072645000e+00
7660000.0 2.034950000e-01 1.072180000e+00
7750000.0 2.027910000e-01 1.072448000e+00
7840000.0 2.024270000e-01 1.072279000e+00
7930000.0 2.024400000e-01 1.072393000e+00
8020000.0 1.999780000e-01 1.073983000e+00
8110000.0 2.001450000e-01 1.074390000e+00
8200000.0 1.989350000e-01 1.072551000e+00
8290000.0 1.992340000e-01 1.074281000e+00
8380000.0 1.980940000e-01 1.074645000e+00
8470000.0 1.973090000e-01 1.075573000e+00
8560000.0 1.962770000e-01 1.076070000e+00
8650000.0 1.963600000e-01 1.075799000e+00
8740000.0 1.954990000e-01 1.076590000e+00
8830000.0 1.945490000e-01 1.076838000e+00
8920000.0 1.942430000e-01 1.077850000e+00
9010000.0 1.932250000e-01 1.077289000e+00
9100000.0 1.928600000e-01 1.079504000e+00
9190000.0 1.927690000e-01 1.078761000e+00
9280000.0 1.915140000e-01 1.079348000e+00
9370000.0 1.909340000e-01 1.080674000e+00
9460000.0 1.900410000e-01 1.080469000e+00
9550000.0 1.895920000e-01 1.081315000e+00
9640000.0 1.894170000e-01 1.082601000e+00
9730000.0 1.882410000e-01 1.082478000e+00
9820000.0 1.878350000e-01 1.082524000e+00
9910000.0 1.860320000e-01 1.084089000e+00
10000000.0 1.864700000e-01 1.084484000e+00
10900000.0 1.797340000e-01 1.087033000e+00
11800000.0 1.720410000e-01 1.086485000e+00
12700000.0 1.638370000e-01 1.070822000e+00
13600000.0 1.576150000e-01 1.078096000e+00
14500000.0 1.555080000e-01 1.104646000e+00
15400000.0 1.512840000e-01 1.122419000e+00
16300000.0 1.466480000e-01 1.135239000e+00
17200000.0 1.397200000e-01 1.143736000e+00
18100000.0 1.349330000e-01 1.153949000e+00
19000000.0 1.268740000e-01 1.160222000e+00
19900000.0 -1.633940000e-01 -6.176330000e-01
20800000.0 3.134100000e-02 5.087100000e-01
21700000.0 1.688200000e-02 4.382530000e-01
22600000.0 2.820800000e-02 5.697390000e-01
23500000.0 4.681900000e-02 7.754880000e-01
24400000.0 7.497800000e-02 1.150256000e+00
25300000.0 7.098400000e-02 1.219175000e+00
26200000.0 6.230500000e-02 1.232607000e+00
27100000.0 5.314500000e-02 1.244800000e+00
28000000.0 4.322800000e-02 1.251694000e+00
28900000.0 2.072700000e-02 9.830910000e-01
29800000.0 -1.000000000e-03 7.122800000e-01
30700000.0 -9.716000000e-03 6.590950000e-01
31600000.0 -1.590700000e-02 7.003850000e-01
32500000.0 -2.000300000e-02 7.738630000e-01
33400000.0 -2.350400000e-02 1.067035000e+00
34300000.0 -3.772000000e-02 1.298360000e+00
35200000.0 -5.118100000e-02 1.327978000e+00
36100000.0 -6.422500000e-02 1.346807000e+00
37000000.0 -5.515000000e-02 1.357220000e+00
37900000.0 -9.297300000e-02 1.368881000e+00
38800000.0 -1.086660000e-01 1.373642000e+00
39700000.0 -1.458110000e-01 1.368020000e+00
40600000.0 -9.347700000e-02 6.706270000e-01
41500000.0 -9.178000000e-02 4.027720000e-01
42400000.0 -8.718800000e-02 3.205740000e-01
43300000.0 -8.710700000e-02 -4.668090000e-01
44200000.0 -1.016080000e-01 -5.441070000e-01
45100000.0 -1.034340000e-01 -3.156610000e-01
46000000.0 -2.197070000e-01 1.283122000e+00
46900000.0 -2.579440000e-01 1.407616000e+00
47800000.0 -2.797550000e-01 1.431193000e+00
48700000.0 -2.977510000e-01 1.430252000e+00
49600000.0 -3.012510000e-01 1.357227000e+00
50500000.0 -1.194230000e-01 -8.370800000e-02
51400000.0 -2.571090000e-01 9.704560000e-01
52300000.0 -3.713470000e-01 1.415352000e+00
53200000.0 -4.064340000e-01 1.474315000e+00
54100000.0 -4.309690000e-01 1.482931000e+00
55000000.0 -4.532510000e-01 1.488646000e+00
55900000.0 -4.755450000e-01 1.489295000e+00
56800000.0 -4.976390000e-01 1.489347000e+00
57700000.0 -5.218180000e-01 1.488632000e+00
58600000.0 -5.439290000e-01 1.486814000e+00
59500000.0 -5.652090000e-01 1.486042000e+00
60400000.0 -5.902100000e-01 1.484460000e+00
61300000.0 -6.138430000e-01 1.483617000e+00
62200000.0 -6.359230000e-01 1.480100000e+00
63100000.0 -6.607920000e-01 1.475733000e+00
64000000.0 -6.814260000e-01 1.468618000e+00
64900000.0 -7.052120000e-01 1.462758000e+00
65800000.0 -7.220590000e-01 1.444011000e+00
66700000.0 -7.440510000e-01 1.436130000e+00
67600000.0 -7.716460000e-01 1.437051000e+00
68500000.0 -7.973790000e-01 1.433773000e+00
69400000.0 -8.200390000e-01 1.429782000e+00
70300000.0 -8.460130000e-01 1.421367000e+00
71200000.0 -8.662980000e-01 1.412218000e+00
72100000.0 -8.884380000e-01 1.400983000e+00
73000000.0 -9.098520000e-01 1.388024000e+00
73900000.0 -9.307100000e-01 1.378017000e+00
74800000.0 -9.503470000e-01 1.360358000e+00
75700000.0 -9.659930000e-01 1.341152000e+00
76600000.0 -9.862940000e-01 1.327750000e+00
77500000.0 -1.005527000e+00 1.314321000e+00
78400000.0 -1.024020000e+00 1.301271000e+00
79300000.0 -1.046303000e+00 1.286323000e+00
80200000.0 -1.064794000e+00 1.271079000e+00
81100000.0 -1.081703000e+00 1.257233000e+00
82000000.0 -1.099009000e+00 1.239639000e+00
82900000.0 -1.116479000e+00 1.221830000e+00
83800000.0 -1.132372000e+00 1.204426000e+00
84700000.0 -1.148366000e+00 1.186075000e+00
85600000.0 -1.163863000e+00 1.167855000e+00
86500000.0 -1.176072000e+00 1.149211000e+00
87400000.0 -1.190828000e+00 1.130829000e+00
88300000.0 -1.203614000e+00 1.110208000e+00
89200000.0 -1.215653000e+00 1.089480000e+00
90100000.0 -1.213527000e+00 1.057052000e+00
91000000.0 -1.025317000e+00 8.408520000e-01
91900000.0 -6.494470000e-01 4.302750000e-01
92800000.0 -7.682360000e-01 5.380360000e-01
93700000.0 -1.073740000e+00 8.115570000e-01
94600000.0 -1.240994000e+00 9.361730000e-01
95500000.0 -1.271713000e+00 9.364370000e-01
96400000.0 -1.283461000e+00 9.182640000e-01
97300000.0 -1.292648000e+00 8.989210000e-01
98200000.0 -1.298392000e+00 8.780530000e-01
99100000.0 -1.302679000e+00 8.575300000e-01
100000000.0 -1.304508000e+00 8.361550000e-01
109000000.0 -1.314254000e+00 6.356280000e-01
118000000.0 -1.274860000e+00 4.646060000e-01
127000000.0 -1.206178000e+00 3.309390000e-01
136000000.0 -1.102425000e+00 2.280000000e-01
145000000.0 -1.022409000e+00 1.578380000e-01
154000000.0 -9.801570000e-01 1.289770000e-01
163000000.0 -9.818940000e-01 1.344090000e-01
172000000.0 -9.861440000e-01 1.405820000e-01
181000000.0 -9.867480000e-01 1.462620000e-01
190000000.0 -9.889230000e-01 1.530470000e-01
199000000.0 -9.889210000e-01 1.590740000e-01
208000000.0 -9.888550000e-01 1.659990000e-01
217000000.0 -9.884280000e-01 1.743310000e-01
226000000.0 -9.860230000e-01 1.826270000e-01
235000000.0 -9.803100000e-01 1.877930000e-01
244000000.0 -9.744280000e-01 1.948910000e-01
253000000.0 -9.710800000e-01 2.020820000e-01
262000000.0 -9.713200000e-01 2.140550000e-01
271000000.0 -9.710280000e-01 2.212480000e-01
280000000.0 -9.677970000e-01 2.308400000e-01
289000000.0 -9.650480000e-01 2.377350000e-01
298000000.0 -9.606170000e-01 2.474880000e-01
307000000.0 -9.596890000e-01 2.552560000e-01
316000000.0 -9.622060000e-01 2.649630000e-01
325000000.0 -9.607870000e-01 2.712980000e-01
334000000.0 -9.620860000e-01 2.804430000e-01
343000000.0 -9.581520000e-01 2.869380000e-01
352000000.0 -9.580360000e-01 2.942310000e-01
361000000.0 -9.555160000e-01 3.014230000e-01
370000000.0 -9.522940000e-01 3.074350000e-01
379000000.0 -9.379140000e-01 3.298110000e-01
388000000.0 -9.466450000e-01 3.230280000e-01
397000000.0 -9.415540000e-01 3.305770000e-01
406000000.0 -9.536600000e-01 3.267930000e-01
415000000.0 -9.354580000e-01 3.446580000e-01
424000000.0 -9.332960000e-01 3.516550000e-01
433000000.0 -9.287180000e-01 3.590120000e-01
442000000.0 -9.240710000e-01 3.645030000e-01
451000000.0 -9.206740000e-01 3.720830000e-01
460000000.0 -9.208930000e-01 3.814070000e-01
469000000.0 -9.207260000e-01 3.889800000e-01
478000000.0 -9.169200000e-01 3.991450000e-01
487000000.0 -9.161360000e-01 4.075410000e-01
496000000.0 -9.140150000e-01 4.144990000e-01
505000000.0 -9.078870000e-01 4.247550000e-01
514000000.0 -9.070480000e-01 4.307950000e-01
523000000.0 -9.042280000e-01 4.384310000e-01
532000000.0 -9.017060000e-01 4.425980000e-01
541000000.0 -8.974270000e-01 4.502290000e-01
550000000.0 -8.919550000e-01 4.571560000e-01
559000000.0 -8.881370000e-01 4.616110000e-01
568000000.0 -8.828050000e-01 4.690680000e-01
577000000.0 -8.811970000e-01 4.748330000e-01
586000000.0 -8.702430000e-01 4.794760000e-01
595000000.0 -8.682040000e-01 4.873940000e-01
604000000.0 -8.599880000e-01 4.916180000e-01
613000000.0 -8.586020000e-01 5.017080000e-01
622000000.0 -8.521170000e-01 5.089140000e-01
631000000.0 -8.389570000e-01 5.152790000e-01
640000000.0 -8.332990000e-01 5.210960000e-01
649000000.0 -8.317020000e-01 5.291170000e-01
658000000.0 -8.266070000e-01 5.374010000e-01
667000000.0 -8.235440000e-01 5.420530000e-01
676000000.0 -8.230120000e-01 5.526320000e-01
685000000.0 -8.191120000e-01 5.621020000e-01
694000000.0 -8.172590000e-01 5.670160000e-01
703000000.0 -8.109030000e-01 5.683150000e-01
712000000.0 -8.097980000e-01 5.814540000e-01
721000000.0 -8.039110000e-01 5.825600000e-01
730000000.0 -7.993340000e-01 5.822640000e-01
739000000.0 -7.923340000e-01 5.915330000e-01
748000000.0 -7.889330000e-01 5.943150000e-01
757000000.0 -7.810940000e-01 6.003360000e-01
766000000.0 -7.778980000e-01 6.057960000e-01
775000000.0 -7.695850000e-01 6.176100000e-01
784000000.0 -7.649650000e-01 6.190160000e-01
793000000.0 -7.596420000e-01 6.250230000e-01
802000000.0 -7.535740000e-01 6.280350000e-01
811000000.0 -7.503070000e-01 6.343540000e-01
820000000.0 -7.437650000e-01 6.453190000e-01
829000000.0 -7.461870000e-01 6.484870000e-01
838000000.0 -7.379700000e-01 6.563870000e-01
847000000.0 -7.336450000e-01 6.668400000e-01
856000000.0 -7.310920000e-01 6.652870000e-01
865000000.0 -7.237980000e-01 6.728340000e-01
874000000.0 -7.182400000e-01 6.798550000e-01
883000000.0 -7.110900000e-01 6.824590000e-01
892000000.0 -7.062180000e-01 6.911930000e-01
901000000.0 -6.970310000e-01 6.967760000e-01
910000000.0 -6.951630000e-01 6.969950000e-01
919000000.0 -6.907910000e-01 7.063100000e-01
928000000.0 -6.827540000e-01 7.125250000e-01
937000000.0 -6.799420000e-01 7.172070000e-01
946000000.0 -6.777490000e-01 7.230260000e-01
955000000.0 -6.719420000e-01 7.313300000e-01
964000000.0 -6.660360000e-01 7.375660000e-01
973000000.0 -6.561800000e-01 7.452580000e-01
982000000.0 -6.538420000e-01 7.479820000e-01
991000000.0 -6.460370000e-01 7.535100000e-01
1000000000.0 -6.392890000e-01 7.603540000e-01
1004500000.0 -9.690660000e-01 -1.845330000e-01
1009000000.0 -7.646190000e-01 -5.988000000e-02
1013500000.0 -5.216650000e-01 5.589100000e-01
1018000000.0 -5.766200000e-01 6.950270000e-01
1022500000.0 -5.840550000e-01 7.264110000e-01
1027000000.0 -5.651870000e-01 1.754190000e-01
1031500000.0 -9.586490000e-01 -2.319090000e-01
1036000000.0 -9.179530000e-01 -3.554300000e-01
1040500000.0 -8.538740000e-01 -4.879060000e-01
1045000000.0 -8.089670000e-01 -5.592710000e-01
1049500000.0 -8.038850000e-01 -5.676990000e-01
1054000000.0 -6.960300000e-01 -4.501270000e-01
1058500000.0 -4.736260000e-01 -2.839300000e-02
1063000000.0 -4.327700000e-01 3.170420000e-01
1067500000.0 -4.487170000e-01 2.921730000e-01
1072000000.0 -5.571340000e-01 1.896600000e-02
1076500000.0 -9.427220000e-01 -2.616950000e-01
1081000000.0 -9.468420000e-01 -2.637380000e-01
1085500000.0 -9.039780000e-01 -2.887660000e-01
1090000000.0 -4.425870000e-01 2.493890000e-01
1094500000.0 -8.896160000e-01 -4.398370000e-01
1099000000.0 -8.794690000e-01 -4.549590000e-01
1103500000.0 -8.855650000e-01 -4.420680000e-01
1108000000.0 -8.939640000e-01 -4.032520000e-01
1112500000.0 -4.399260000e-01 2.352220000e-01
1117000000.0 -4.355760000e-01 4.608020000e-01
1121500000.0 -9.612840000e-01 -2.375410000e-01
1126000000.0 -9.715870000e-01 -1.999090000e-01
1130500000.0 -9.796320000e-01 -2.278040000e-01
1135000000.0 -9.690110000e-01 -2.098300000e-01
1139500000.0 -4.890840000e-01 1.670850000e-01
1144000000.0 -8.596820000e-01 -2.773260000e-01
1148500000.0 -9.271920000e-01 -3.428410000e-01
1153000000.0 -9.146220000e-01 -3.671880000e-01
1157500000.0 -9.142920000e-01 -3.827330000e-01
1162000000.0 -9.061250000e-01 -4.039660000e-01
1166500000.0 -8.967970000e-01 -4.154270000e-01
1171000000.0 -8.880200000e-01 -4.327910000e-01
1175500000.0 -8.769720000e-01 -4.482480000e-01
1180000000.0 -8.658070000e-01 -4.610500000e-01
1184500000.0 -8.576280000e-01 -4.771200000e-01
1189000000.0 -8.658380000e-01 -4.729690000e-01
1193500000.0 -8.644000000e-01 -4.578180000e-01
1198000000.0 -8.781260000e-01 -4.407810000e-01
1202500000.0 -9.020110000e-01 -3.886480000e-01
1207000000.0 -9.516510000e-01 -2.479910000e-01
1211500000.0 -9.858020000e-01 -5.933600000e-02
1216000000.0 -9.844520000e-01 1.113280000e-01
1220500000.0 -4.330080000e-01 8.272480000e-01
1225000000.0 -4.483130000e-01 8.604440000e-01
1229500000.0 -4.398210000e-01 8.545540000e-01
1234000000.0 -9.851110000e-01 6.461400000e-02
1238500000.0 -9.824270000e-01 -1.521520000e-01
1243000000.0 -9.259310000e-01 -3.437730000e-01
1247500000.0 -9.091790000e-01 -3.862760000e-01
1252000000.0 -9.021760000e-01 -3.993690000e-01
1256500000.0 -9.149810000e-01 -3.806850000e-01
1261000000.0 -9.357270000e-01 -3.209750000e-01
1265500000.0 -9.963760000e-01 -7.058300000e-02
1270000000.0 -9.193330000e-01 2.112790000e-01
1274500000.0 -4.057410000e-01 8.901980000e-01
1279000000.0 -4.029330000e-01 8.970250000e-01
1283500000.0 -3.991190000e-01 8.966530000e-01
1288000000.0 -3.986420000e-01 8.978330000e-01
1292500000.0 -3.886040000e-01 8.995410000e-01
1297000000.0 -3.852930000e-01 8.946160000e-01
1301500000.0 -4.649700000e-01 4.447510000e-01
1306000000.0 -6.342260000e-01 2.378010000e-01
1310500000.0 -9.724010000e-01 1.584010000e-01
1315000000.0 -9.697360000e-01 1.925120000e-01
1319500000.0 -6.470880000e-01 3.051630000e-01
1324000000.0 -3.546470000e-01 8.701250000e-01
1328500000.0 -3.545540000e-01 9.008230000e-01
1333000000.0 -3.573270000e-01 9.080450000e-01
1337500000.0 -3.434350000e-01 9.133260000e-01
1342000000.0 -3.442060000e-01 9.074840000e-01
1346500000.0 -3.263940000e-01 8.567690000e-01
1351000000.0 -9.726550000e-01 1.425750000e-01
1355500000.0 -9.767930000e-01 -9.150200000e-02
1360000000.0 -9.669200000e-01 -1.830860000e-01
1364500000.0 -9.640010000e-01 -1.859680000e-01
1369000000.0 -9.872010000e-01 -8.476600000e-02
1373500000.0 -9.808980000e-01 1.410570000e-01
1378000000.0 -9.370450000e-01 3.216670000e-01
1382500000.0 -2.962510000e-01 8.812170000e-01
1387000000.0 -2.949650000e-01 9.130000000e-01
1391500000.0 -2.913950000e-01 9.040770000e-01
1396000000.0 -8.476600000e-01 3.200590000e-01
1400500000.0 -9.751630000e-01 2.157270000e-01
1405000000.0 -9.908030000e-01 6.912000000e-02
1409500000.0 -1.001329000e+00 3.537000000e-03
1414000000.0 -9.976460000e-01 8.395000000e-03
1418500000.0 -9.925530000e-01 1.123150000e-01
1423000000.0 -9.706580000e-01 2.356790000e-01
1427500000.0 -9.501270000e-01 3.216240000e-01
1432000000.0 -9.215550000e-01 3.771840000e-01
1436500000.0 -9.127520000e-01 4.059270000e-01
1441000000.0 -9.018080000e-01 4.236450000e-01
1445500000.0 -9.048250000e-01 4.137040000e-01
1450000000.0 -9.109340000e-01 4.061600000e-01
