! piloto_corto / aire / r05
# HZ S RI R 50
50000.0 1.006142000e+00 -7.268500000e-02
59500.0 1.002772000e+00 -5.939400000e-02
69000.0 1.002832000e+00 -4.533200000e-02
78500.0 1.002674000e+00 -3.361000000e-02
88000.0 1.000970000e+00 -2.070800000e-02
97500.0 1.000485000e+00 -9.463000000e-03
107000.0 9.999520000e-01 4.009000000e-03
116500.0 9.995060000e-01 1.501400000e-02
126000.0 9.966070000e-01 2.779900000e-02
135500.0 9.999480000e-01 3.956600000e-02
145000.0 1.000446000e+00 5.047600000e-02
154500.0 1.001029000e+00 6.342100000e-02
164000.0 1.001184000e+00 7.498200000e-02
173500.0 1.001758000e+00 8.606200000e-02
183000.0 1.001756000e+00 9.825000000e-02
192500.0 1.002506000e+00 1.098980000e-01
202000.0 1.002605000e+00 1.212610000e-01
211500.0 1.002504000e+00 1.321820000e-01
221000.0 1.002479000e+00 1.438890000e-01
230500.0 1.002856000e+00 1.549730000e-01
240000.0 1.002528000e+00 1.659600000e-01
249500.0 1.003073000e+00 1.767430000e-01
259000.0 1.003084000e+00 1.884180000e-01
268500.0 1.003836000e+00 1.989350000e-01
278000.0 1.003618000e+00 2.098920000e-01
287500.0 1.003703000e+00 2.196620000e-01
297000.0 1.004036000e+00 2.311260000e-01
306500.0 1.005096000e+00 2.417930000e-01
316000.0 1.003799000e+00 2.525050000e-01
325500.0 1.004538000e+00 2.639080000e-01
335000.0 1.005561000e+00 2.734950000e-01
344500.0 1.005655000e+00 2.841440000e-01
354000.0 1.004850000e+00 2.948780000e-01
363500.0 1.005365000e+00 3.051070000e-01
373000.0 1.004869000e+00 3.147640000e-01
382500.0 1.003825000e+00 3.259490000e-01
392000.0 1.005142000e+00 3.366160000e-01
401500.0 1.005835000e+00 3.459440000e-01
411000.0 1.005872000e+00 3.561240000e-01
420500.0 1.006254000e+00 3.661080000e-01
430000.0 1.005843000e+00 3.767640000e-01
439500.0 1.006162000e+00 3.869210000e-01
449000.0 1.006076000e+00 3.967480000e-01
458500.0 1.006557000e+00 4.068780000e-01
468000.0 1.005871000e+00 4.171400000e-01
477500.0 1.006794000e+00 4.266150000e-01
487000.0 1.007390000e+00 4.368580000e-01
496500.0 1.006869000e+00 4.460630000e-01
506000.0 1.007441000e+00 4.560070000e-01
515500.0 1.007823000e+00 4.653200000e-01
525000.0 1.008004000e+00 4.750110000e-01
534500.0 1.008146000e+00 4.845280000e-01
544000.0 1.008790000e+00 4.944340000e-01
553500.0 1.009333000e+00 5.041730000e-01
563000.0 1.009668000e+00 5.131220000e-01
572500.0 1.009773000e+00 5.230010000e-01
582000.0 1.011889000e+00 5.330940000e-01
591500.0 1.011172000e+00 5.427680000e-01
601000.0 1.011590000e+00 5.521100000e-01
610500.0 1.010646000e+00 5.609960000e-01
620000.0 1.011865000e+00 5.703420000e-01
629500.0 1.011679000e+00 5.806420000e-01
639000.0 1.012140000e+00 5.896050000e-01
648500.0 1.013298000e+00 5.975370000e-01
658000.0 1.013842000e+00 6.084640000e-01
667500.0 1.014392000e+00 6.169140000e-01
677000.0 1.014963000e+00 6.279990000e-01
686500.0 1.016128000e+00 6.359750000e-01
696000.0 1.017557000e+00 6.453560000e-01
705500.0 1.017995000e+00 6.543090000e-01
715000.0 1.018408000e+00 6.625800000e-01
724500.0 1.017934000e+00 6.720800000e-01
734000.0 1.018753000e+00 6.825170000e-01
743500.0 1.019932000e+00 6.909290000e-01
753000.0 1.020597000e+00 6.995130000e-01
762500.0 1.022651000e+00 7.089380000e-01
772000.0 1.023592000e+00 7.184460000e-01
781500.0 1.023970000e+00 7.268040000e-01
791000.0 1.025824000e+00 7.361750000e-01
800500.0 1.025865000e+00 7.443310000e-01
810000.0 1.029137000e+00 7.544120000e-01
819500.0 1.029796000e+00 7.622610000e-01
829000.0 1.029440000e+00 7.712020000e-01
838500.0 1.030056000e+00 7.797480000e-01
848000.0 1.032181000e+00 7.899860000e-01
857500.0 1.033691000e+00 7.979460000e-01
867000.0 1.036539000e+00 8.069650000e-01
876500.0 1.036845000e+00 8.159910000e-01
886000.0 1.039198000e+00 8.225900000e-01
895500.0 1.040571000e+00 8.334370000e-01
905000.0 1.042393000e+00 8.427580000e-01
914500.0 1.043776000e+00 8.505820000e-01
924000.0 1.045454000e+00 8.582970000e-01
933500.0 1.047257000e+00 8.679550000e-01
943000.0 1.049073000e+00 8.775760000e-01
952500.0 1.052434000e+00 8.854770000e-01
962000.0 1.054824000e+00 8.923250000e-01
971500.0 1.056518000e+00 9.027630000e-01
981000.0 1.057431000e+00 9.110780000e-01
990500.0 1.059539000e+00 9.179750000e-01
1000000.0 1.062352000e+00 9.276420000e-01
1090000.0 1.084865000e+00 1.004464000e+00
1180000.0 1.120573000e+00 1.078593000e+00
1270000.0 1.163995000e+00 1.151439000e+00
1360000.0 1.214187000e+00 1.211561000e+00
1450000.0 1.278261000e+00 1.266769000e+00
1540000.0 1.349578000e+00 1.311799000e+00
1630000.0 1.428179000e+00 1.337961000e+00
1720000.0 1.513065000e+00 1.350226000e+00
1810000.0 1.601305000e+00 1.343312000e+00
1900000.0 1.684180000e+00 1.318392000e+00
1990000.0 1.766490000e+00 1.270911000e+00
2080000.0 1.834065000e+00 1.210082000e+00
2170000.0 1.886966000e+00 1.134550000e+00
2260000.0 1.926660000e+00 1.048915000e+00
2350000.0 1.948152000e+00 9.604700000e-01
2440000.0 1.952264000e+00 8.741190000e-01
2530000.0 1.943709000e+00 7.912470000e-01
2620000.0 1.925349000e+00 7.118820000e-01
2710000.0 1.899262000e+00 6.395260000e-01
2800000.0 1.864667000e+00 5.773440000e-01
2890000.0 1.831555000e+00 5.200740000e-01
2980000.0 1.793417000e+00 4.703390000e-01
3070000.0 1.755036000e+00 4.276160000e-01
3160000.0 1.715508000e+00 3.901800000e-01
3250000.0 1.681080000e+00 3.568260000e-01
3340000.0 1.645108000e+00 3.242000000e-01
3430000.0 1.612408000e+00 2.975750000e-01
3520000.0 1.580475000e+00 2.716770000e-01
3610000.0 1.551862000e+00 2.490770000e-01
3700000.0 1.521742000e+00 2.303020000e-01
3790000.0 1.497970000e+00 2.109950000e-01
3880000.0 1.473710000e+00 1.916080000e-01
3970000.0 1.451424000e+00 1.743550000e-01
4060000.0 1.430268000e+00 1.586560000e-01
4150000.0 1.411245000e+00 1.424440000e-01
4240000.0 1.394248000e+00 1.258090000e-01
4330000.0 1.378108000e+00 1.117370000e-01
4420000.0 1.363606000e+00 9.633000000e-02
4510000.0 1.349431000e+00 8.484500000e-02
4600000.0 1.336326000e+00 6.739500000e-02
4690000.0 1.326845000e+00 5.677100000e-02
4780000.0 1.316612000e+00 4.314200000e-02
4870000.0 1.307492000e+00 2.922300000e-02
4960000.0 1.299599000e+00 1.602900000e-02
5050000.0 1.284497000e+00 2.545000000e-03
5140000.0 1.278153000e+00 -8.530000000e-03
5230000.0 1.273531000e+00 -2.120700000e-02
5320000.0 1.268436000e+00 -3.348600000e-02
5410000.0 1.264174000e+00 -4.635200000e-02
5500000.0 1.261143000e+00 -5.800200000e-02
5590000.0 1.256994000e+00 -6.951600000e-02
5680000.0 1.251503000e+00 -8.126400000e-02
5770000.0 1.248342000e+00 -9.184400000e-02
5860000.0 1.246497000e+00 -1.014940000e-01
5950000.0 1.242479000e+00 -1.131720000e-01
6040000.0 1.240376000e+00 -1.249600000e-01
6130000.0 1.238025000e+00 -1.332080000e-01
6220000.0 1.234215000e+00 -1.426530000e-01
6310000.0 1.232229000e+00 -1.521420000e-01
6400000.0 1.229561000e+00 -1.605430000e-01
6490000.0 1.227743000e+00 -1.685370000e-01
6580000.0 1.225214000e+00 -1.763650000e-01
6670000.0 1.225250000e+00 -1.823750000e-01
6760000.0 1.222464000e+00 -1.888880000e-01
6850000.0 1.222439000e+00 -1.946710000e-01
6940000.0 1.220853000e+00 -1.984130000e-01
7030000.0 1.220744000e+00 -2.036520000e-01
7120000.0 1.220032000e+00 -2.064030000e-01
7210000.0 1.219696000e+00 -2.080500000e-01
7300000.0 1.219217000e+00 -2.112160000e-01
7390000.0 1.218133000e+00 -2.105940000e-01
7480000.0 1.218995000e+00 -2.118710000e-01
7570000.0 -2.618210000e-01 -1.256786000e+00
7660000.0 -2.609620000e-01 -1.258345000e+00
7750000.0 -2.603210000e-01 -1.259163000e+00
7840000.0 -2.610840000e-01 -1.258433000e+00
7930000.0 -2.592880000e-01 -1.258716000e+00
8020000.0 -2.593060000e-01 -1.260029000e+00
8110000.0 -2.588570000e-01 -1.260063000e+00
8200000.0 -2.581740000e-01 -1.261174000e+00
8290000.0 -2.574630000e-01 -1.260690000e+00
8380000.0 -2.556600000e-01 -1.260461000e+00
8470000.0 -2.549780000e-01 -1.261548000e+00
8560000.0 -2.552530000e-01 -1.261606000e+00
8650000.0 -2.551270000e-01 -1.262973000e+00
8740000.0 -2.543720000e-01 -1.264307000e+00
8830000.0 -2.544400000e-01 -1.264224000e+00
8920000.0 -2.541560000e-01 -1.264712000e+00
9010000.0 -2.535380000e-01 -1.265493000e+00
9100000.0 -2.526320000e-01 -1.266557000e+00
9190000.0 -2.526420000e-01 -1.266361000e+00
9280000.0 -2.528670000e-01 -1.266765000e+00
9370000.0 -2.517310000e-01 -1.267265000e+00
9460000.0 -2.511440000e-01 -1.269366000e+00
9550000.0 -2.511160000e-01 -1.269100000e+00
9640000.0 -2.499010000e-01 -1.269167000e+00
9730000.0 -2.496150000e-01 -1.270895000e+00
9820000.0 -2.496330000e-01 -1.271066000e+00
9910000.0 -2.487570000e-01 -1.273147000e+00
10000000.0 -2.477150000e-01 -1.273180000e+00
10900000.0 -2.445760000e-01 -1.282273000e+00
11800000.0 -2.407910000e-01 -1.290633000e+00
12700000.0 -2.368420000e-01 -1.301003000e+00
13600000.0 -2.330990000e-01 -1.310662000e+00
14500000.0 -2.290650000e-01 -1.322475000e+00
15400000.0 -2.252210000e-01 -1.332926000e+00
16300000.0 -2.219290000e-01 -1.343780000e+00
17200000.0 -2.169010000e-01 -1.355754000e+00
18100000.0 -2.136010000e-01 -1.366623000e+00
19000000.0 -2.075300000e-01 -1.380682000e+00
19900000.0 -2.030230000e-01 -1.392938000e+00
20800000.0 -1.983870000e-01 -1.406174000e+00
21700000.0 -1.921650000e-01 -1.417767000e+00
22600000.0 -1.862060000e-01 -1.432751000e+00
23500000.0 -1.793220000e-01 -1.444364000e+00
24400000.0 -1.726160000e-01 -1.457698000e+00
25300000.0 -1.630680000e-01 -1.470930000e+00
26200000.0 -1.557310000e-01 -1.484744000e+00
27100000.0 -1.478120000e-01 -1.499478000e+00
28000000.0 -1.385970000e-01 -1.514565000e+00
28900000.0 -1.314040000e-01 -1.529651000e+00
29800000.0 -1.205080000e-01 -1.543347000e+00
30700000.0 -1.093940000e-01 -1.559032000e+00
31600000.0 -1.000920000e-01 -1.572344000e+00
32500000.0 -8.844000000e-02 -1.587991000e+00
33400000.0 -4.465200000e-02 -1.596250000e+00
34300000.0 -6.320200000e-02 -1.620161000e+00
35200000.0 -5.207200000e-02 -1.633775000e+00
36100000.0 -3.634600000e-02 -1.650644000e+00
37000000.0 -2.204900000e-02 -1.664453000e+00
37900000.0 -8.406000000e-03 -1.680809000e+00
38800000.0 8.223000000e-03 -1.697582000e+00
39700000.0 2.443700000e-02 -1.712092000e+00
40600000.0 4.261300000e-02 -1.727305000e+00
41500000.0 6.048500000e-02 -1.743972000e+00
42400000.0 7.805400000e-02 -1.758919000e+00
43300000.0 9.889600000e-02 -1.773688000e+00
44200000.0 1.193120000e-01 -1.789785000e+00
45100000.0 1.413430000e-01 -1.804128000e+00
46000000.0 1.630190000e-01 -1.816682000e+00
46900000.0 1.841010000e-01 -1.830562000e+00
47800000.0 2.094880000e-01 -1.844694000e+00
48700000.0 2.345080000e-01 -1.858670000e+00
49600000.0 2.606560000e-01 -1.870998000e+00
50500000.0 2.871610000e-01 -1.883557000e+00
51400000.0 3.152360000e-01 -1.893697000e+00
52300000.0 3.433100000e-01 -1.903572000e+00
53200000.0 3.733290000e-01 -1.915203000e+00
54100000.0 4.025850000e-01 -1.922640000e+00
55000000.0 4.344000000e-01 -1.931567000e+00
55900000.0 4.678850000e-01 -1.938444000e+00
56800000.0 5.001100000e-01 -1.942512000e+00
57700000.0 5.333050000e-01 -1.949098000e+00
58600000.0 5.686110000e-01 -1.950794000e+00
59500000.0 6.026630000e-01 -1.953343000e+00
60400000.0 6.414590000e-01 -1.957659000e+00
61300000.0 6.755670000e-01 -1.954582000e+00
62200000.0 7.117060000e-01 -1.951699000e+00
63100000.0 7.506160000e-01 -1.949336000e+00
64000000.0 7.849410000e-01 -1.945288000e+00
64900000.0 8.238560000e-01 -1.937374000e+00
65800000.0 8.597720000e-01 -1.929019000e+00
66700000.0 8.980080000e-01 -1.919063000e+00
67600000.0 9.364990000e-01 -1.906250000e+00
68500000.0 9.703070000e-01 -1.893910000e+00
69400000.0 1.009098000e+00 -1.875667000e+00
70300000.0 1.043654000e+00 -1.858679000e+00
71200000.0 1.078086000e+00 -1.840426000e+00
72100000.0 1.115030000e+00 -1.816515000e+00
73000000.0 1.145638000e+00 -1.794445000e+00
73900000.0 1.179913000e+00 -1.773423000e+00
74800000.0 1.209711000e+00 -1.747287000e+00
75700000.0 1.238499000e+00 -1.720500000e+00
76600000.0 1.266853000e+00 -1.694154000e+00
77500000.0 1.293424000e+00 -1.664298000e+00
78400000.0 1.319775000e+00 -1.635277000e+00
79300000.0 1.342151000e+00 -1.606717000e+00
80200000.0 1.367666000e+00 -1.573540000e+00
81100000.0 1.386209000e+00 -1.541398000e+00
82000000.0 1.405945000e+00 -1.505523000e+00
82900000.0 1.425079000e+00 -1.476469000e+00
83800000.0 1.440182000e+00 -1.439853000e+00
84700000.0 1.456085000e+00 -1.407332000e+00
85600000.0 1.465741000e+00 -1.376375000e+00
86500000.0 1.477288000e+00 -1.342400000e+00
87400000.0 1.488772000e+00 -1.307180000e+00
88300000.0 1.494547000e+00 -1.274275000e+00
89200000.0 1.502425000e+00 -1.242843000e+00
90100000.0 1.508211000e+00 -1.206923000e+00
91000000.0 1.511378000e+00 -1.174210000e+00
91900000.0 1.514314000e+00 -1.142660000e+00
92800000.0 1.516728000e+00 -1.111125000e+00
93700000.0 1.518003000e+00 -1.079107000e+00
94600000.0 1.518282000e+00 -1.048901000e+00
95500000.0 1.515289000e+00 -1.019217000e+00
96400000.0 1.513641000e+00 -9.907800000e-01
97300000.0 1.509772000e+00 -9.613540000e-01
98200000.0 1.506548000e+00 -9.339270000e-01
99100000.0 1.501979000e+00 -9.065200000e-01
100000000.0 1.496343000e+00 -8.818190000e-01
109000000.0 1.403534000e+00 -6.817230000e-01
118000000.0 1.300330000e+00 -5.190450000e-01
127000000.0 1.197593000e+00 -4.041140000e-01
136000000.0 1.102853000e+00 -3.080350000e-01
145000000.0 1.007152000e+00 -2.690140000e-01
154000000.0 9.636260000e-01 -2.332910000e-01
163000000.0 9.606930000e-01 -2.470760000e-01
172000000.0 9.581490000e-01 -2.601070000e-01
181000000.0 9.547910000e-01 -2.742590000e-01
190000000.0 9.500180000e-01 -2.857360000e-01
199000000.0 9.458160000e-01 -2.978630000e-01
208000000.0 9.427320000e-01 -3.104590000e-01
217000000.0 9.373860000e-01 -3.237780000e-01
226000000.0 9.324860000e-01 -3.357540000e-01
235000000.0 9.272660000e-01 -3.465920000e-01
244000000.0 9.226080000e-01 -3.577480000e-01
253000000.0 9.164260000e-01 -3.713810000e-01
262000000.0 9.112290000e-01 -3.825250000e-01
271000000.0 9.042410000e-01 -3.942970000e-01
280000000.0 8.983150000e-01 -4.049830000e-01
289000000.0 8.923380000e-01 -4.168470000e-01
298000000.0 8.863570000e-01 -4.286450000e-01
307000000.0 8.815520000e-01 -4.390440000e-01
316000000.0 8.756960000e-01 -4.496770000e-01
325000000.0 8.684750000e-01 -4.618270000e-01
334000000.0 8.633220000e-01 -4.722630000e-01
343000000.0 8.245010000e-01 -5.246700000e-01
352000000.0 8.414550000e-01 -5.092720000e-01
361000000.0 8.471010000e-01 -5.027300000e-01
370000000.0 8.402940000e-01 -5.144390000e-01
379000000.0 8.066420000e-01 -5.508220000e-01
388000000.0 8.504450000e-01 -5.090450000e-01
397000000.0 8.203030000e-01 -5.434730000e-01
406000000.0 8.100220000e-01 -5.549560000e-01
415000000.0 8.008250000e-01 -5.638630000e-01
424000000.0 7.925050000e-01 -5.729340000e-01
433000000.0 7.858120000e-01 -5.828420000e-01
442000000.0 7.766420000e-01 -5.915080000e-01
451000000.0 7.683900000e-01 -6.019470000e-01
460000000.0 7.621730000e-01 -6.107390000e-01
469000000.0 7.563230000e-01 -6.214870000e-01
478000000.0 7.485870000e-01 -6.326400000e-01
487000000.0 7.435280000e-01 -6.423430000e-01
496000000.0 7.401710000e-01 -6.492410000e-01
505000000.0 7.310690000e-01 -6.591280000e-01
514000000.0 7.233410000e-01 -6.689270000e-01
523000000.0 7.136480000e-01 -6.784750000e-01
532000000.0 7.059840000e-01 -6.874800000e-01
541000000.0 6.991830000e-01 -6.954660000e-01
550000000.0 6.933520000e-01 -7.023850000e-01
559000000.0 6.790760000e-01 -7.136460000e-01
568000000.0 6.712060000e-01 -7.181260000e-01
577000000.0 6.578130000e-01 -7.260710000e-01
586000000.0 6.517430000e-01 -7.337460000e-01
595000000.0 6.384880000e-01 -7.412400000e-01
604000000.0 6.267900000e-01 -7.512700000e-01
613000000.0 6.239320000e-01 -7.594580000e-01
622000000.0 6.128170000e-01 -7.685500000e-01
631000000.0 6.027820000e-01 -7.787740000e-01
640000000.0 5.975590000e-01 -7.882090000e-01
649000000.0 5.909890000e-01 -7.988500000e-01
658000000.0 5.794030000e-01 -8.040850000e-01
667000000.0 5.684420000e-01 -8.133380000e-01
676000000.0 5.588160000e-01 -8.184780000e-01
685000000.0 5.471070000e-01 -8.224460000e-01
694000000.0 5.367200000e-01 -8.276720000e-01
703000000.0 5.264630000e-01 -8.364690000e-01
712000000.0 5.210060000e-01 -8.399130000e-01
721000000.0 5.058000000e-01 -8.429830000e-01
730000000.0 4.909060000e-01 -8.475680000e-01
739000000.0 4.797880000e-01 -8.464070000e-01
748000000.0 4.645160000e-01 -8.510830000e-01
757000000.0 4.551240000e-01 -8.592720000e-01
766000000.0 4.423440000e-01 -8.674880000e-01
775000000.0 4.308200000e-01 -8.729590000e-01
784000000.0 4.207070000e-01 -8.807420000e-01
793000000.0 4.108500000e-01 -8.866410000e-01
802000000.0 3.983240000e-01 -8.931930000e-01
811000000.0 3.894950000e-01 -8.988440000e-01
820000000.0 3.739920000e-01 -9.030900000e-01
829000000.0 3.663300000e-01 -9.081860000e-01
838000000.0 3.558230000e-01 -9.103880000e-01
847000000.0 3.446680000e-01 -9.140250000e-01
856000000.0 3.352550000e-01 -9.183330000e-01
865000000.0 3.271410000e-01 -9.164380000e-01
874000000.0 3.194330000e-01 -9.171730000e-01
883000000.0 3.110410000e-01 -9.183340000e-01
892000000.0 3.007920000e-01 -9.208040000e-01
901000000.0 2.941750000e-01 -9.186510000e-01
910000000.0 2.775330000e-01 -9.249320000e-01
919000000.0 2.666020000e-01 -9.267130000e-01
928000000.0 2.540630000e-01 -9.289510000e-01
937000000.0 2.453670000e-01 -9.310610000e-01
946000000.0 2.328140000e-01 -9.325630000e-01
955000000.0 2.214290000e-01 -9.359240000e-01
964000000.0 2.127330000e-01 -9.351960000e-01
973000000.0 2.025030000e-01 -9.393370000e-01
982000000.0 1.932040000e-01 -9.410430000e-01
991000000.0 1.832300000e-01 -9.419550000e-01
1000000000.0 1.740180000e-01 -9.443980000e-01
1004500000.0 1.712350000e-01 -9.448880000e-01
1009000000.0 1.661290000e-01 -9.457410000e-01
1013500000.0 1.609830000e-01 -9.461840000e-01
1018000000.0 1.587720000e-01 -9.475620000e-01
1022500000.0 1.486500000e-01 -9.496210000e-01
1027000000.0 1.466870000e-01 -9.494600000e-01
1031500000.0 1.410190000e-01 -9.482300000e-01
1036000000.0 1.366260000e-01 -9.501330000e-01
1040500000.0 1.296120000e-01 -9.516610000e-01
1045000000.0 1.294200000e-01 -9.532720000e-01
1049500000.0 1.215560000e-01 -9.525050000e-01
1054000000.0 1.195440000e-01 -9.523810000e-01
1058500000.0 1.108640000e-01 -9.544350000e-01
1063000000.0 1.085810000e-01 -9.548620000e-01
1067500000.0 9.992900000e-02 -9.562100000e-01
1072000000.0 9.647500000e-02 -9.541100000e-01
1076500000.0 9.350400000e-02 -9.556770000e-01
1081000000.0 8.997000000e-02 -9.561370000e-01
1085500000.0 8.208300000e-02 -9.584180000e-01
1090000000.0 8.168200000e-02 -9.566810000e-01
1094500000.0 7.633300000e-02 -9.600080000e-01
1099000000.0 7.354900000e-02 -9.603360000e-01
1103500000.0 6.735600000e-02 -9.604790000e-01
1108000000.0 6.315800000e-02 -9.586300000e-01
1112500000.0 5.973600000e-02 -9.613620000e-01
1117000000.0 5.166900000e-02 -9.612010000e-01
1121500000.0 4.209300000e-02 -9.628920000e-01
1126000000.0 2.136600000e-02 -9.551500000e-01
1130500000.0 3.582400000e-02 -9.592020000e-01
1135000000.0 2.866800000e-02 -9.619410000e-01
1139500000.0 1.712900000e-02 -9.637650000e-01
1144000000.0 2.908000000e-03 -9.605990000e-01
1148500000.0 4.892900000e-02 -9.686410000e-01
1153000000.0 2.373100000e-02 -9.668190000e-01
1157500000.0 5.996000000e-03 -9.606720000e-01
1162000000.0 -4.290000000e-04 -9.606700000e-01
1166500000.0 -7.799000000e-03 -9.602610000e-01
1171000000.0 -1.044100000e-02 -9.629720000e-01
1175500000.0 -2.088500000e-02 -9.595890000e-01
1180000000.0 -2.210200000e-02 -9.601570000e-01
1184500000.0 -3.467800000e-02 -9.602630000e-01
1189000000.0 -4.062100000e-02 -9.578440000e-01
1193500000.0 -3.912100000e-02 -9.602350000e-01
1198000000.0 -4.587100000e-02 -9.575600000e-01
1202500000.0 -5.895300000e-02 -9.600110000e-01
1207000000.0 -5.819100000e-02 -9.565450000e-01
1211500000.0 -5.791300000e-02 -9.599430000e-01
1216000000.0 -7.219300000e-02 -9.576600000e-01
1220500000.0 -6.698300000e-02 -9.616770000e-01
1225000000.0 -7.184700000e-02 -9.581420000e-01
1229500000.0 -7.911100000e-02 -9.597470000e-01
1234000000.0 -8.590400000e-02 -9.588590000e-01
1238500000.0 -8.429800000e-02 -9.624710000e-01
1243000000.0 -9.145200000e-02 -9.592060000e-01
1247500000.0 -9.590500000e-02 -9.601640000e-01
1252000000.0 -1.021770000e-01 -9.575920000e-01
1256500000.0 -1.031670000e-01 -9.587250000e-01
1261000000.0 -1.070940000e-01 -9.610820000e-01
1265500000.0 -1.154670000e-01 -9.588200000e-01
1270000000.0 -1.147590000e-01 -9.578530000e-01
1274500000.0 -1.222050000e-01 -9.583610000e-01
1279000000.0 -1.202280000e-01 -9.601220000e-01
1283500000.0 -1.367300000e-01 -9.568770000e-01
1288000000.0 -1.419760000e-01 -9.548430000e-01
1292500000.0 -1.473330000e-01 -9.536890000e-01
1297000000.0 -1.508400000e-01 -9.554960000e-01
1301500000.0 -1.516560000e-01 -9.506910000e-01
1306000000.0 -1.544610000e-01 -9.530290000e-01
1310500000.0 -1.577860000e-01 -9.460960000e-01
1315000000.0 -1.691310000e-01 -9.502420000e-01
1319500000.0 -1.681460000e-01 -9.461660000e-01
1324000000.0 -1.757360000e-01 -9.516790000e-01
1328500000.0 -1.891130000e-01 -9.438600000e-01
1333000000.0 -1.902660000e-01 -9.481640000e-01
1337500000.0 -1.874130000e-01 -9.474180000e-01
1342000000.0 -2.013510000e-01 -9.393220000e-01
1346500000.0 -2.065440000e-01 -9.327210000e-01
1351000000.0 -2.105970000e-01 -9.390570000e-01
1355500000.0 -2.079420000e-01 -9.389990000e-01
1360000000.0 -2.212270000e-01 -9.359360000e-01
1364500000.0 -2.233830000e-01 -9.361050000e-01
1369000000.0 -2.292170000e-01 -9.438050000e-01
1373500000.0 -2.289090000e-01 -9.407940000e-01
1378000000.0 -2.304830000e-01 -9.459600000e-01
1382500000.0 -2.403130000e-01 -9.360410000e-01
1387000000.0 -2.396840000e-01 -9.415470000e-01
1391500000.0 -2.430980000e-01 -9.462990000e-01
1396000000.0 -2.446440000e-01 -9.362840000e-01
1400500000.0 -2.524460000e-01 -9.434310000e-01
1405000000.0 -2.564700000e-01 -9.488060000e-01
1409500000.0 -2.644080000e-01 -9.474890000e-01
1414000000.0 -2.615630000e-01 -9.387920000e-01
1418500000.0 -2.712750000e-01 -9.375080000e-01
1423000000.0 -2.700620000e-01 -9.280650000e-01
1427500000.0 -2.844430000e-01 -9.456610000e-01
1432000000.0 -2.742240000e-01 -9.391430000e-01
1436500000.0 -2.837570000e-01 -9.335440000e-01
1441000000.0 -2.929740000e-01 -9.278750000e-01
1445500000.0 -3.017110000e-01 -9.301460000e-01
1450000000.0 -3.002100000e-01 -9.307840000e-01
