! piloto_corto / corto_cobre / r08
# HZ S RI R 50
50000.0 1.007301000e+00 -7.219100000e-02
59500.0 1.001969000e+00 -5.940600000e-02
69000.0 1.003443000e+00 -4.409600000e-02
78500.0 1.002529000e+00 -3.361900000e-02
88000.0 1.000828000e+00 -2.118400000e-02
97500.0 1.000811000e+00 -8.325000000e-03
107000.0 9.996110000e-01 4.520000000e-03
116500.0 1.000034000e+00 1.598300000e-02
126000.0 9.976720000e-01 2.847300000e-02
135500.0 9.995860000e-01 4.069300000e-02
145000.0 9.995970000e-01 5.247100000e-02
154500.0 1.000344000e+00 6.364100000e-02
164000.0 1.000856000e+00 7.599500000e-02
173500.0 1.001655000e+00 8.862500000e-02
183000.0 1.001700000e+00 9.913100000e-02
192500.0 1.002486000e+00 1.109730000e-01
202000.0 1.002879000e+00 1.222250000e-01
211500.0 1.002437000e+00 1.338900000e-01
221000.0 1.002403000e+00 1.450150000e-01
230500.0 1.002986000e+00 1.566610000e-01
240000.0 1.003648000e+00 1.670430000e-01
249500.0 1.003353000e+00 1.782030000e-01
259000.0 1.003777000e+00 1.900700000e-01
268500.0 1.003711000e+00 2.001700000e-01
278000.0 1.003059000e+00 2.113690000e-01
287500.0 1.004122000e+00 2.223310000e-01
297000.0 1.005171000e+00 2.328950000e-01
306500.0 1.004505000e+00 2.442130000e-01
316000.0 1.005809000e+00 2.537870000e-01
325500.0 1.005263000e+00 2.649440000e-01
335000.0 1.005679000e+00 2.758960000e-01
344500.0 1.004873000e+00 2.863070000e-01
354000.0 1.005194000e+00 2.964640000e-01
363500.0 1.005277000e+00 3.072630000e-01
373000.0 1.005852000e+00 3.177480000e-01
382500.0 1.006476000e+00 3.278020000e-01
392000.0 1.006316000e+00 3.378380000e-01
401500.0 1.006743000e+00 3.489410000e-01
411000.0 1.005986000e+00 3.591000000e-01
420500.0 1.006976000e+00 3.688670000e-01
430000.0 1.006706000e+00 3.779250000e-01
439500.0 1.006116000e+00 3.892990000e-01
449000.0 1.006857000e+00 3.987510000e-01
458500.0 1.007331000e+00 4.088720000e-01
468000.0 1.008811000e+00 4.192670000e-01
477500.0 1.007933000e+00 4.287000000e-01
487000.0 1.007695000e+00 4.388890000e-01
496500.0 1.008614000e+00 4.474300000e-01
506000.0 1.008940000e+00 4.584720000e-01
515500.0 1.009010000e+00 4.677470000e-01
525000.0 1.009341000e+00 4.782050000e-01
534500.0 1.009089000e+00 4.871430000e-01
544000.0 1.020275000e+00 5.123160000e-01
553500.0 1.010044000e+00 5.077950000e-01
563000.0 1.010628000e+00 5.167560000e-01
572500.0 1.010846000e+00 5.261800000e-01
582000.0 1.004583000e+00 5.540890000e-01
591500.0 1.011902000e+00 5.449250000e-01
601000.0 1.011627000e+00 5.539450000e-01
610500.0 1.013223000e+00 5.638970000e-01
620000.0 1.013251000e+00 5.735950000e-01
629500.0 1.013415000e+00 5.825360000e-01
639000.0 1.013003000e+00 5.926420000e-01
648500.0 1.014262000e+00 6.013480000e-01
658000.0 1.015538000e+00 6.107950000e-01
667500.0 1.015853000e+00 6.202900000e-01
677000.0 1.016872000e+00 6.302480000e-01
686500.0 1.017626000e+00 6.385480000e-01
696000.0 1.018443000e+00 6.488210000e-01
705500.0 1.018118000e+00 6.572720000e-01
715000.0 1.018388000e+00 6.666560000e-01
724500.0 1.020549000e+00 6.756860000e-01
734000.0 1.021467000e+00 6.858940000e-01
743500.0 1.022102000e+00 6.944580000e-01
753000.0 1.022831000e+00 7.037450000e-01
762500.0 1.024279000e+00 7.126570000e-01
772000.0 1.024515000e+00 7.217060000e-01
781500.0 1.026407000e+00 7.313620000e-01
791000.0 1.027204000e+00 7.401720000e-01
800500.0 1.027736000e+00 7.490180000e-01
810000.0 1.029362000e+00 7.581850000e-01
819500.0 1.030337000e+00 7.677800000e-01
829000.0 1.031524000e+00 7.759840000e-01
838500.0 1.033209000e+00 7.840370000e-01
848000.0 1.035959000e+00 7.929690000e-01
857500.0 1.036218000e+00 8.019820000e-01
867000.0 1.038906000e+00 8.117980000e-01
876500.0 1.040622000e+00 8.205390000e-01
886000.0 1.041650000e+00 8.280010000e-01
895500.0 1.042033000e+00 8.366750000e-01
905000.0 1.045545000e+00 8.465480000e-01
914500.0 1.046665000e+00 8.557240000e-01
924000.0 1.047837000e+00 8.637700000e-01
933500.0 1.050894000e+00 8.733610000e-01
943000.0 1.052591000e+00 8.820650000e-01
952500.0 1.054088000e+00 8.889120000e-01
962000.0 1.056423000e+00 8.985770000e-01
971500.0 1.059471000e+00 9.077140000e-01
981000.0 1.061410000e+00 9.153050000e-01
990500.0 1.062415000e+00 9.248530000e-01
1000000.0 1.064779000e+00 9.326540000e-01
1090000.0 1.090193000e+00 1.009629000e+00
1180000.0 1.125333000e+00 1.086528000e+00
1270000.0 1.170227000e+00 1.155608000e+00
1360000.0 1.225230000e+00 1.217669000e+00
1450000.0 1.287369000e+00 1.273049000e+00
1540000.0 1.361386000e+00 1.314699000e+00
1630000.0 1.439616000e+00 1.342470000e+00
1720000.0 1.529122000e+00 1.352521000e+00
1810000.0 1.616819000e+00 1.340630000e+00
1900000.0 1.701467000e+00 1.312569000e+00
1990000.0 1.782008000e+00 1.263657000e+00
2080000.0 1.847817000e+00 1.199135000e+00
2170000.0 1.900229000e+00 1.122563000e+00
2260000.0 1.935606000e+00 1.036738000e+00
2350000.0 1.953414000e+00 9.453380000e-01
2440000.0 1.952447000e+00 8.590800000e-01
2530000.0 1.945532000e+00 7.765030000e-01
2620000.0 1.926524000e+00 6.982280000e-01
2710000.0 1.895115000e+00 6.302370000e-01
2800000.0 1.862273000e+00 5.654620000e-01
2890000.0 1.827031000e+00 5.115750000e-01
2980000.0 1.788805000e+00 4.641360000e-01
3070000.0 1.750438000e+00 4.201140000e-01
3160000.0 1.713698000e+00 3.828550000e-01
3250000.0 1.676960000e+00 3.498150000e-01
3340000.0 1.640705000e+00 3.193750000e-01
3430000.0 1.609064000e+00 2.937710000e-01
3520000.0 1.576715000e+00 2.696830000e-01
3610000.0 1.547436000e+00 2.462740000e-01
3700000.0 1.520192000e+00 2.256140000e-01
3790000.0 1.494626000e+00 2.058290000e-01
3880000.0 1.470314000e+00 1.883580000e-01
3970000.0 1.448210000e+00 1.713580000e-01
4060000.0 1.427050000e+00 1.549220000e-01
4150000.0 1.408216000e+00 1.389610000e-01
4240000.0 1.391990000e+00 1.253120000e-01
4330000.0 1.374986000e+00 1.107250000e-01
4420000.0 1.361183000e+00 9.653600000e-02
4510000.0 1.347717000e+00 8.224200000e-02
4600000.0 1.335869000e+00 6.800000000e-02
4690000.0 1.323264000e+00 5.504900000e-02
4780000.0 1.314472000e+00 4.199600000e-02
4870000.0 1.305414000e+00 2.820900000e-02
4960000.0 1.297727000e+00 1.719900000e-02
5050000.0 1.282133000e+00 2.209000000e-03
5140000.0 1.277243000e+00 -1.030200000e-02
5230000.0 1.273652000e+00 -2.245900000e-02
5320000.0 1.268664000e+00 -3.452800000e-02
5410000.0 1.262779000e+00 -4.696700000e-02
5500000.0 1.259087000e+00 -5.790900000e-02
5590000.0 1.255990000e+00 -7.064200000e-02
5680000.0 1.251926000e+00 -8.137700000e-02
5770000.0 1.248495000e+00 -9.380100000e-02
5860000.0 1.244599000e+00 -1.042690000e-01
5950000.0 1.241939000e+00 -1.143630000e-01
6040000.0 1.238304000e+00 -1.241470000e-01
6130000.0 1.236174000e+00 -1.350760000e-01
6220000.0 1.233333000e+00 -1.452150000e-01
6310000.0 1.232673000e+00 -1.523830000e-01
6400000.0 1.228756000e+00 -1.609690000e-01
6490000.0 1.227408000e+00 -1.706260000e-01
6580000.0 1.225095000e+00 -1.774440000e-01
6670000.0 1.224262000e+00 -1.832850000e-01
6760000.0 1.222353000e+00 -1.891840000e-01
6850000.0 1.221390000e+00 -1.959470000e-01
6940000.0 1.220038000e+00 -1.996630000e-01
7030000.0 1.219738000e+00 -2.035770000e-01
7120000.0 1.219040000e+00 -2.080730000e-01
7210000.0 1.217415000e+00 -2.105950000e-01
7300000.0 1.218279000e+00 -2.134020000e-01
7390000.0 1.217785000e+00 -2.131310000e-01
7480000.0 1.217665000e+00 -2.134580000e-01
7570000.0 -2.636690000e-01 -1.256669000e+00
7660000.0 -2.629850000e-01 -1.257976000e+00
7750000.0 -2.632390000e-01 -1.257870000e+00
7840000.0 -2.619790000e-01 -1.257787000e+00
7930000.0 -2.613430000e-01 -1.258445000e+00
8020000.0 -2.618430000e-01 -1.258472000e+00
8110000.0 -2.598610000e-01 -1.259711000e+00
8200000.0 -2.587210000e-01 -1.259354000e+00
8290000.0 -2.596110000e-01 -1.260371000e+00
8380000.0 -2.590700000e-01 -1.260292000e+00
8470000.0 -2.583200000e-01 -1.261372000e+00
8560000.0 -2.569180000e-01 -1.261447000e+00
8650000.0 -2.573680000e-01 -1.262040000e+00
8740000.0 -2.564430000e-01 -1.261796000e+00
8830000.0 -2.561690000e-01 -1.263387000e+00
8920000.0 -2.561960000e-01 -1.264247000e+00
9010000.0 -2.543780000e-01 -1.264766000e+00
9100000.0 -2.550190000e-01 -1.264565000e+00
9190000.0 -2.550330000e-01 -1.266527000e+00
9280000.0 -2.540850000e-01 -1.266473000e+00
9370000.0 -2.533320000e-01 -1.267794000e+00
9460000.0 -2.540490000e-01 -1.268635000e+00
9550000.0 -2.540550000e-01 -1.267721000e+00
9640000.0 -2.523790000e-01 -1.268750000e+00
9730000.0 -2.517130000e-01 -1.269618000e+00
9820000.0 -2.514580000e-01 -1.270422000e+00
9910000.0 -2.522430000e-01 -1.271826000e+00
10000000.0 -2.514030000e-01 -1.273541000e+00
10900000.0 -2.456930000e-01 -1.280453000e+00
11800000.0 -2.445290000e-01 -1.290121000e+00
12700000.0 -2.403180000e-01 -1.299376000e+00
13600000.0 -2.372700000e-01 -1.309634000e+00
14500000.0 -2.337560000e-01 -1.321453000e+00
15400000.0 -2.290730000e-01 -1.332134000e+00
16300000.0 -2.252940000e-01 -1.343496000e+00
17200000.0 -2.210620000e-01 -1.354890000e+00
18100000.0 -2.180580000e-01 -1.366296000e+00
19000000.0 -2.140580000e-01 -1.379512000e+00
19900000.0 -2.084150000e-01 -1.390049000e+00
20800000.0 -2.043900000e-01 -1.404227000e+00
21700000.0 -1.975000000e-01 -1.417646000e+00
22600000.0 -1.924400000e-01 -1.430620000e+00
23500000.0 -1.850570000e-01 -1.442912000e+00
24400000.0 -1.785210000e-01 -1.457465000e+00
25300000.0 -1.738690000e-01 -1.470483000e+00
26200000.0 -1.656490000e-01 -1.483589000e+00
27100000.0 -1.568370000e-01 -1.498875000e+00
28000000.0 -1.492640000e-01 -1.513091000e+00
28900000.0 -1.909790000e-01 -1.511576000e+00
29800000.0 -1.298700000e-01 -1.541740000e+00
30700000.0 -1.201930000e-01 -1.556976000e+00
31600000.0 -1.110940000e-01 -1.573277000e+00
32500000.0 -9.961200000e-02 -1.587375000e+00
33400000.0 -8.924500000e-02 -1.603009000e+00
34300000.0 -7.552100000e-02 -1.618432000e+00
35200000.0 -6.284800000e-02 -1.633528000e+00
36100000.0 -5.023000000e-02 -1.649504000e+00
37000000.0 -3.781500000e-02 -1.666056000e+00
37900000.0 -2.194500000e-02 -1.680113000e+00
38800000.0 -6.501000000e-03 -1.695847000e+00
39700000.0 9.077000000e-03 -1.711698000e+00
40600000.0 2.539500000e-02 -1.728100000e+00
41500000.0 4.447300000e-02 -1.742744000e+00
42400000.0 6.241300000e-02 -1.759389000e+00
43300000.0 7.964200000e-02 -1.774222000e+00
44200000.0 1.008960000e-01 -1.789371000e+00
45100000.0 1.244050000e-01 -1.804361000e+00
46000000.0 1.432420000e-01 -1.819937000e+00
46900000.0 1.664330000e-01 -1.833817000e+00
47800000.0 1.891740000e-01 -1.847035000e+00
48700000.0 2.138110000e-01 -1.859234000e+00
49600000.0 2.412590000e-01 -1.873735000e+00
50500000.0 2.655270000e-01 -1.886799000e+00
51400000.0 2.908670000e-01 -1.897583000e+00
52300000.0 3.198090000e-01 -1.908284000e+00
53200000.0 3.517630000e-01 -1.918406000e+00
54100000.0 3.796300000e-01 -1.928391000e+00
55000000.0 4.119920000e-01 -1.936879000e+00
55900000.0 4.429790000e-01 -1.944342000e+00
56800000.0 4.762150000e-01 -1.949590000e+00
57700000.0 5.094100000e-01 -1.956286000e+00
58600000.0 5.421430000e-01 -1.959094000e+00
59500000.0 5.760850000e-01 -1.962136000e+00
60400000.0 6.135030000e-01 -1.965913000e+00
61300000.0 6.478760000e-01 -1.965654000e+00
62200000.0 6.841040000e-01 -1.964014000e+00
63100000.0 7.197210000e-01 -1.960361000e+00
64000000.0 7.542480000e-01 -1.956735000e+00
64900000.0 7.929250000e-01 -1.948178000e+00
65800000.0 8.304160000e-01 -1.942401000e+00
66700000.0 8.677560000e-01 -1.931883000e+00
67600000.0 9.048610000e-01 -1.920387000e+00
68500000.0 9.405940000e-01 -1.907920000e+00
69400000.0 9.772700000e-01 -1.892261000e+00
70300000.0 1.012800000e+00 -1.877698000e+00
71200000.0 1.047333000e+00 -1.859770000e+00
72100000.0 1.079546000e+00 -1.840571000e+00
73000000.0 1.111975000e+00 -1.818801000e+00
73900000.0 1.145865000e+00 -1.795321000e+00
74800000.0 1.178910000e+00 -1.771737000e+00
75700000.0 1.209283000e+00 -1.746295000e+00
76600000.0 1.236962000e+00 -1.719078000e+00
77500000.0 1.266753000e+00 -1.691400000e+00
78400000.0 1.289973000e+00 -1.660592000e+00
79300000.0 1.315803000e+00 -1.630204000e+00
80200000.0 1.338057000e+00 -1.600961000e+00
81100000.0 1.359027000e+00 -1.566987000e+00
82000000.0 1.378104000e+00 -1.534567000e+00
82900000.0 1.397610000e+00 -1.502513000e+00
83800000.0 1.415657000e+00 -1.469055000e+00
84700000.0 1.430024000e+00 -1.437980000e+00
85600000.0 1.444667000e+00 -1.401944000e+00
86500000.0 1.455329000e+00 -1.368936000e+00
87400000.0 1.466756000e+00 -1.332871000e+00
88300000.0 1.472795000e+00 -1.301671000e+00
89200000.0 1.480422000e+00 -1.270849000e+00
90100000.0 1.485709000e+00 -1.237996000e+00
91000000.0 1.490209000e+00 -1.206969000e+00
91900000.0 1.495964000e+00 -1.173589000e+00
92800000.0 1.495739000e+00 -1.142701000e+00
93700000.0 1.497620000e+00 -1.111529000e+00
94600000.0 1.496524000e+00 -1.080086000e+00
95500000.0 1.495533000e+00 -1.052083000e+00
96400000.0 1.494233000e+00 -1.021966000e+00
97300000.0 1.491842000e+00 -9.946490000e-01
98200000.0 1.487888000e+00 -9.676490000e-01
99100000.0 1.483718000e+00 -9.393770000e-01
100000000.0 1.479043000e+00 -9.136400000e-01
109000000.0 1.404849000e+00 -6.839610000e-01
118000000.0 1.302002000e+00 -5.210200000e-01
127000000.0 1.196402000e+00 -4.073890000e-01
136000000.0 1.094662000e+00 -3.335340000e-01
145000000.0 1.006070000e+00 -2.758520000e-01
154000000.0 9.575150000e-01 -2.583530000e-01
163000000.0 9.530870000e-01 -2.723290000e-01
172000000.0 9.496880000e-01 -2.857550000e-01
181000000.0 9.459390000e-01 -2.998660000e-01
190000000.0 9.412090000e-01 -3.138020000e-01
199000000.0 9.366760000e-01 -3.254340000e-01
208000000.0 9.305410000e-01 -3.403750000e-01
217000000.0 9.270740000e-01 -3.534580000e-01
226000000.0 9.200080000e-01 -3.669390000e-01
235000000.0 9.138550000e-01 -3.818440000e-01
244000000.0 9.072440000e-01 -3.947340000e-01
253000000.0 9.004020000e-01 -4.076360000e-01
262000000.0 8.952900000e-01 -4.203660000e-01
271000000.0 8.872760000e-01 -4.336970000e-01
280000000.0 8.804800000e-01 -4.457320000e-01
289000000.0 8.734250000e-01 -4.581240000e-01
298000000.0 8.651960000e-01 -4.690320000e-01
307000000.0 8.573710000e-01 -4.807580000e-01
316000000.0 8.527600000e-01 -4.907210000e-01
325000000.0 8.462860000e-01 -5.032700000e-01
334000000.0 8.391450000e-01 -5.161430000e-01
343000000.0 8.328040000e-01 -5.288020000e-01
352000000.0 8.749250000e-01 -4.866310000e-01
361000000.0 8.172430000e-01 -5.502310000e-01
370000000.0 8.065550000e-01 -5.632080000e-01
379000000.0 7.999670000e-01 -5.728340000e-01
388000000.0 7.909950000e-01 -5.851550000e-01
397000000.0 7.558670000e-01 -6.168610000e-01
406000000.0 7.850240000e-01 -5.930840000e-01
415000000.0 7.647360000e-01 -6.161680000e-01
424000000.0 7.538960000e-01 -6.241680000e-01
433000000.0 7.434270000e-01 -6.365480000e-01
442000000.0 7.326530000e-01 -6.450320000e-01
451000000.0 7.203320000e-01 -6.539990000e-01
460000000.0 7.166770000e-01 -6.640770000e-01
469000000.0 7.103420000e-01 -6.756360000e-01
478000000.0 7.016930000e-01 -6.853920000e-01
487000000.0 6.941150000e-01 -6.949560000e-01
496000000.0 6.877410000e-01 -7.029120000e-01
505000000.0 6.792730000e-01 -7.145090000e-01
514000000.0 6.685790000e-01 -7.250400000e-01
523000000.0 6.722330000e-01 -7.218610000e-01
532000000.0 6.504800000e-01 -7.420770000e-01
541000000.0 6.260010000e-01 -7.640780000e-01
550000000.0 6.280000000e-01 -7.576320000e-01
559000000.0 6.332280000e-01 -7.571200000e-01
568000000.0 6.059260000e-01 -7.773680000e-01
577000000.0 5.803830000e-01 -7.921110000e-01
586000000.0 5.823390000e-01 -7.883690000e-01
595000000.0 5.862210000e-01 -7.858960000e-01
604000000.0 5.587310000e-01 -8.041440000e-01
613000000.0 5.350400000e-01 -8.225090000e-01
622000000.0 5.402480000e-01 -8.238840000e-01
631000000.0 5.333150000e-01 -8.359910000e-01
640000000.0 5.201860000e-01 -8.433930000e-01
649000000.0 5.116830000e-01 -8.499630000e-01
658000000.0 5.006280000e-01 -8.601380000e-01
667000000.0 4.869070000e-01 -8.688160000e-01
676000000.0 4.748360000e-01 -8.735200000e-01
685000000.0 4.588080000e-01 -8.818710000e-01
694000000.0 4.488620000e-01 -8.847170000e-01
703000000.0 4.397790000e-01 -8.889010000e-01
712000000.0 4.174780000e-01 -8.900000000e-01
721000000.0 4.119360000e-01 -8.923090000e-01
730000000.0 4.001060000e-01 -8.952140000e-01
739000000.0 3.891810000e-01 -8.953430000e-01
748000000.0 3.734980000e-01 -8.959340000e-01
757000000.0 3.621680000e-01 -9.011890000e-01
766000000.0 3.494850000e-01 -9.102150000e-01
775000000.0 3.344470000e-01 -9.164910000e-01
784000000.0 3.252060000e-01 -9.208770000e-01
793000000.0 3.117450000e-01 -9.284350000e-01
802000000.0 2.971240000e-01 -9.321710000e-01
811000000.0 2.827800000e-01 -9.376270000e-01
820000000.0 2.729070000e-01 -9.388300000e-01
829000000.0 2.607120000e-01 -9.429120000e-01
838000000.0 2.462410000e-01 -9.447830000e-01
847000000.0 2.370400000e-01 -9.489130000e-01
856000000.0 2.227070000e-01 -9.485690000e-01
865000000.0 2.154190000e-01 -9.499220000e-01
874000000.0 2.107240000e-01 -9.500070000e-01
883000000.0 1.983680000e-01 -9.492990000e-01
892000000.0 1.890730000e-01 -9.511310000e-01
901000000.0 1.778530000e-01 -9.487610000e-01
910000000.0 1.657380000e-01 -9.508480000e-01
919000000.0 1.544020000e-01 -9.532990000e-01
928000000.0 1.453460000e-01 -9.532450000e-01
937000000.0 1.270010000e-01 -9.560550000e-01
946000000.0 1.162850000e-01 -9.561090000e-01
955000000.0 1.055960000e-01 -9.564660000e-01
964000000.0 9.519800000e-02 -9.576590000e-01
973000000.0 8.351800000e-02 -9.584400000e-01
982000000.0 7.421700000e-02 -9.595320000e-01
991000000.0 6.002800000e-02 -9.590460000e-01
1000000000.0 4.932500000e-02 -9.598090000e-01
1004500000.0 5.140000000e-02 -9.596110000e-01
1009000000.0 6.306700000e-02 -9.598440000e-01
1013500000.0 7.635800000e-02 -9.599680000e-01
1018000000.0 5.093800000e-02 -9.601240000e-01
1022500000.0 4.614300000e-02 -9.607930000e-01
1027000000.0 4.010800000e-02 -9.600070000e-01
1031500000.0 3.413200000e-02 -9.630500000e-01
1036000000.0 2.947600000e-02 -9.622000000e-01
1040500000.0 2.538000000e-02 -9.635480000e-01
1045000000.0 2.237300000e-02 -9.629090000e-01
1049500000.0 1.697100000e-02 -9.627560000e-01
1054000000.0 1.000600000e-02 -9.634890000e-01
1058500000.0 7.780000000e-03 -9.623170000e-01
1063000000.0 -1.203000000e-03 -9.639760000e-01
1067500000.0 -3.520000000e-03 -9.624850000e-01
1072000000.0 -1.149000000e-02 -9.632400000e-01
1076500000.0 -1.595300000e-02 -9.656670000e-01
1081000000.0 -2.269400000e-02 -9.647170000e-01
1085500000.0 -2.352500000e-02 -9.650590000e-01
1090000000.0 -3.108900000e-02 -9.634650000e-01
1094500000.0 -3.564100000e-02 -9.641970000e-01
1099000000.0 -3.749200000e-02 -9.644150000e-01
1103500000.0 -4.677000000e-02 -9.653460000e-01
1108000000.0 -4.941400000e-02 -9.643400000e-01
1112500000.0 -5.170600000e-02 -9.644200000e-01
1117000000.0 -6.531700000e-02 -9.651490000e-01
1121500000.0 -6.875300000e-02 -9.638380000e-01
1126000000.0 2.515600000e-02 -1.056414000e+00
1130500000.0 -7.891200000e-02 -9.613620000e-01
1135000000.0 -7.881100000e-02 -9.624100000e-01
1139500000.0 -8.590200000e-02 -9.608930000e-01
1144000000.0 -9.387700000e-02 -9.582490000e-01
1148500000.0 -1.054240000e-01 -9.589590000e-01
1153000000.0 -1.041320000e-01 -9.606250000e-01
1157500000.0 -5.729600000e-02 -9.797250000e-01
1162000000.0 -8.000300000e-02 -9.714930000e-01
1166500000.0 -1.189600000e-01 -9.572080000e-01
1171000000.0 -1.221260000e-01 -9.552880000e-01
1175500000.0 -1.283550000e-01 -9.540910000e-01
1180000000.0 -1.396950000e-01 -9.513820000e-01
1184500000.0 -1.309720000e-01 -9.533140000e-01
1189000000.0 -1.452640000e-01 -9.456310000e-01
1193500000.0 -1.545830000e-01 -9.484620000e-01
1198000000.0 -1.559400000e-01 -9.485540000e-01
1202500000.0 -1.592190000e-01 -9.465400000e-01
1207000000.0 -1.692630000e-01 -9.463430000e-01
1211500000.0 -1.696350000e-01 -9.480230000e-01
1216000000.0 -1.773720000e-01 -9.481470000e-01
1220500000.0 -1.811170000e-01 -9.496980000e-01
1225000000.0 -1.849050000e-01 -9.517340000e-01
1229500000.0 -1.971150000e-01 -9.436630000e-01
1234000000.0 -1.991050000e-01 -9.432230000e-01
1238500000.0 -2.031150000e-01 -9.404320000e-01
1243000000.0 -2.075670000e-01 -9.400570000e-01
1247500000.0 -2.086110000e-01 -9.447840000e-01
1252000000.0 -2.139260000e-01 -9.420760000e-01
1256500000.0 -2.215430000e-01 -9.390000000e-01
1261000000.0 -2.203530000e-01 -9.440200000e-01
1265500000.0 -2.346850000e-01 -9.399720000e-01
1270000000.0 -2.301740000e-01 -9.372360000e-01
1274500000.0 -2.438210000e-01 -9.395800000e-01
1279000000.0 -2.361540000e-01 -9.403320000e-01
1283500000.0 -2.412630000e-01 -9.390400000e-01
1288000000.0 -2.589010000e-01 -9.357490000e-01
1292500000.0 -2.497820000e-01 -9.303120000e-01
1297000000.0 -2.626330000e-01 -9.289720000e-01
1301500000.0 -2.663540000e-01 -9.332340000e-01
1306000000.0 -2.765110000e-01 -9.290220000e-01
1310500000.0 -2.814690000e-01 -9.298350000e-01
1315000000.0 -2.756520000e-01 -9.286090000e-01
1319500000.0 -2.922700000e-01 -9.216780000e-01
1324000000.0 -2.911440000e-01 -9.215280000e-01
1328500000.0 -2.981220000e-01 -9.135940000e-01
1333000000.0 -3.066620000e-01 -9.211760000e-01
1337500000.0 -3.101060000e-01 -9.169710000e-01
1342000000.0 -3.130670000e-01 -9.130080000e-01
1346500000.0 -3.158290000e-01 -9.042030000e-01
1351000000.0 -3.229140000e-01 -9.013910000e-01
1355500000.0 -3.257190000e-01 -9.119060000e-01
1360000000.0 -3.398490000e-01 -9.034600000e-01
1364500000.0 -3.324830000e-01 -9.165630000e-01
1369000000.0 -3.329750000e-01 -9.169030000e-01
1373500000.0 -3.503030000e-01 -9.057620000e-01
1378000000.0 -3.518770000e-01 -9.092380000e-01
1382500000.0 -3.577280000e-01 -9.003640000e-01
1387000000.0 -3.682370000e-01 -9.021440000e-01
1391500000.0 -3.546600000e-01 -9.082450000e-01
1396000000.0 -3.695590000e-01 -9.027070000e-01
1400500000.0 -3.792770000e-01 -9.045540000e-01
1405000000.0 -3.628950000e-01 -9.094040000e-01
1409500000.0 -3.711300000e-01 -9.043800000e-01
1414000000.0 -3.877960000e-01 -9.035300000e-01
1418500000.0 -3.844690000e-01 -9.015910000e-01
1423000000.0 -4.136840000e-01 -8.941790000e-01
1427500000.0 -4.041410000e-01 -9.028630000e-01
1432000000.0 -3.960120000e-01 -8.998820000e-01
1436500000.0 -4.000480000e-01 -8.967960000e-01
1441000000.0 -4.161190000e-01 -8.943030000e-01
1445500000.0 -4.212000000e-01 -8.909450000e-01
1450000000.0 -4.218120000e-01 -8.848070000e-01
