! piloto_corto / aire / r06
# HZ S RI R 50
50000.0 1.006187000e+00 -7.280200000e-02
59500.0 1.007892000e+00 -6.027700000e-02
69000.0 1.003400000e+00 -4.493700000e-02
78500.0 1.002664000e+00 -3.326600000e-02
88000.0 1.000180000e+00 -2.105200000e-02
97500.0 9.990850000e-01 -8.436000000e-03
107000.0 9.996190000e-01 3.941000000e-03
116500.0 1.006454000e+00 5.140800000e-02
126000.0 1.000446000e+00 2.554000000e-02
135500.0 1.000085000e+00 4.031500000e-02
145000.0 9.998020000e-01 5.103500000e-02
154500.0 9.998560000e-01 6.358500000e-02
164000.0 1.001266000e+00 7.508300000e-02
173500.0 1.001686000e+00 8.688700000e-02
183000.0 1.001095000e+00 9.847500000e-02
192500.0 1.002752000e+00 1.097960000e-01
202000.0 1.002443000e+00 1.214050000e-01
211500.0 1.002271000e+00 1.326520000e-01
221000.0 1.002809000e+00 1.443750000e-01
230500.0 1.002868000e+00 1.548240000e-01
240000.0 1.003808000e+00 1.674220000e-01
249500.0 1.093274000e+00 2.596580000e-01
259000.0 1.003041000e+00 1.878220000e-01
268500.0 1.003228000e+00 1.984570000e-01
278000.0 1.003588000e+00 2.102880000e-01
287500.0 1.003785000e+00 2.217580000e-01
297000.0 1.004816000e+00 2.322020000e-01
306500.0 1.004323000e+00 2.424460000e-01
316000.0 1.004739000e+00 2.532170000e-01
325500.0 1.003915000e+00 2.636760000e-01
335000.0 1.005372000e+00 2.746230000e-01
344500.0 1.004289000e+00 2.844710000e-01
354000.0 1.004484000e+00 2.957850000e-01
363500.0 1.005498000e+00 3.052310000e-01
373000.0 1.004423000e+00 3.167540000e-01
382500.0 1.005398000e+00 3.258830000e-01
392000.0 1.005857000e+00 3.368500000e-01
401500.0 1.006001000e+00 3.468370000e-01
411000.0 1.005592000e+00 3.575200000e-01
420500.0 1.006040000e+00 3.667180000e-01
430000.0 1.005831000e+00 3.770510000e-01
439500.0 1.006197000e+00 3.871710000e-01
449000.0 1.005692000e+00 3.974620000e-01
458500.0 1.006146000e+00 4.066130000e-01
468000.0 1.007526000e+00 4.166610000e-01
477500.0 1.006914000e+00 4.271140000e-01
487000.0 1.007528000e+00 4.376500000e-01
496500.0 1.008368000e+00 4.457770000e-01
506000.0 1.007645000e+00 4.565950000e-01
515500.0 1.008024000e+00 4.653440000e-01
525000.0 1.007758000e+00 4.757010000e-01
534500.0 1.009035000e+00 4.858200000e-01
544000.0 1.009408000e+00 4.945750000e-01
553500.0 1.009460000e+00 5.045620000e-01
563000.0 1.009872000e+00 5.150180000e-01
572500.0 1.010612000e+00 5.235800000e-01
582000.0 1.010577000e+00 5.338080000e-01
591500.0 1.010868000e+00 5.422650000e-01
601000.0 1.010576000e+00 5.512120000e-01
610500.0 1.011898000e+00 5.627870000e-01
620000.0 1.011765000e+00 5.708990000e-01
629500.0 1.012560000e+00 5.802920000e-01
639000.0 1.012689000e+00 5.894850000e-01
648500.0 1.013531000e+00 5.991170000e-01
658000.0 1.013673000e+00 6.087460000e-01
667500.0 1.015743000e+00 6.173430000e-01
677000.0 1.016644000e+00 6.282980000e-01
686500.0 1.015465000e+00 6.357270000e-01
696000.0 1.016522000e+00 6.455850000e-01
705500.0 1.017262000e+00 6.556290000e-01
715000.0 1.018292000e+00 6.644800000e-01
724500.0 1.018214000e+00 6.723520000e-01
734000.0 1.019403000e+00 6.815980000e-01
743500.0 1.019910000e+00 6.914290000e-01
753000.0 1.020880000e+00 7.005630000e-01
762500.0 1.021568000e+00 7.107270000e-01
772000.0 1.023423000e+00 7.188390000e-01
781500.0 1.024341000e+00 7.280110000e-01
791000.0 1.024968000e+00 7.383810000e-01
800500.0 1.027127000e+00 7.457990000e-01
810000.0 1.026256000e+00 7.549520000e-01
819500.0 1.028353000e+00 7.634600000e-01
829000.0 1.029723000e+00 7.719800000e-01
838500.0 1.031881000e+00 7.820870000e-01
848000.0 1.031382000e+00 7.910670000e-01
857500.0 1.033479000e+00 7.996950000e-01
867000.0 1.036641000e+00 8.063920000e-01
876500.0 1.036847000e+00 8.161240000e-01
886000.0 1.039165000e+00 8.252250000e-01
895500.0 1.041572000e+00 8.348090000e-01
905000.0 1.044416000e+00 8.438220000e-01
914500.0 1.044803000e+00 8.523620000e-01
924000.0 1.045919000e+00 8.605310000e-01
933500.0 1.047025000e+00 8.699980000e-01
943000.0 1.051355000e+00 8.776730000e-01
952500.0 1.052931000e+00 8.867010000e-01
962000.0 1.053693000e+00 8.949220000e-01
971500.0 1.056761000e+00 9.030140000e-01
981000.0 1.059556000e+00 9.115080000e-01
990500.0 1.061476000e+00 9.204170000e-01
1000000.0 1.062513000e+00 9.286930000e-01
1090000.0 1.087983000e+00 1.007348000e+00
1180000.0 1.121173000e+00 1.081801000e+00
1270000.0 1.164098000e+00 1.150587000e+00
1360000.0 1.217617000e+00 1.213707000e+00
1450000.0 1.277507000e+00 1.271218000e+00
1540000.0 1.350166000e+00 1.311422000e+00
1630000.0 1.430002000e+00 1.339912000e+00
1720000.0 1.516433000e+00 1.351804000e+00
1810000.0 1.604936000e+00 1.341725000e+00
1900000.0 1.688188000e+00 1.315827000e+00
1990000.0 1.769468000e+00 1.272407000e+00
2080000.0 1.836298000e+00 1.207610000e+00
2170000.0 1.892785000e+00 1.134414000e+00
2260000.0 1.928079000e+00 1.048491000e+00
2350000.0 1.950392000e+00 9.591570000e-01
2440000.0 1.957937000e+00 8.705170000e-01
2530000.0 1.944013000e+00 7.897230000e-01
2620000.0 1.925995000e+00 7.087310000e-01
2710000.0 1.900148000e+00 6.383640000e-01
2800000.0 1.864479000e+00 5.761340000e-01
2890000.0 1.832526000e+00 5.115150000e-01
2980000.0 1.791747000e+00 4.708040000e-01
3070000.0 1.752850000e+00 4.265830000e-01
3160000.0 1.716309000e+00 3.884690000e-01
3250000.0 1.680052000e+00 3.530610000e-01
3340000.0 1.644064000e+00 3.236540000e-01
3430000.0 1.611050000e+00 2.978950000e-01
3520000.0 1.580195000e+00 2.728660000e-01
3610000.0 1.549531000e+00 2.481860000e-01
3700000.0 1.521970000e+00 2.279240000e-01
3790000.0 1.496894000e+00 2.093040000e-01
3880000.0 1.472820000e+00 1.921050000e-01
3970000.0 1.450671000e+00 1.729260000e-01
4060000.0 1.429810000e+00 1.569820000e-01
4150000.0 1.409623000e+00 1.409860000e-01
4240000.0 1.393859000e+00 1.256020000e-01
4330000.0 1.376939000e+00 1.111690000e-01
4420000.0 1.361204000e+00 9.542400000e-02
4510000.0 1.348781000e+00 8.332400000e-02
4600000.0 1.336624000e+00 6.922000000e-02
4690000.0 1.325737000e+00 5.581100000e-02
4780000.0 1.316153000e+00 4.283300000e-02
4870000.0 1.307099000e+00 3.044800000e-02
4960000.0 1.299848000e+00 1.683800000e-02
5050000.0 1.284340000e+00 1.567000000e-03
5140000.0 1.278612000e+00 -8.856000000e-03
5230000.0 1.273338000e+00 -2.175700000e-02
5320000.0 1.269948000e+00 -3.419100000e-02
5410000.0 1.264696000e+00 -4.542300000e-02
5500000.0 1.259432000e+00 -5.752800000e-02
5590000.0 1.255606000e+00 -6.979900000e-02
5680000.0 1.252994000e+00 -7.972600000e-02
5770000.0 1.248294000e+00 -9.182600000e-02
5860000.0 1.245656000e+00 -1.031050000e-01
5950000.0 1.242974000e+00 -1.128170000e-01
6040000.0 1.239427000e+00 -1.244760000e-01
6130000.0 1.236405000e+00 -1.326920000e-01
6220000.0 1.233826000e+00 -1.425790000e-01
6310000.0 1.231298000e+00 -1.523850000e-01
6400000.0 1.229955000e+00 -1.597010000e-01
6490000.0 1.228618000e+00 -1.682590000e-01
6580000.0 1.226277000e+00 -1.761810000e-01
6670000.0 1.223788000e+00 -1.815950000e-01
6760000.0 1.224460000e+00 -1.881080000e-01
6850000.0 1.223094000e+00 -1.939190000e-01
6940000.0 1.221289000e+00 -1.984170000e-01
7030000.0 1.220652000e+00 -2.022540000e-01
7120000.0 1.219317000e+00 -2.060900000e-01
7210000.0 1.217996000e+00 -2.095260000e-01
7300000.0 1.219432000e+00 -2.100800000e-01
7390000.0 1.218861000e+00 -2.118460000e-01
7480000.0 1.218934000e+00 -2.120450000e-01
7570000.0 -2.616900000e-01 -1.257351000e+00
7660000.0 -2.615530000e-01 -1.257736000e+00
7750000.0 -2.611040000e-01 -1.257485000e+00
7840000.0 -2.604270000e-01 -1.258231000e+00
7930000.0 -2.588230000e-01 -1.258916000e+00
8020000.0 -2.589470000e-01 -1.258808000e+00
8110000.0 -2.598470000e-01 -1.260240000e+00
8200000.0 -2.588790000e-01 -1.260411000e+00
8290000.0 -2.571380000e-01 -1.260707000e+00
8380000.0 -2.567110000e-01 -1.261685000e+00
8470000.0 -2.554800000e-01 -1.262205000e+00
8560000.0 -2.563540000e-01 -1.261690000e+00
8650000.0 -2.560970000e-01 -1.262766000e+00
8740000.0 -2.542140000e-01 -1.263391000e+00
8830000.0 -2.538680000e-01 -1.262900000e+00
8920000.0 -2.550880000e-01 -1.264059000e+00
9010000.0 -2.531930000e-01 -1.265194000e+00
9100000.0 -2.525350000e-01 -1.265687000e+00
9190000.0 -2.518770000e-01 -1.266540000e+00
9280000.0 -2.523280000e-01 -1.266688000e+00
9370000.0 -2.521860000e-01 -1.268801000e+00
9460000.0 -2.509050000e-01 -1.267708000e+00
9550000.0 -2.503740000e-01 -1.269793000e+00
9640000.0 -2.495220000e-01 -1.271099000e+00
9730000.0 -2.494910000e-01 -1.269416000e+00
9820000.0 -2.500860000e-01 -1.271618000e+00
9910000.0 -2.499110000e-01 -1.272516000e+00
10000000.0 -2.471870000e-01 -1.272481000e+00
10900000.0 -2.452900000e-01 -1.281336000e+00
11800000.0 -2.401480000e-01 -1.290279000e+00
12700000.0 -2.370860000e-01 -1.300671000e+00
13600000.0 -2.333220000e-01 -1.311751000e+00
14500000.0 -2.298560000e-01 -1.322039000e+00
15400000.0 -2.262100000e-01 -1.333431000e+00
16300000.0 -2.225210000e-01 -1.343308000e+00
17200000.0 -2.171520000e-01 -1.356416000e+00
18100000.0 -2.116910000e-01 -1.367733000e+00
19000000.0 -2.082870000e-01 -1.379734000e+00
19900000.0 -2.020830000e-01 -1.391840000e+00
20800000.0 -1.984950000e-01 -1.404842000e+00
21700000.0 -1.905730000e-01 -1.416277000e+00
22600000.0 -1.859400000e-01 -1.431459000e+00
23500000.0 -1.788690000e-01 -1.443747000e+00
24400000.0 -1.711560000e-01 -1.458848000e+00
25300000.0 -1.634140000e-01 -1.473033000e+00
26200000.0 -1.572460000e-01 -1.485324000e+00
27100000.0 -1.476260000e-01 -1.499464000e+00
28000000.0 -1.410340000e-01 -1.513890000e+00
28900000.0 -1.305160000e-01 -1.527716000e+00
29800000.0 -1.203970000e-01 -1.543305000e+00
30700000.0 -1.114070000e-01 -1.558079000e+00
31600000.0 -1.015650000e-01 -1.573690000e+00
32500000.0 -8.852200000e-02 -1.589465000e+00
33400000.0 -7.600800000e-02 -1.603433000e+00
34300000.0 -6.517100000e-02 -1.619943000e+00
35200000.0 -5.167700000e-02 -1.634826000e+00
36100000.0 -3.737600000e-02 -1.649433000e+00
37000000.0 -2.310600000e-02 -1.665512000e+00
37900000.0 -7.577000000e-03 -1.681155000e+00
38800000.0 8.580000000e-03 -1.697101000e+00
39700000.0 2.676400000e-02 -1.712417000e+00
40600000.0 4.318500000e-02 -1.729308000e+00
41500000.0 6.028800000e-02 -1.745609000e+00
42400000.0 7.835600000e-02 -1.759030000e+00
43300000.0 9.832500000e-02 -1.774303000e+00
44200000.0 1.186630000e-01 -1.788370000e+00
45100000.0 1.420510000e-01 -1.803421000e+00
46000000.0 1.630830000e-01 -1.817226000e+00
46900000.0 1.847760000e-01 -1.830878000e+00
47800000.0 2.101220000e-01 -1.845806000e+00
48700000.0 2.343550000e-01 -1.859219000e+00
49600000.0 2.605320000e-01 -1.871264000e+00
50500000.0 2.877350000e-01 -1.883266000e+00
51400000.0 3.153140000e-01 -1.894533000e+00
52300000.0 3.452940000e-01 -1.904509000e+00
53200000.0 3.737060000e-01 -1.914211000e+00
54100000.0 4.051510000e-01 -1.920617000e+00
55000000.0 4.350150000e-01 -1.932573000e+00
55900000.0 4.656380000e-01 -1.938543000e+00
56800000.0 5.018380000e-01 -1.943846000e+00
57700000.0 5.331930000e-01 -1.947890000e+00
58600000.0 5.682310000e-01 -1.951483000e+00
59500000.0 6.026930000e-01 -1.953964000e+00
60400000.0 6.414980000e-01 -1.955253000e+00
61300000.0 6.763470000e-01 -1.956124000e+00
62200000.0 7.133410000e-01 -1.953891000e+00
63100000.0 7.482690000e-01 -1.949381000e+00
64000000.0 7.855610000e-01 -1.945241000e+00
64900000.0 8.240910000e-01 -1.937382000e+00
65800000.0 8.617250000e-01 -1.929090000e+00
66700000.0 8.573190000e-01 -1.933560000e+00
67600000.0 9.333850000e-01 -1.906196000e+00
68500000.0 9.340320000e-01 -1.907747000e+00
69400000.0 1.008487000e+00 -1.875646000e+00
70300000.0 1.008511000e+00 -1.878774000e+00
71200000.0 1.116764000e+00 -1.818576000e+00
72100000.0 1.077682000e+00 -1.839857000e+00
73000000.0 1.182014000e+00 -1.775442000e+00
73900000.0 1.177873000e+00 -1.773736000e+00
74800000.0 1.211449000e+00 -1.748966000e+00
75700000.0 1.237395000e+00 -1.722471000e+00
76600000.0 1.269595000e+00 -1.693310000e+00
77500000.0 1.292296000e+00 -1.668234000e+00
78400000.0 1.319722000e+00 -1.635477000e+00
79300000.0 1.345136000e+00 -1.605956000e+00
80200000.0 1.365698000e+00 -1.574525000e+00
81100000.0 1.385886000e+00 -1.542469000e+00
82000000.0 1.404994000e+00 -1.509016000e+00
82900000.0 1.423281000e+00 -1.475715000e+00
83800000.0 1.441273000e+00 -1.441425000e+00
84700000.0 1.454744000e+00 -1.409696000e+00
85600000.0 1.464063000e+00 -1.374787000e+00
86500000.0 1.477556000e+00 -1.341291000e+00
87400000.0 1.486013000e+00 -1.307466000e+00
88300000.0 1.495154000e+00 -1.273863000e+00
89200000.0 1.503375000e+00 -1.241087000e+00
90100000.0 1.507333000e+00 -1.207960000e+00
91000000.0 1.511703000e+00 -1.174891000e+00
91900000.0 1.514386000e+00 -1.144372000e+00
92800000.0 1.517565000e+00 -1.110790000e+00
93700000.0 1.517555000e+00 -1.079949000e+00
94600000.0 1.517211000e+00 -1.049041000e+00
95500000.0 1.516951000e+00 -1.020756000e+00
96400000.0 1.514081000e+00 -9.909940000e-01
97300000.0 1.511200000e+00 -9.643210000e-01
98200000.0 1.505788000e+00 -9.368690000e-01
99100000.0 1.500760000e+00 -9.092210000e-01
100000000.0 1.496552000e+00 -8.820130000e-01
109000000.0 1.414113000e+00 -6.583840000e-01
118000000.0 1.309158000e+00 -4.963890000e-01
127000000.0 1.204739000e+00 -3.817280000e-01
136000000.0 1.103035000e+00 -3.092970000e-01
145000000.0 1.011888000e+00 -2.515720000e-01
154000000.0 9.635890000e-01 -2.342050000e-01
163000000.0 9.608600000e-01 -2.464490000e-01
172000000.0 9.566440000e-01 -2.610640000e-01
181000000.0 9.540510000e-01 -2.737080000e-01
190000000.0 9.501560000e-01 -2.856410000e-01
199000000.0 9.453710000e-01 -2.986340000e-01
208000000.0 9.414640000e-01 -3.120410000e-01
217000000.0 9.368970000e-01 -3.231830000e-01
226000000.0 9.324360000e-01 -3.360120000e-01
235000000.0 9.282100000e-01 -3.469970000e-01
244000000.0 9.220260000e-01 -3.594940000e-01
253000000.0 9.165950000e-01 -3.722130000e-01
262000000.0 9.117020000e-01 -3.823770000e-01
271000000.0 9.066870000e-01 -3.936370000e-01
280000000.0 8.993290000e-01 -4.045690000e-01
289000000.0 8.923780000e-01 -4.168180000e-01
298000000.0 8.862040000e-01 -4.281570000e-01
307000000.0 8.785260000e-01 -4.384310000e-01
316000000.0 8.767830000e-01 -4.489170000e-01
325000000.0 8.718450000e-01 -4.637730000e-01
334000000.0 8.666320000e-01 -4.717660000e-01
343000000.0 8.577480000e-01 -4.829530000e-01
352000000.0 8.521600000e-01 -4.951320000e-01
361000000.0 7.692170000e-01 -5.395680000e-01
370000000.0 8.405020000e-01 -5.140510000e-01
379000000.0 8.564040000e-01 -4.980270000e-01
388000000.0 8.154540000e-01 -5.499900000e-01
397000000.0 8.192150000e-01 -5.441100000e-01
406000000.0 8.099750000e-01 -5.559740000e-01
415000000.0 8.041690000e-01 -5.643730000e-01
424000000.0 7.929130000e-01 -5.729830000e-01
433000000.0 7.858210000e-01 -5.840460000e-01
442000000.0 7.742460000e-01 -5.946960000e-01
451000000.0 7.649410000e-01 -6.023400000e-01
460000000.0 7.622090000e-01 -6.107530000e-01
469000000.0 7.579950000e-01 -6.209590000e-01
478000000.0 7.494020000e-01 -6.324450000e-01
487000000.0 7.444560000e-01 -6.406290000e-01
496000000.0 7.386490000e-01 -6.488810000e-01
505000000.0 7.305800000e-01 -6.601010000e-01
514000000.0 7.230920000e-01 -6.696830000e-01
523000000.0 7.140830000e-01 -6.775230000e-01
532000000.0 7.087130000e-01 -6.863720000e-01
541000000.0 6.966880000e-01 -6.954940000e-01
550000000.0 6.891310000e-01 -7.038370000e-01
559000000.0 6.792210000e-01 -7.110110000e-01
568000000.0 6.683790000e-01 -7.203330000e-01
577000000.0 6.613350000e-01 -7.271960000e-01
586000000.0 6.476930000e-01 -7.329880000e-01
595000000.0 6.354730000e-01 -7.406590000e-01
604000000.0 6.267770000e-01 -7.499660000e-01
613000000.0 6.189830000e-01 -7.602140000e-01
622000000.0 6.137150000e-01 -7.721350000e-01
631000000.0 6.054730000e-01 -7.795620000e-01
640000000.0 5.987600000e-01 -7.883660000e-01
649000000.0 5.917070000e-01 -7.971460000e-01
658000000.0 5.779860000e-01 -8.022950000e-01
667000000.0 5.684910000e-01 -8.147760000e-01
676000000.0 5.593550000e-01 -8.190210000e-01
685000000.0 5.482700000e-01 -8.230970000e-01
694000000.0 5.368190000e-01 -8.337060000e-01
703000000.0 5.301250000e-01 -8.366960000e-01
712000000.0 5.159330000e-01 -8.411990000e-01
721000000.0 5.065370000e-01 -8.434350000e-01
730000000.0 4.897140000e-01 -8.474870000e-01
739000000.0 4.797620000e-01 -8.467450000e-01
748000000.0 4.645390000e-01 -8.518530000e-01
757000000.0 4.537030000e-01 -8.581770000e-01
766000000.0 4.447100000e-01 -8.667810000e-01
775000000.0 4.303940000e-01 -8.761900000e-01
784000000.0 4.207570000e-01 -8.824260000e-01
793000000.0 4.088920000e-01 -8.871050000e-01
802000000.0 3.956830000e-01 -8.946540000e-01
811000000.0 3.864770000e-01 -8.993500000e-01
820000000.0 3.751380000e-01 -9.030400000e-01
829000000.0 3.635690000e-01 -9.088860000e-01
838000000.0 3.532390000e-01 -9.101520000e-01
847000000.0 3.456450000e-01 -9.141740000e-01
856000000.0 3.366610000e-01 -9.142830000e-01
865000000.0 3.246770000e-01 -9.159000000e-01
874000000.0 3.208130000e-01 -9.179350000e-01
883000000.0 3.082860000e-01 -9.176860000e-01
892000000.0 2.966380000e-01 -9.204020000e-01
901000000.0 2.892690000e-01 -9.191130000e-01
910000000.0 2.793630000e-01 -9.244580000e-01
919000000.0 2.678150000e-01 -9.259280000e-01
928000000.0 2.578800000e-01 -9.276700000e-01
937000000.0 2.439670000e-01 -9.303210000e-01
946000000.0 2.339020000e-01 -9.330280000e-01
955000000.0 2.219940000e-01 -9.349810000e-01
964000000.0 2.124450000e-01 -9.367130000e-01
973000000.0 2.030090000e-01 -9.384580000e-01
982000000.0 1.949650000e-01 -9.399070000e-01
991000000.0 1.821130000e-01 -9.427350000e-01
1000000000.0 1.731590000e-01 -9.447750000e-01
1004500000.0 1.687850000e-01 -9.442440000e-01
1009000000.0 1.662780000e-01 -9.457400000e-01
1013500000.0 1.562900000e-01 -9.468900000e-01
1018000000.0 1.525630000e-01 -9.481550000e-01
1022500000.0 1.507940000e-01 -9.468780000e-01
1027000000.0 1.461400000e-01 -9.501990000e-01
1031500000.0 1.394670000e-01 -9.502000000e-01
1036000000.0 1.375760000e-01 -9.505910000e-01
1040500000.0 1.303340000e-01 -9.518540000e-01
1045000000.0 1.288520000e-01 -9.530540000e-01
1049500000.0 1.264820000e-01 -9.527510000e-01
1054000000.0 1.183590000e-01 -9.528880000e-01
1058500000.0 1.156420000e-01 -9.550120000e-01
1063000000.0 1.064920000e-01 -9.555480000e-01
1067500000.0 1.051170000e-01 -9.541280000e-01
1072000000.0 1.006240000e-01 -9.567380000e-01
1076500000.0 9.625600000e-02 -9.593070000e-01
1081000000.0 8.894300000e-02 -9.541450000e-01
1085500000.0 8.568000000e-02 -9.577980000e-01
1090000000.0 7.399700000e-02 -9.590020000e-01
1094500000.0 7.277000000e-02 -9.591590000e-01
1099000000.0 6.693100000e-02 -9.599100000e-01
1103500000.0 6.440600000e-02 -9.600790000e-01
1108000000.0 6.200200000e-02 -9.600050000e-01
1112500000.0 5.416600000e-02 -9.595120000e-01
1117000000.0 4.766600000e-02 -9.608360000e-01
1121500000.0 3.876300000e-02 -9.613000000e-01
1126000000.0 3.923100000e-02 -9.618460000e-01
1130500000.0 1.461200000e-02 -9.595190000e-01
1135000000.0 4.455800000e-02 -9.636230000e-01
1139500000.0 -1.982900000e-02 -9.430990000e-01
1144000000.0 1.672300000e-02 -9.636370000e-01
1148500000.0 1.320000000e-02 -9.570130000e-01
1153000000.0 2.033600000e-02 -9.631340000e-01
1157500000.0 2.286800000e-02 -9.660770000e-01
1162000000.0 -2.626000000e-03 -9.614940000e-01
1166500000.0 -7.156000000e-03 -9.600120000e-01
1171000000.0 -1.504600000e-02 -9.596300000e-01
1175500000.0 -2.144900000e-02 -9.602130000e-01
1180000000.0 -2.441800000e-02 -9.625670000e-01
1184500000.0 -3.469900000e-02 -9.568690000e-01
1189000000.0 -3.590800000e-02 -9.600180000e-01
1193500000.0 -4.468800000e-02 -9.581800000e-01
1198000000.0 -4.333000000e-02 -9.566900000e-01
1202500000.0 -5.013700000e-02 -9.539090000e-01
1207000000.0 -6.059500000e-02 -9.550380000e-01
1211500000.0 -5.580400000e-02 -9.605930000e-01
1216000000.0 -6.461100000e-02 -9.584770000e-01
1220500000.0 -7.235100000e-02 -9.603440000e-01
1225000000.0 -6.550000000e-02 -9.565830000e-01
1229500000.0 -7.789400000e-02 -9.601120000e-01
1234000000.0 -7.971100000e-02 -9.586380000e-01
1238500000.0 -8.996300000e-02 -9.577020000e-01
1243000000.0 -9.274000000e-02 -9.613890000e-01
1247500000.0 -9.457200000e-02 -9.590240000e-01
1252000000.0 -1.030930000e-01 -9.621390000e-01
1256500000.0 -1.053000000e-01 -9.593890000e-01
1261000000.0 -1.037160000e-01 -9.565600000e-01
1265500000.0 -1.158650000e-01 -9.551920000e-01
1270000000.0 -1.198390000e-01 -9.633540000e-01
1274500000.0 -1.186420000e-01 -9.619960000e-01
1279000000.0 -1.324170000e-01 -9.575740000e-01
1283500000.0 -1.279670000e-01 -9.560180000e-01
1288000000.0 -1.268570000e-01 -9.542480000e-01
1292500000.0 -1.386060000e-01 -9.524210000e-01
1297000000.0 -1.481950000e-01 -9.485680000e-01
1301500000.0 -1.615820000e-01 -9.553660000e-01
1306000000.0 -1.523420000e-01 -9.535790000e-01
1310500000.0 -1.552920000e-01 -9.510390000e-01
1315000000.0 -1.740740000e-01 -9.491270000e-01
1319500000.0 -1.676990000e-01 -9.486190000e-01
1324000000.0 -1.706180000e-01 -9.402680000e-01
1328500000.0 -1.878440000e-01 -9.471190000e-01
1333000000.0 -1.885330000e-01 -9.378710000e-01
1337500000.0 -1.927140000e-01 -9.433200000e-01
1342000000.0 -2.019910000e-01 -9.420380000e-01
1346500000.0 -2.071320000e-01 -9.292320000e-01
1351000000.0 -2.092170000e-01 -9.374480000e-01
1355500000.0 -2.161020000e-01 -9.363810000e-01
1360000000.0 -2.199400000e-01 -9.440670000e-01
1364500000.0 -2.241070000e-01 -9.378780000e-01
1369000000.0 -2.255950000e-01 -9.437480000e-01
1373500000.0 -2.298100000e-01 -9.434070000e-01
1378000000.0 -2.421910000e-01 -9.421800000e-01
1382500000.0 -2.412380000e-01 -9.390250000e-01
1387000000.0 -2.370930000e-01 -9.437250000e-01
1391500000.0 -2.436510000e-01 -9.417950000e-01
1396000000.0 -2.412330000e-01 -9.384980000e-01
1400500000.0 -2.618110000e-01 -9.394710000e-01
1405000000.0 -2.498820000e-01 -9.401300000e-01
1409500000.0 -2.610620000e-01 -9.454930000e-01
1414000000.0 -2.672970000e-01 -9.389100000e-01
1418500000.0 -2.676010000e-01 -9.386030000e-01
1423000000.0 -2.808160000e-01 -9.316950000e-01
1427500000.0 -2.675210000e-01 -9.415810000e-01
1432000000.0 -2.816350000e-01 -9.391420000e-01
1436500000.0 -2.796770000e-01 -9.369650000e-01
1441000000.0 -2.937280000e-01 -9.302620000e-01
1445500000.0 -2.949220000e-01 -9.358730000e-01
1450000000.0 -3.006330000e-01 -9.278500000e-01
