! piloto_corto / aire / r13
# HZ S RI R 50
50000.0 1.006896000e+00 -7.199500000e-02
59500.0 1.002979000e+00 -5.863600000e-02
69000.0 1.004380000e+00 -4.543400000e-02
78500.0 1.002321000e+00 -3.229100000e-02
88000.0 1.002317000e+00 -1.899700000e-02
97500.0 1.001038000e+00 -6.520000000e-03
107000.0 9.999220000e-01 4.663000000e-03
116500.0 1.011627000e+00 8.831400000e-02
126000.0 9.984150000e-01 2.988700000e-02
135500.0 9.944120000e-01 2.421700000e-02
145000.0 1.000605000e+00 5.315200000e-02
154500.0 1.001192000e+00 6.486300000e-02
164000.0 1.001495000e+00 7.662800000e-02
173500.0 1.001204000e+00 8.892500000e-02
183000.0 1.001749000e+00 1.008820000e-01
192500.0 1.002240000e+00 1.125750000e-01
202000.0 1.002930000e+00 1.239300000e-01
211500.0 1.002944000e+00 1.355210000e-01
221000.0 1.002458000e+00 1.464000000e-01
230500.0 1.003706000e+00 1.588020000e-01
240000.0 1.004105000e+00 1.692490000e-01
249500.0 1.004356000e+00 1.804820000e-01
259000.0 1.003846000e+00 1.910370000e-01
268500.0 1.004442000e+00 2.019580000e-01
278000.0 1.004577000e+00 2.137540000e-01
287500.0 1.005619000e+00 2.248370000e-01
297000.0 1.004795000e+00 2.346840000e-01
306500.0 1.005586000e+00 2.461170000e-01
316000.0 1.005710000e+00 2.563050000e-01
325500.0 1.005470000e+00 2.679170000e-01
335000.0 1.006574000e+00 2.780280000e-01
344500.0 1.004804000e+00 2.887180000e-01
354000.0 1.006802000e+00 2.991230000e-01
363500.0 1.006934000e+00 3.097760000e-01
373000.0 1.005626000e+00 3.188000000e-01
382500.0 1.006930000e+00 3.299970000e-01
392000.0 1.006997000e+00 3.400530000e-01
401500.0 1.006661000e+00 3.517480000e-01
411000.0 1.007119000e+00 3.612770000e-01
420500.0 1.008038000e+00 3.714130000e-01
430000.0 1.007437000e+00 3.816580000e-01
439500.0 1.007716000e+00 3.921220000e-01
449000.0 1.008727000e+00 4.023950000e-01
458500.0 1.008332000e+00 4.109820000e-01
468000.0 1.009060000e+00 4.216820000e-01
477500.0 1.009248000e+00 4.329140000e-01
487000.0 1.008800000e+00 4.410510000e-01
496500.0 1.009752000e+00 4.518090000e-01
506000.0 1.008742000e+00 4.613330000e-01
515500.0 1.010010000e+00 4.711170000e-01
525000.0 1.010456000e+00 4.814570000e-01
534500.0 1.010264000e+00 4.914930000e-01
544000.0 1.011058000e+00 5.001760000e-01
553500.0 1.011260000e+00 5.113350000e-01
563000.0 1.010893000e+00 5.200300000e-01
572500.0 1.012020000e+00 5.298930000e-01
582000.0 1.012760000e+00 5.394700000e-01
591500.0 1.012873000e+00 5.485920000e-01
601000.0 1.013067000e+00 5.585000000e-01
610500.0 1.013730000e+00 5.679190000e-01
620000.0 1.014508000e+00 5.771470000e-01
629500.0 1.015518000e+00 5.882460000e-01
639000.0 1.014956000e+00 5.984260000e-01
648500.0 1.015653000e+00 6.059040000e-01
658000.0 1.016219000e+00 6.156630000e-01
667500.0 1.017759000e+00 6.250240000e-01
677000.0 1.017059000e+00 6.332730000e-01
686500.0 1.019718000e+00 6.428070000e-01
696000.0 1.019003000e+00 6.532070000e-01
705500.0 1.020796000e+00 6.625110000e-01
715000.0 1.021862000e+00 6.711040000e-01
724500.0 1.022429000e+00 6.803830000e-01
734000.0 1.023824000e+00 6.899520000e-01
743500.0 1.023720000e+00 6.989030000e-01
753000.0 1.025619000e+00 7.080200000e-01
762500.0 1.026541000e+00 7.183130000e-01
772000.0 1.026272000e+00 7.267450000e-01
781500.0 1.028331000e+00 7.361560000e-01
791000.0 1.030020000e+00 7.457640000e-01
800500.0 1.030775000e+00 7.541610000e-01
810000.0 1.033265000e+00 7.632590000e-01
819500.0 1.032437000e+00 7.724600000e-01
829000.0 1.034262000e+00 7.822270000e-01
838500.0 1.035675000e+00 7.903210000e-01
848000.0 1.036818000e+00 7.995800000e-01
857500.0 1.039532000e+00 8.076520000e-01
867000.0 1.040842000e+00 8.164810000e-01
876500.0 1.043949000e+00 8.268320000e-01
886000.0 1.043992000e+00 8.347540000e-01
895500.0 1.046955000e+00 8.427070000e-01
905000.0 1.047916000e+00 8.519010000e-01
914500.0 1.049116000e+00 8.620510000e-01
924000.0 1.050758000e+00 8.701180000e-01
933500.0 1.054517000e+00 8.782920000e-01
943000.0 1.056694000e+00 8.881340000e-01
952500.0 1.060135000e+00 8.960450000e-01
962000.0 1.061323000e+00 9.030940000e-01
971500.0 1.062813000e+00 9.132810000e-01
981000.0 1.065763000e+00 9.225560000e-01
990500.0 1.067343000e+00 9.305650000e-01
1000000.0 1.069164000e+00 9.387250000e-01
1090000.0 1.096238000e+00 1.017560000e+00
1180000.0 1.132768000e+00 1.091747000e+00
1270000.0 1.177597000e+00 1.162296000e+00
1360000.0 1.233719000e+00 1.225448000e+00
1450000.0 1.298157000e+00 1.278087000e+00
1540000.0 1.373384000e+00 1.319165000e+00
1630000.0 1.456737000e+00 1.344713000e+00
1720000.0 1.543412000e+00 1.351954000e+00
1810000.0 1.633199000e+00 1.339419000e+00
1900000.0 1.721170000e+00 1.306381000e+00
1990000.0 1.798545000e+00 1.255299000e+00
2080000.0 1.863962000e+00 1.187590000e+00
2170000.0 1.911807000e+00 1.109568000e+00
2260000.0 1.946854000e+00 1.023036000e+00
2350000.0 1.959220000e+00 9.316640000e-01
2440000.0 1.959992000e+00 8.442620000e-01
2530000.0 1.945884000e+00 7.621550000e-01
2620000.0 1.923871000e+00 6.860760000e-01
2710000.0 1.895567000e+00 6.187120000e-01
2800000.0 1.856713000e+00 5.564980000e-01
2890000.0 1.819084000e+00 5.025600000e-01
2980000.0 1.781949000e+00 4.549880000e-01
3070000.0 1.744269000e+00 4.140880000e-01
3160000.0 1.705214000e+00 3.771970000e-01
3250000.0 1.670011000e+00 3.460030000e-01
3340000.0 1.633585000e+00 3.161460000e-01
3430000.0 1.600243000e+00 2.915770000e-01
3520000.0 1.568169000e+00 2.956790000e-01
3610000.0 1.542257000e+00 2.456280000e-01
3700000.0 1.516161000e+00 2.243170000e-01
3790000.0 1.489840000e+00 2.061090000e-01
3880000.0 1.465107000e+00 2.163550000e-01
3970000.0 1.444403000e+00 1.472210000e-01
4060000.0 1.422759000e+00 1.814340000e-01
4150000.0 1.404482000e+00 1.161340000e-01
4240000.0 1.388427000e+00 1.514150000e-01
4330000.0 1.372242000e+00 8.826500000e-02
4420000.0 1.358337000e+00 1.210790000e-01
4510000.0 1.344623000e+00 8.436800000e-02
4600000.0 1.332375000e+00 7.124600000e-02
4690000.0 1.321587000e+00 5.547700000e-02
4780000.0 1.313411000e+00 4.385800000e-02
4870000.0 1.304025000e+00 3.038400000e-02
4960000.0 1.295536000e+00 1.740400000e-02
5050000.0 1.280962000e+00 4.562000000e-03
5140000.0 1.275678000e+00 -7.641000000e-03
5230000.0 1.270917000e+00 -1.920700000e-02
5320000.0 1.266513000e+00 -3.249600000e-02
5410000.0 1.262093000e+00 -4.442100000e-02
5500000.0 1.258279000e+00 -5.626500000e-02
5590000.0 1.253457000e+00 -6.871000000e-02
5680000.0 1.250792000e+00 -7.937200000e-02
5770000.0 1.246403000e+00 -9.001200000e-02
5860000.0 1.243538000e+00 -1.025150000e-01
5950000.0 1.240083000e+00 -1.117190000e-01
6040000.0 1.238217000e+00 -1.230560000e-01
6130000.0 1.235322000e+00 -1.325790000e-01
6220000.0 1.233028000e+00 -1.414830000e-01
6310000.0 1.230486000e+00 -1.506480000e-01
6400000.0 1.228114000e+00 -1.584380000e-01
6490000.0 1.226383000e+00 -1.666060000e-01
6580000.0 1.225836000e+00 -1.740420000e-01
6670000.0 1.223745000e+00 -1.814100000e-01
6760000.0 1.221922000e+00 -1.870480000e-01
6850000.0 1.221090000e+00 -1.936920000e-01
6940000.0 1.218801000e+00 -1.973210000e-01
7030000.0 1.219274000e+00 -2.014140000e-01
7120000.0 1.218422000e+00 -2.054640000e-01
7210000.0 1.218685000e+00 -2.082010000e-01
7300000.0 1.217524000e+00 -2.092600000e-01
7390000.0 1.218136000e+00 -2.106240000e-01
7480000.0 1.216565000e+00 -2.111700000e-01
7570000.0 -2.609060000e-01 -1.257051000e+00
7660000.0 -2.612840000e-01 -1.256409000e+00
7750000.0 -2.603170000e-01 -1.257763000e+00
7840000.0 -2.582100000e-01 -1.258156000e+00
7930000.0 -2.591150000e-01 -1.258683000e+00
8020000.0 -2.580100000e-01 -1.258229000e+00
8110000.0 -2.576500000e-01 -1.260055000e+00
8200000.0 -2.575530000e-01 -1.259055000e+00
8290000.0 -2.572250000e-01 -1.259068000e+00
8380000.0 -2.561670000e-01 -1.259770000e+00
8470000.0 -2.564710000e-01 -1.259313000e+00
8560000.0 -2.546970000e-01 -1.262008000e+00
8650000.0 -2.532060000e-01 -1.262104000e+00
8740000.0 -2.545440000e-01 -1.263365000e+00
8830000.0 -2.538470000e-01 -1.261987000e+00
8920000.0 -2.521260000e-01 -1.263943000e+00
9010000.0 -2.538110000e-01 -1.263595000e+00
9100000.0 -2.520870000e-01 -1.266022000e+00
9190000.0 -2.520610000e-01 -1.265878000e+00
9280000.0 -2.513700000e-01 -1.266915000e+00
9370000.0 -2.516680000e-01 -1.266539000e+00
9460000.0 -2.502370000e-01 -1.267285000e+00
9550000.0 -2.490310000e-01 -1.269442000e+00
9640000.0 -2.493860000e-01 -1.268952000e+00
9730000.0 -2.486590000e-01 -1.270067000e+00
9820000.0 -2.479930000e-01 -1.271750000e+00
9910000.0 -2.485510000e-01 -1.272175000e+00
10000000.0 -2.479830000e-01 -1.273200000e+00
10900000.0 -2.440150000e-01 -1.281835000e+00
11800000.0 -2.407800000e-01 -1.289278000e+00
12700000.0 -2.367960000e-01 -1.299727000e+00
13600000.0 -2.324920000e-01 -1.310011000e+00
14500000.0 -2.288410000e-01 -1.321468000e+00
15400000.0 -2.251910000e-01 -1.332161000e+00
16300000.0 -2.220890000e-01 -1.343353000e+00
17200000.0 -2.171660000e-01 -1.354320000e+00
18100000.0 -2.121630000e-01 -1.366202000e+00
19000000.0 -2.077130000e-01 -1.379078000e+00
19900000.0 -2.027840000e-01 -1.391860000e+00
20800000.0 -1.978320000e-01 -1.403716000e+00
21700000.0 -1.909250000e-01 -1.417891000e+00
22600000.0 -1.852690000e-01 -1.429528000e+00
23500000.0 -1.775830000e-01 -1.442440000e+00
24400000.0 -1.712570000e-01 -1.457218000e+00
25300000.0 -1.639270000e-01 -1.470878000e+00
26200000.0 -1.571100000e-01 -1.484818000e+00
27100000.0 -1.481250000e-01 -1.499384000e+00
28000000.0 -1.383300000e-01 -1.513549000e+00
28900000.0 -1.296640000e-01 -1.528922000e+00
29800000.0 -1.213580000e-01 -1.542642000e+00
30700000.0 -1.098210000e-01 -1.558760000e+00
31600000.0 -9.929700000e-02 -1.573034000e+00
32500000.0 -8.813000000e-02 -1.586738000e+00
33400000.0 -7.624900000e-02 -1.603576000e+00
34300000.0 -6.358800000e-02 -1.619741000e+00
35200000.0 -5.060700000e-02 -1.634488000e+00
36100000.0 -3.429500000e-02 -1.650591000e+00
37000000.0 -2.312800000e-02 -1.665984000e+00
37900000.0 -7.807000000e-03 -1.681363000e+00
38800000.0 8.602000000e-03 -1.697365000e+00
39700000.0 2.527000000e-02 -1.712049000e+00
40600000.0 4.320700000e-02 -1.727416000e+00
41500000.0 5.916100000e-02 -1.742684000e+00
42400000.0 8.003400000e-02 -1.757894000e+00
43300000.0 9.870600000e-02 -1.773202000e+00
44200000.0 1.190380000e-01 -1.789817000e+00
45100000.0 1.401890000e-01 -1.802060000e+00
46000000.0 1.627250000e-01 -1.817276000e+00
46900000.0 1.868380000e-01 -1.831865000e+00
47800000.0 2.118630000e-01 -1.845549000e+00
48700000.0 2.344890000e-01 -1.856503000e+00
49600000.0 2.622040000e-01 -1.870500000e+00
50500000.0 2.878640000e-01 -1.882558000e+00
51400000.0 3.161790000e-01 -1.891869000e+00
52300000.0 3.426660000e-01 -1.903569000e+00
53200000.0 3.733800000e-01 -1.913977000e+00
54100000.0 4.028250000e-01 -1.921887000e+00
55000000.0 4.348980000e-01 -1.931132000e+00
55900000.0 4.677800000e-01 -1.938527000e+00
56800000.0 5.008910000e-01 -1.944175000e+00
57700000.0 5.339750000e-01 -1.949547000e+00
58600000.0 5.675190000e-01 -1.952456000e+00
59500000.0 6.044970000e-01 -1.953623000e+00
60400000.0 6.390000000e-01 -1.954333000e+00
61300000.0 6.753830000e-01 -1.953510000e+00
62200000.0 7.124760000e-01 -1.951767000e+00
63100000.0 7.475330000e-01 -1.948908000e+00
64000000.0 7.819710000e-01 -1.943598000e+00
64900000.0 8.232780000e-01 -1.934817000e+00
65800000.0 8.613620000e-01 -1.927899000e+00
66700000.0 8.972200000e-01 -1.917073000e+00
67600000.0 9.329630000e-01 -1.904004000e+00
68500000.0 9.721210000e-01 -1.892748000e+00
69400000.0 1.007335000e+00 -1.877127000e+00
70300000.0 1.043296000e+00 -1.857122000e+00
71200000.0 1.077787000e+00 -1.837142000e+00
72100000.0 1.112671000e+00 -1.820372000e+00
73000000.0 1.145961000e+00 -1.796993000e+00
73900000.0 1.180205000e+00 -1.774365000e+00
74800000.0 1.207290000e+00 -1.748179000e+00
75700000.0 1.238155000e+00 -1.722337000e+00
76600000.0 1.264755000e+00 -1.694036000e+00
77500000.0 1.294401000e+00 -1.664787000e+00
78400000.0 1.316956000e+00 -1.634276000e+00
79300000.0 1.343311000e+00 -1.606351000e+00
80200000.0 1.364803000e+00 -1.572919000e+00
81100000.0 1.386368000e+00 -1.541580000e+00
82000000.0 1.407034000e+00 -1.509591000e+00
82900000.0 1.422093000e+00 -1.476276000e+00
83800000.0 1.439245000e+00 -1.441982000e+00
84700000.0 1.455344000e+00 -1.408097000e+00
85600000.0 1.466697000e+00 -1.376321000e+00
86500000.0 1.476825000e+00 -1.340494000e+00
87400000.0 1.485051000e+00 -1.307129000e+00
88300000.0 1.493564000e+00 -1.274282000e+00
89200000.0 1.501302000e+00 -1.240095000e+00
90100000.0 1.507605000e+00 -1.208502000e+00
91000000.0 1.509490000e+00 -1.175335000e+00
91900000.0 1.514884000e+00 -1.141562000e+00
92800000.0 1.515648000e+00 -1.110649000e+00
93700000.0 1.515290000e+00 -1.080747000e+00
94600000.0 1.516997000e+00 -1.048113000e+00
95500000.0 1.514003000e+00 -1.021026000e+00
96400000.0 1.511751000e+00 -9.917700000e-01
97300000.0 1.507553000e+00 -9.629280000e-01
98200000.0 1.506435000e+00 -9.347930000e-01
99100000.0 1.499268000e+00 -9.078460000e-01
100000000.0 1.495560000e+00 -8.806220000e-01
109000000.0 1.414840000e+00 -6.585290000e-01
118000000.0 1.309563000e+00 -4.980060000e-01
127000000.0 1.203959000e+00 -3.832100000e-01
136000000.0 1.101888000e+00 -3.091030000e-01
145000000.0 1.010855000e+00 -2.536090000e-01
154000000.0 9.617810000e-01 -2.342610000e-01
163000000.0 9.600240000e-01 -2.471860000e-01
172000000.0 9.556180000e-01 -2.626850000e-01
181000000.0 9.528180000e-01 -2.742010000e-01
190000000.0 9.483210000e-01 -2.868780000e-01
199000000.0 9.440480000e-01 -2.996910000e-01
208000000.0 9.395970000e-01 -3.104230000e-01
217000000.0 9.343300000e-01 -3.241600000e-01
226000000.0 9.307780000e-01 -3.362180000e-01
235000000.0 9.253230000e-01 -3.490100000e-01
244000000.0 9.200700000e-01 -3.606600000e-01
253000000.0 9.138420000e-01 -3.726880000e-01
262000000.0 9.087110000e-01 -3.829230000e-01
271000000.0 9.021140000e-01 -3.946450000e-01
280000000.0 8.962900000e-01 -4.078290000e-01
289000000.0 8.891950000e-01 -4.183290000e-01
298000000.0 8.841810000e-01 -4.292760000e-01
307000000.0 8.755370000e-01 -4.424560000e-01
316000000.0 8.711910000e-01 -4.524510000e-01
325000000.0 8.664150000e-01 -4.631720000e-01
334000000.0 8.608440000e-01 -4.742910000e-01
343000000.0 8.525020000e-01 -4.870890000e-01
352000000.0 8.468300000e-01 -4.957120000e-01
361000000.0 8.653720000e-01 -4.793800000e-01
370000000.0 8.333490000e-01 -5.164750000e-01
379000000.0 8.019540000e-01 -5.511200000e-01
388000000.0 8.199690000e-01 -5.374260000e-01
397000000.0 7.679800000e-01 -5.776800000e-01
406000000.0 8.036060000e-01 -5.556850000e-01
415000000.0 7.942180000e-01 -5.651730000e-01
424000000.0 7.961000000e-01 -5.631430000e-01
433000000.0 7.741340000e-01 -5.846020000e-01
442000000.0 7.648690000e-01 -5.935150000e-01
451000000.0 7.573650000e-01 -6.022820000e-01
460000000.0 7.501310000e-01 -6.124900000e-01
469000000.0 7.441560000e-01 -6.241310000e-01
478000000.0 7.396520000e-01 -6.325440000e-01
487000000.0 7.318990000e-01 -6.445440000e-01
496000000.0 7.264380000e-01 -6.505550000e-01
505000000.0 7.173040000e-01 -6.600000000e-01
514000000.0 7.116110000e-01 -6.690130000e-01
523000000.0 7.009390000e-01 -6.775290000e-01
532000000.0 6.944370000e-01 -6.854490000e-01
541000000.0 6.864950000e-01 -6.959790000e-01
550000000.0 6.758690000e-01 -7.037770000e-01
559000000.0 6.649500000e-01 -7.118080000e-01
568000000.0 6.535920000e-01 -7.178590000e-01
577000000.0 6.446440000e-01 -7.273320000e-01
586000000.0 6.322060000e-01 -7.329670000e-01
595000000.0 6.183250000e-01 -7.404630000e-01
604000000.0 6.092160000e-01 -7.493220000e-01
613000000.0 5.971320000e-01 -7.621130000e-01
622000000.0 5.900870000e-01 -7.677360000e-01
631000000.0 5.837060000e-01 -7.751650000e-01
640000000.0 5.727020000e-01 -7.872500000e-01
649000000.0 5.636170000e-01 -7.903810000e-01
658000000.0 5.552680000e-01 -8.012920000e-01
667000000.0 5.428300000e-01 -8.077470000e-01
676000000.0 5.351710000e-01 -8.178050000e-01
685000000.0 5.246430000e-01 -8.204020000e-01
694000000.0 5.123380000e-01 -8.274720000e-01
703000000.0 4.991120000e-01 -8.302810000e-01
712000000.0 4.686540000e-01 -8.377840000e-01
721000000.0 4.772300000e-01 -8.374940000e-01
730000000.0 4.603070000e-01 -8.414940000e-01
739000000.0 4.499860000e-01 -8.425200000e-01
748000000.0 4.349880000e-01 -8.412230000e-01
757000000.0 4.235800000e-01 -8.485940000e-01
766000000.0 4.127280000e-01 -8.557280000e-01
775000000.0 3.991890000e-01 -8.629940000e-01
784000000.0 3.889310000e-01 -8.678290000e-01
793000000.0 3.783920000e-01 -8.734950000e-01
802000000.0 3.641270000e-01 -8.797590000e-01
811000000.0 3.546720000e-01 -8.840460000e-01
820000000.0 3.372440000e-01 -8.877490000e-01
829000000.0 3.336150000e-01 -8.890950000e-01
838000000.0 3.218530000e-01 -8.933840000e-01
847000000.0 3.089470000e-01 -8.950320000e-01
856000000.0 2.993290000e-01 -8.965090000e-01
865000000.0 2.899860000e-01 -8.973550000e-01
874000000.0 2.774080000e-01 -8.972800000e-01
883000000.0 2.667600000e-01 -9.008180000e-01
892000000.0 2.619260000e-01 -8.966010000e-01
901000000.0 2.538920000e-01 -8.976190000e-01
910000000.0 2.367730000e-01 -8.996850000e-01
919000000.0 2.269750000e-01 -9.013940000e-01
928000000.0 2.127090000e-01 -9.032090000e-01
937000000.0 2.020920000e-01 -9.037210000e-01
946000000.0 1.909740000e-01 -9.048300000e-01
955000000.0 1.800030000e-01 -9.048520000e-01
964000000.0 1.680080000e-01 -9.067270000e-01
973000000.0 1.609440000e-01 -9.052510000e-01
982000000.0 1.481270000e-01 -9.080450000e-01
991000000.0 1.375480000e-01 -9.096660000e-01
1000000000.0 1.258770000e-01 -9.087730000e-01
1004500000.0 1.217080000e-01 -9.089570000e-01
1009000000.0 1.150520000e-01 -9.100160000e-01
1013500000.0 1.119830000e-01 -9.092950000e-01
1018000000.0 1.044720000e-01 -9.092540000e-01
1022500000.0 9.902700000e-02 -9.101660000e-01
1027000000.0 9.851300000e-02 -9.098540000e-01
1031500000.0 9.574300000e-02 -9.093040000e-01
1036000000.0 9.159100000e-02 -9.092590000e-01
1040500000.0 7.882700000e-02 -9.102750000e-01
1045000000.0 8.091100000e-02 -9.094950000e-01
1049500000.0 7.034100000e-02 -9.107290000e-01
1054000000.0 6.602300000e-02 -9.106890000e-01
1058500000.0 6.156400000e-02 -9.108540000e-01
1063000000.0 5.873100000e-02 -9.108090000e-01
1067500000.0 5.388600000e-02 -9.097460000e-01
1072000000.0 4.784900000e-02 -9.093600000e-01
1076500000.0 4.371100000e-02 -9.081060000e-01
1081000000.0 3.373900000e-02 -9.095010000e-01
1085500000.0 2.627200000e-02 -9.098090000e-01
1090000000.0 3.188300000e-02 -9.104380000e-01
1094500000.0 2.119900000e-02 -9.082350000e-01
1099000000.0 1.791600000e-02 -9.081520000e-01
1103500000.0 1.260400000e-02 -9.083340000e-01
1108000000.0 4.484000000e-03 -9.073380000e-01
1112500000.0 -3.100000000e-05 -9.073100000e-01
1117000000.0 -3.946000000e-03 -9.049510000e-01
1121500000.0 -6.429000000e-03 -9.059380000e-01
1126000000.0 -4.500600000e-02 -8.963840000e-01
1130500000.0 -5.203000000e-02 -8.931410000e-01
1135000000.0 -6.909000000e-02 -8.832650000e-01
1139500000.0 -3.215200000e-02 -9.027070000e-01
1144000000.0 -3.937000000e-02 -9.026090000e-01
1148500000.0 -4.343300000e-02 -9.022480000e-01
1153000000.0 -4.245000000e-02 -8.978680000e-01
1157500000.0 -5.101400000e-02 -8.994010000e-01
1162000000.0 -5.857300000e-02 -8.978780000e-01
1166500000.0 -6.509200000e-02 -8.942880000e-01
1171000000.0 -6.431400000e-02 -8.972470000e-01
1175500000.0 -7.303700000e-02 -8.935800000e-01
1180000000.0 -7.829300000e-02 -8.911060000e-01
1184500000.0 -8.494700000e-02 -8.917200000e-01
1189000000.0 -9.230100000e-02 -8.858890000e-01
1193500000.0 -9.377400000e-02 -8.877050000e-01
1198000000.0 -9.712100000e-02 -8.862470000e-01
1202500000.0 -1.032230000e-01 -8.862660000e-01
1207000000.0 -1.144790000e-01 -8.846810000e-01
1211500000.0 -1.100180000e-01 -8.863080000e-01
1216000000.0 -1.239320000e-01 -8.839470000e-01
1220500000.0 -1.206160000e-01 -8.817230000e-01
1225000000.0 -1.266060000e-01 -8.773710000e-01
1229500000.0 -1.287690000e-01 -8.810130000e-01
1234000000.0 -1.361120000e-01 -8.808090000e-01
1238500000.0 -1.398480000e-01 -8.780540000e-01
1243000000.0 -1.406330000e-01 -8.773790000e-01
1247500000.0 -1.457480000e-01 -8.783530000e-01
1252000000.0 -1.531300000e-01 -8.742130000e-01
1256500000.0 -1.537460000e-01 -8.733520000e-01
1261000000.0 -1.564440000e-01 -8.768390000e-01
1265500000.0 -1.701380000e-01 -8.707210000e-01
1270000000.0 -1.651070000e-01 -8.708880000e-01
1274500000.0 -1.714610000e-01 -8.745320000e-01
1279000000.0 -1.831880000e-01 -8.676800000e-01
1283500000.0 -1.909880000e-01 -8.637720000e-01
1288000000.0 -1.878810000e-01 -8.632690000e-01
1292500000.0 -1.946280000e-01 -8.610750000e-01
1297000000.0 -1.936480000e-01 -8.558740000e-01
1301500000.0 -2.098880000e-01 -8.537580000e-01
1306000000.0 -2.072260000e-01 -8.580980000e-01
1310500000.0 -2.062140000e-01 -8.518100000e-01
1315000000.0 -2.140520000e-01 -8.497310000e-01
1319500000.0 -2.245130000e-01 -8.466820000e-01
1324000000.0 -2.304590000e-01 -8.438860000e-01
1328500000.0 -2.284430000e-01 -8.402400000e-01
1333000000.0 -2.328160000e-01 -8.374060000e-01
1337500000.0 -2.470750000e-01 -8.347240000e-01
1342000000.0 -2.471300000e-01 -8.393110000e-01
1346500000.0 -2.540440000e-01 -8.323620000e-01
1351000000.0 -2.563820000e-01 -8.296830000e-01
1355500000.0 -2.614410000e-01 -8.297550000e-01
1360000000.0 -2.528110000e-01 -8.353860000e-01
1364500000.0 -2.657500000e-01 -8.310910000e-01
1369000000.0 -2.657120000e-01 -8.340070000e-01
1373500000.0 -2.731170000e-01 -8.379620000e-01
1378000000.0 -2.809120000e-01 -8.277340000e-01
1382500000.0 -2.878890000e-01 -8.195720000e-01
1387000000.0 -2.835720000e-01 -8.223310000e-01
1391500000.0 -2.887990000e-01 -8.205710000e-01
1396000000.0 -2.947010000e-01 -8.243670000e-01
1400500000.0 -2.873790000e-01 -8.184090000e-01
1405000000.0 -2.986800000e-01 -8.205280000e-01
1409500000.0 -3.026410000e-01 -8.154060000e-01
1414000000.0 -2.997140000e-01 -8.238640000e-01
1418500000.0 -3.145880000e-01 -8.114500000e-01
1423000000.0 -3.023510000e-01 -8.128220000e-01
1427500000.0 -3.250470000e-01 -8.224410000e-01
1432000000.0 -3.203800000e-01 -8.096070000e-01
1436500000.0 -3.222380000e-01 -8.094000000e-01
1441000000.0 -3.228440000e-01 -8.024140000e-01
1445500000.0 -3.254680000e-01 -8.037600000e-01
1450000000.0 -3.433610000e-01 -7.931230000e-01
