! piloto_corto / aire / r14
# HZ S RI R 50
50000.0 1.006527000e+00 -7.267000000e-02
59500.0 1.005515000e+00 -5.837000000e-02
69000.0 1.004447000e+00 -4.710500000e-02
78500.0 1.002142000e+00 -3.268600000e-02
88000.0 1.001031000e+00 -1.963600000e-02
97500.0 9.991200000e-01 -7.089000000e-03
107000.0 9.999770000e-01 5.112000000e-03
116500.0 9.999500000e-01 1.752200000e-02
126000.0 1.001003000e+00 3.098100000e-02
135500.0 1.000151000e+00 4.210600000e-02
145000.0 1.000717000e+00 5.364900000e-02
154500.0 1.001212000e+00 6.591800000e-02
164000.0 1.001373000e+00 7.818900000e-02
173500.0 1.001743000e+00 8.894600000e-02
183000.0 1.002132000e+00 1.017280000e-01
192500.0 1.003154000e+00 1.125980000e-01
202000.0 1.002860000e+00 1.237860000e-01
211500.0 1.003473000e+00 1.349490000e-01
221000.0 1.003418000e+00 1.469010000e-01
230500.0 1.002849000e+00 1.578690000e-01
240000.0 1.004268000e+00 1.691820000e-01
249500.0 1.003772000e+00 1.806160000e-01
259000.0 1.004739000e+00 1.914110000e-01
268500.0 1.004361000e+00 2.021600000e-01
278000.0 1.004746000e+00 2.134960000e-01
287500.0 1.003965000e+00 2.245340000e-01
297000.0 1.004707000e+00 2.356130000e-01
306500.0 1.004342000e+00 2.465840000e-01
316000.0 1.005528000e+00 2.568670000e-01
325500.0 1.005226000e+00 2.670850000e-01
335000.0 1.006438000e+00 2.785710000e-01
344500.0 1.005870000e+00 2.889550000e-01
354000.0 1.006074000e+00 2.994020000e-01
363500.0 1.006366000e+00 3.098740000e-01
373000.0 1.006857000e+00 3.207500000e-01
382500.0 1.006734000e+00 3.311660000e-01
392000.0 1.007154000e+00 3.407370000e-01
401500.0 1.007096000e+00 3.514610000e-01
411000.0 1.006741000e+00 3.626660000e-01
420500.0 1.007350000e+00 3.705700000e-01
430000.0 1.007697000e+00 3.826240000e-01
439500.0 1.007322000e+00 3.919960000e-01
449000.0 1.007474000e+00 4.025730000e-01
458500.0 1.008387000e+00 4.121290000e-01
468000.0 1.008294000e+00 4.228770000e-01
477500.0 1.009264000e+00 4.330610000e-01
487000.0 1.010146000e+00 4.423780000e-01
496500.0 1.009716000e+00 4.513160000e-01
506000.0 1.009547000e+00 4.615790000e-01
515500.0 1.009831000e+00 4.726020000e-01
525000.0 1.010585000e+00 4.815730000e-01
534500.0 1.010705000e+00 4.924110000e-01
544000.0 1.011520000e+00 5.010810000e-01
553500.0 1.011596000e+00 5.108800000e-01
563000.0 1.010811000e+00 5.202340000e-01
572500.0 1.011348000e+00 5.300890000e-01
582000.0 1.012351000e+00 5.413050000e-01
591500.0 1.013196000e+00 5.502620000e-01
601000.0 1.013777000e+00 5.586970000e-01
610500.0 1.014312000e+00 5.683030000e-01
620000.0 1.014598000e+00 5.786330000e-01
629500.0 1.017395000e+00 6.207490000e-01
639000.0 1.016212000e+00 5.979010000e-01
648500.0 1.016142000e+00 6.064480000e-01
658000.0 1.017262000e+00 6.158110000e-01
667500.0 1.018350000e+00 6.254370000e-01
677000.0 1.017238000e+00 6.357910000e-01
686500.0 1.018836000e+00 6.439670000e-01
696000.0 1.020632000e+00 6.526420000e-01
705500.0 1.020591000e+00 6.637590000e-01
715000.0 1.021382000e+00 6.715970000e-01
724500.0 1.021767000e+00 6.819890000e-01
734000.0 1.023727000e+00 6.913540000e-01
743500.0 1.024345000e+00 6.992400000e-01
753000.0 1.025343000e+00 7.094270000e-01
762500.0 1.026803000e+00 7.180230000e-01
772000.0 1.026994000e+00 7.264300000e-01
781500.0 1.028009000e+00 7.364940000e-01
791000.0 1.029912000e+00 7.445990000e-01
800500.0 1.030485000e+00 7.557610000e-01
810000.0 1.032479000e+00 7.633950000e-01
819500.0 1.034317000e+00 7.709830000e-01
829000.0 1.034611000e+00 7.837850000e-01
838500.0 1.037322000e+00 7.905440000e-01
848000.0 1.037382000e+00 7.992900000e-01
857500.0 1.039764000e+00 8.084420000e-01
867000.0 1.040838000e+00 8.171000000e-01
876500.0 1.042321000e+00 8.254180000e-01
886000.0 1.044484000e+00 8.352650000e-01
895500.0 1.046955000e+00 8.441860000e-01
905000.0 1.047992000e+00 8.545670000e-01
914500.0 1.050984000e+00 8.618750000e-01
924000.0 1.051338000e+00 8.695470000e-01
933500.0 1.054571000e+00 8.798820000e-01
943000.0 1.056537000e+00 8.893350000e-01
952500.0 1.058304000e+00 8.954810000e-01
962000.0 1.059673000e+00 9.050960000e-01
971500.0 1.062908000e+00 9.132610000e-01
981000.0 1.066081000e+00 9.236330000e-01
990500.0 1.068124000e+00 9.297420000e-01
1000000.0 1.071724000e+00 9.391240000e-01
1090000.0 1.095685000e+00 1.018070000e+00
1180000.0 1.132391000e+00 1.093104000e+00
1270000.0 1.178677000e+00 1.164031000e+00
1360000.0 1.234118000e+00 1.225595000e+00
1450000.0 1.299338000e+00 1.278809000e+00
1540000.0 1.376054000e+00 1.317518000e+00
1630000.0 1.457099000e+00 1.346143000e+00
1720000.0 1.544258000e+00 1.352036000e+00
1810000.0 1.632380000e+00 1.339408000e+00
1900000.0 1.719995000e+00 1.309679000e+00
1990000.0 1.797847000e+00 1.258788000e+00
2080000.0 1.862224000e+00 1.188443000e+00
2170000.0 1.911650000e+00 1.108085000e+00
2260000.0 1.944819000e+00 1.019100000e+00
2350000.0 1.961501000e+00 9.301820000e-01
2440000.0 1.960312000e+00 8.452400000e-01
2530000.0 1.946789000e+00 7.604280000e-01
2620000.0 1.923570000e+00 6.839250000e-01
2710000.0 1.893239000e+00 6.159010000e-01
2800000.0 1.858944000e+00 5.554240000e-01
2890000.0 1.822171000e+00 5.026740000e-01
2980000.0 1.781840000e+00 4.543390000e-01
3070000.0 1.744367000e+00 4.142940000e-01
3160000.0 1.705557000e+00 3.766810000e-01
3250000.0 1.671030000e+00 3.459630000e-01
3340000.0 1.634696000e+00 3.170860000e-01
3430000.0 1.600352000e+00 2.897230000e-01
3520000.0 1.570519000e+00 2.666700000e-01
3610000.0 1.541929000e+00 2.461960000e-01
3700000.0 1.514169000e+00 2.259530000e-01
3790000.0 1.490108000e+00 2.061410000e-01
3880000.0 1.466758000e+00 1.897750000e-01
3970000.0 1.443149000e+00 1.721070000e-01
4060000.0 1.423112000e+00 1.545810000e-01
4150000.0 1.406250000e+00 1.399140000e-01
4240000.0 1.388226000e+00 1.256870000e-01
4330000.0 1.371336000e+00 1.123610000e-01
4420000.0 1.358267000e+00 9.634300000e-02
4510000.0 1.344112000e+00 8.358300000e-02
4600000.0 1.332431000e+00 6.854100000e-02
4690000.0 1.323003000e+00 5.769900000e-02
4780000.0 1.311741000e+00 4.431800000e-02
4870000.0 1.303983000e+00 2.947000000e-02
4960000.0 1.296011000e+00 1.755900000e-02
5050000.0 1.280331000e+00 4.796000000e-03
5140000.0 1.275756000e+00 -8.341000000e-03
5230000.0 1.271208000e+00 -2.058900000e-02
5320000.0 1.266600000e+00 -3.138100000e-02
5410000.0 1.262082000e+00 -4.469500000e-02
5500000.0 1.257972000e+00 -5.533300000e-02
5590000.0 1.253165000e+00 -6.805900000e-02
5680000.0 1.250535000e+00 -8.016600000e-02
5770000.0 1.246487000e+00 -9.077700000e-02
5860000.0 1.243828000e+00 -1.026230000e-01
5950000.0 1.240387000e+00 -1.108910000e-01
6040000.0 1.238434000e+00 -1.210060000e-01
6130000.0 1.235114000e+00 -1.323550000e-01
6220000.0 1.233453000e+00 -1.413960000e-01
6310000.0 1.230380000e+00 -1.501150000e-01
6400000.0 1.228429000e+00 -1.582220000e-01
6490000.0 1.227323000e+00 -1.661480000e-01
6580000.0 1.224592000e+00 -1.756260000e-01
6670000.0 1.223683000e+00 -1.806060000e-01
6760000.0 1.222899000e+00 -1.862530000e-01
6850000.0 1.220137000e+00 -1.931770000e-01
6940000.0 1.220048000e+00 -1.979230000e-01
7030000.0 1.219692000e+00 -2.019040000e-01
7120000.0 1.219990000e+00 -2.053510000e-01
7210000.0 1.218684000e+00 -2.076540000e-01
7300000.0 1.218439000e+00 -2.092000000e-01
7390000.0 1.218007000e+00 -2.109430000e-01
7480000.0 1.218660000e+00 -2.117620000e-01
7570000.0 -2.609010000e-01 -1.257759000e+00
7660000.0 -2.613350000e-01 -1.257100000e+00
7750000.0 -2.594250000e-01 -1.257159000e+00
7840000.0 -2.579590000e-01 -1.259022000e+00
7930000.0 -2.589740000e-01 -1.257809000e+00
8020000.0 -2.583480000e-01 -1.258439000e+00
8110000.0 -2.581900000e-01 -1.258910000e+00
8200000.0 -2.571580000e-01 -1.260168000e+00
8290000.0 -2.570520000e-01 -1.261127000e+00
8380000.0 -2.556550000e-01 -1.260511000e+00
8470000.0 -2.555700000e-01 -1.261389000e+00
8560000.0 -2.547290000e-01 -1.262986000e+00
8650000.0 -2.544610000e-01 -1.262380000e+00
8740000.0 -2.547410000e-01 -1.263284000e+00
8830000.0 -2.528740000e-01 -1.264166000e+00
8920000.0 -2.532860000e-01 -1.263975000e+00
9010000.0 -2.527950000e-01 -1.265426000e+00
9100000.0 -2.518580000e-01 -1.264579000e+00
9190000.0 -2.516440000e-01 -1.266167000e+00
9280000.0 -2.511080000e-01 -1.266755000e+00
9370000.0 -2.511510000e-01 -1.266329000e+00
9460000.0 -2.505930000e-01 -1.268538000e+00
9550000.0 -2.490310000e-01 -1.268468000e+00
9640000.0 -2.494220000e-01 -1.269014000e+00
9730000.0 -2.493010000e-01 -1.270550000e+00
9820000.0 -2.493560000e-01 -1.269812000e+00
9910000.0 -2.479990000e-01 -1.272525000e+00
10000000.0 -2.479590000e-01 -1.271857000e+00
10900000.0 -2.437000000e-01 -1.281038000e+00
11800000.0 -2.397530000e-01 -1.290627000e+00
12700000.0 -2.358660000e-01 -1.300014000e+00
13600000.0 -2.328840000e-01 -1.310444000e+00
14500000.0 -2.285160000e-01 -1.319992000e+00
15400000.0 -2.255620000e-01 -1.333323000e+00
16300000.0 -2.213320000e-01 -1.344546000e+00
17200000.0 -2.179280000e-01 -1.354763000e+00
18100000.0 -2.121880000e-01 -1.367557000e+00
19000000.0 -2.087190000e-01 -1.379826000e+00
19900000.0 -2.010010000e-01 -1.391340000e+00
20800000.0 -1.972230000e-01 -1.404790000e+00
21700000.0 -1.921150000e-01 -1.417539000e+00
22600000.0 -1.848480000e-01 -1.430055000e+00
23500000.0 -1.779330000e-01 -1.444548000e+00
24400000.0 -1.701980000e-01 -1.458301000e+00
25300000.0 -1.643330000e-01 -1.471093000e+00
26200000.0 -1.574810000e-01 -1.484939000e+00
27100000.0 -1.474830000e-01 -1.500016000e+00
28000000.0 -1.388250000e-01 -1.513593000e+00
28900000.0 -1.300850000e-01 -1.527860000e+00
29800000.0 -1.194410000e-01 -1.542972000e+00
30700000.0 -1.106610000e-01 -1.558314000e+00
31600000.0 -9.813000000e-02 -1.573719000e+00
32500000.0 -8.902500000e-02 -1.586708000e+00
33400000.0 -7.529700000e-02 -1.603438000e+00
34300000.0 -6.351100000e-02 -1.617517000e+00
35200000.0 -5.069500000e-02 -1.635313000e+00
36100000.0 -3.763900000e-02 -1.648846000e+00
37000000.0 -2.308600000e-02 -1.664434000e+00
37900000.0 -7.207000000e-03 -1.679928000e+00
38800000.0 8.201000000e-03 -1.696470000e+00
39700000.0 2.586000000e-02 -1.711371000e+00
40600000.0 4.161200000e-02 -1.729391000e+00
41500000.0 5.975100000e-02 -1.741955000e+00
42400000.0 7.972500000e-02 -1.757839000e+00
43300000.0 9.734400000e-02 -1.772586000e+00
44200000.0 1.174330000e-01 -1.787516000e+00
45100000.0 1.408070000e-01 -1.801965000e+00
46000000.0 1.635050000e-01 -1.817037000e+00
46900000.0 1.866280000e-01 -1.830584000e+00
47800000.0 2.094020000e-01 -1.843931000e+00
48700000.0 2.340860000e-01 -1.858016000e+00
49600000.0 2.614960000e-01 -1.870746000e+00
50500000.0 2.869950000e-01 -1.881387000e+00
51400000.0 3.158620000e-01 -1.893353000e+00
52300000.0 3.423340000e-01 -1.903080000e+00
53200000.0 3.725290000e-01 -1.914877000e+00
54100000.0 4.048840000e-01 -1.922733000e+00
55000000.0 4.372000000e-01 -1.929708000e+00
55900000.0 4.699050000e-01 -1.937556000e+00
56800000.0 4.989630000e-01 -1.944447000e+00
57700000.0 5.346220000e-01 -1.948975000e+00
58600000.0 5.675300000e-01 -1.950844000e+00
59500000.0 6.045080000e-01 -1.954145000e+00
60400000.0 6.393120000e-01 -1.954000000e+00
61300000.0 6.752090000e-01 -1.953568000e+00
62200000.0 7.115950000e-01 -1.951939000e+00
63100000.0 7.484430000e-01 -1.948285000e+00
64000000.0 7.830910000e-01 -1.942721000e+00
64900000.0 8.240430000e-01 -1.934273000e+00
65800000.0 8.606670000e-01 -1.926671000e+00
66700000.0 8.973280000e-01 -1.915577000e+00
67600000.0 9.351180000e-01 -1.903309000e+00
68500000.0 9.715560000e-01 -1.892182000e+00
69400000.0 1.006512000e+00 -1.876162000e+00
70300000.0 1.043468000e+00 -1.860126000e+00
71200000.0 1.078903000e+00 -1.838766000e+00
72100000.0 1.110527000e+00 -1.820375000e+00
73000000.0 1.144861000e+00 -1.796204000e+00
73900000.0 1.177771000e+00 -1.774656000e+00
74800000.0 1.208113000e+00 -1.748944000e+00
75700000.0 1.236771000e+00 -1.722010000e+00
76600000.0 1.265939000e+00 -1.692900000e+00
77500000.0 1.294000000e+00 -1.665682000e+00
78400000.0 1.319795000e+00 -1.635132000e+00
79300000.0 1.343474000e+00 -1.604229000e+00
80200000.0 1.365884000e+00 -1.572178000e+00
81100000.0 1.385610000e+00 -1.541341000e+00
82000000.0 1.405091000e+00 -1.507812000e+00
82900000.0 1.423697000e+00 -1.475505000e+00
83800000.0 1.440705000e+00 -1.441459000e+00
84700000.0 1.451885000e+00 -1.409280000e+00
85600000.0 1.465793000e+00 -1.374810000e+00
86500000.0 1.476232000e+00 -1.340959000e+00
87400000.0 1.489730000e+00 -1.305599000e+00
88300000.0 1.495694000e+00 -1.273879000e+00
89200000.0 1.500579000e+00 -1.239100000e+00
90100000.0 1.507276000e+00 -1.206455000e+00
91000000.0 1.512782000e+00 -1.175076000e+00
91900000.0 1.514105000e+00 -1.142312000e+00
92800000.0 1.515359000e+00 -1.113529000e+00
93700000.0 1.517176000e+00 -1.080655000e+00
94600000.0 1.516816000e+00 -1.049285000e+00
95500000.0 1.514902000e+00 -1.020517000e+00
96400000.0 1.513726000e+00 -9.901170000e-01
97300000.0 1.508992000e+00 -9.621390000e-01
98200000.0 1.506132000e+00 -9.349540000e-01
99100000.0 1.500517000e+00 -9.073370000e-01
100000000.0 1.496163000e+00 -8.801410000e-01
109000000.0 1.416010000e+00 -6.588830000e-01
118000000.0 1.311169000e+00 -4.965680000e-01
127000000.0 1.202947000e+00 -3.819960000e-01
136000000.0 1.101303000e+00 -3.099620000e-01
145000000.0 1.012084000e+00 -2.530570000e-01
154000000.0 9.629590000e-01 -2.343880000e-01
163000000.0 9.600510000e-01 -2.477980000e-01
172000000.0 9.564610000e-01 -2.612830000e-01
181000000.0 9.528950000e-01 -2.746710000e-01
190000000.0 9.488200000e-01 -2.872720000e-01
199000000.0 9.446170000e-01 -2.985520000e-01
208000000.0 9.400050000e-01 -3.112290000e-01
217000000.0 9.355590000e-01 -3.234280000e-01
226000000.0 9.291620000e-01 -3.364850000e-01
235000000.0 9.251430000e-01 -3.489910000e-01
244000000.0 9.205620000e-01 -3.609420000e-01
253000000.0 9.148780000e-01 -3.728030000e-01
262000000.0 9.083870000e-01 -3.828360000e-01
271000000.0 9.019280000e-01 -3.951100000e-01
280000000.0 8.954460000e-01 -4.071420000e-01
289000000.0 8.902980000e-01 -4.177190000e-01
298000000.0 8.832670000e-01 -4.304620000e-01
307000000.0 8.757280000e-01 -4.409860000e-01
316000000.0 8.727600000e-01 -4.507490000e-01
325000000.0 8.663310000e-01 -4.629200000e-01
334000000.0 8.583100000e-01 -4.746380000e-01
343000000.0 8.560490000e-01 -4.851810000e-01
352000000.0 8.484940000e-01 -4.944930000e-01
361000000.0 8.171830000e-01 -5.316450000e-01
370000000.0 8.341240000e-01 -5.154720000e-01
379000000.0 8.275320000e-01 -5.255590000e-01
388000000.0 8.191290000e-01 -5.379090000e-01
397000000.0 8.002610000e-01 -5.610920000e-01
406000000.0 8.035060000e-01 -5.567110000e-01
415000000.0 7.951920000e-01 -5.665820000e-01
424000000.0 7.844570000e-01 -5.752950000e-01
433000000.0 7.742250000e-01 -5.847300000e-01
442000000.0 7.677200000e-01 -5.945840000e-01
451000000.0 7.571770000e-01 -6.063190000e-01
460000000.0 7.519670000e-01 -6.144640000e-01
469000000.0 7.439440000e-01 -6.245070000e-01
478000000.0 7.403780000e-01 -6.327010000e-01
487000000.0 7.333810000e-01 -6.424180000e-01
496000000.0 7.274250000e-01 -6.501760000e-01
505000000.0 7.157100000e-01 -6.606950000e-01
514000000.0 7.122970000e-01 -6.686780000e-01
523000000.0 7.024060000e-01 -6.791590000e-01
532000000.0 6.940560000e-01 -6.848850000e-01
541000000.0 6.848320000e-01 -6.962900000e-01
550000000.0 6.743140000e-01 -7.038510000e-01
559000000.0 6.619470000e-01 -7.103730000e-01
568000000.0 6.534570000e-01 -7.212900000e-01
577000000.0 6.432580000e-01 -7.277510000e-01
586000000.0 6.297270000e-01 -7.355200000e-01
595000000.0 6.187970000e-01 -7.419590000e-01
604000000.0 6.126180000e-01 -7.494240000e-01
613000000.0 6.013560000e-01 -7.553100000e-01
622000000.0 5.944440000e-01 -7.699280000e-01
631000000.0 5.857890000e-01 -7.769520000e-01
640000000.0 5.734180000e-01 -7.871370000e-01
649000000.0 5.658020000e-01 -7.943550000e-01
658000000.0 5.566180000e-01 -8.020580000e-01
667000000.0 5.459030000e-01 -8.089760000e-01
676000000.0 5.338560000e-01 -8.168070000e-01
685000000.0 5.226040000e-01 -8.217900000e-01
694000000.0 5.108840000e-01 -8.251640000e-01
703000000.0 5.057740000e-01 -8.330170000e-01
712000000.0 4.838640000e-01 -8.341110000e-01
721000000.0 4.771160000e-01 -8.369820000e-01
730000000.0 4.622980000e-01 -8.402420000e-01
739000000.0 4.519390000e-01 -8.404970000e-01
748000000.0 4.365550000e-01 -8.414660000e-01
757000000.0 4.242810000e-01 -8.463520000e-01
766000000.0 4.120430000e-01 -8.554400000e-01
775000000.0 3.996800000e-01 -8.617140000e-01
784000000.0 3.865660000e-01 -8.692370000e-01
793000000.0 3.774270000e-01 -8.740830000e-01
802000000.0 3.633380000e-01 -8.794360000e-01
811000000.0 3.529360000e-01 -8.840080000e-01
820000000.0 3.410140000e-01 -8.866770000e-01
829000000.0 3.309660000e-01 -8.882370000e-01
838000000.0 3.210050000e-01 -8.923970000e-01
847000000.0 3.080110000e-01 -8.959630000e-01
856000000.0 2.978950000e-01 -8.975200000e-01
865000000.0 2.854200000e-01 -8.989160000e-01
874000000.0 2.772060000e-01 -8.968300000e-01
883000000.0 2.686050000e-01 -8.983900000e-01
892000000.0 2.596470000e-01 -9.005000000e-01
901000000.0 2.485480000e-01 -8.993500000e-01
910000000.0 2.330260000e-01 -9.008650000e-01
919000000.0 2.266350000e-01 -9.023380000e-01
928000000.0 2.136030000e-01 -9.036210000e-01
937000000.0 2.004320000e-01 -9.043720000e-01
946000000.0 1.888020000e-01 -9.052560000e-01
955000000.0 1.808720000e-01 -9.053400000e-01
964000000.0 1.679430000e-01 -9.070680000e-01
973000000.0 1.539510000e-01 -9.088510000e-01
982000000.0 1.475650000e-01 -9.095730000e-01
991000000.0 1.376250000e-01 -9.084440000e-01
1000000000.0 1.291460000e-01 -9.098890000e-01
1004500000.0 1.199470000e-01 -9.096270000e-01
1009000000.0 1.195050000e-01 -9.101370000e-01
1013500000.0 1.080040000e-01 -9.103410000e-01
1018000000.0 1.064970000e-01 -9.104090000e-01
1022500000.0 1.007800000e-01 -9.103030000e-01
1027000000.0 9.693000000e-02 -9.119590000e-01
1031500000.0 9.236600000e-02 -9.096690000e-01
1036000000.0 8.913400000e-02 -9.092850000e-01
1040500000.0 8.058400000e-02 -9.106020000e-01
1045000000.0 7.809300000e-02 -9.096110000e-01
1049500000.0 6.762700000e-02 -9.118970000e-01
1054000000.0 6.368600000e-02 -9.110290000e-01
1058500000.0 6.259100000e-02 -9.109320000e-01
1063000000.0 5.479000000e-02 -9.106470000e-01
1067500000.0 5.460600000e-02 -9.107750000e-01
1072000000.0 4.431200000e-02 -9.094840000e-01
1076500000.0 4.290400000e-02 -9.099290000e-01
1081000000.0 3.822900000e-02 -9.087350000e-01
1085500000.0 3.193100000e-02 -9.094600000e-01
1090000000.0 2.606000000e-02 -9.060500000e-01
1094500000.0 2.975300000e-02 -9.098100000e-01
1099000000.0 1.624900000e-02 -9.096640000e-01
1103500000.0 1.123000000e-02 -9.063550000e-01
1108000000.0 8.522000000e-03 -9.087280000e-01
1112500000.0 -3.330000000e-04 -9.075960000e-01
1117000000.0 -5.306000000e-03 -9.051930000e-01
1121500000.0 -9.809000000e-03 -9.071570000e-01
1126000000.0 -1.340700000e-02 -9.077900000e-01
1130500000.0 1.292000000e-02 -9.140930000e-01
1135000000.0 -2.900200000e-02 -9.048870000e-01
1139500000.0 -4.368700000e-02 -8.986840000e-01
1144000000.0 -4.036100000e-02 -9.041000000e-01
1148500000.0 -4.608000000e-03 -9.121390000e-01
1153000000.0 -4.424300000e-02 -9.012790000e-01
1157500000.0 -8.790600000e-02 -8.880460000e-01
1162000000.0 -2.390300000e-02 -9.090520000e-01
1166500000.0 -6.092400000e-02 -8.973300000e-01
1171000000.0 -6.896800000e-02 -8.965690000e-01
1175500000.0 -7.491900000e-02 -8.930580000e-01
1180000000.0 -7.841000000e-02 -8.919380000e-01
1184500000.0 -8.530700000e-02 -8.907630000e-01
1189000000.0 -8.618200000e-02 -8.951450000e-01
1193500000.0 -9.714600000e-02 -8.925090000e-01
1198000000.0 -1.017090000e-01 -8.858250000e-01
1202500000.0 -1.008880000e-01 -8.903000000e-01
1207000000.0 -1.072000000e-01 -8.887790000e-01
1211500000.0 -1.108780000e-01 -8.852460000e-01
1216000000.0 -1.142690000e-01 -8.890470000e-01
1220500000.0 -1.216150000e-01 -8.820510000e-01
1225000000.0 -1.262730000e-01 -8.831360000e-01
1229500000.0 -1.293440000e-01 -8.852170000e-01
1234000000.0 -1.315170000e-01 -8.825890000e-01
1238500000.0 -1.345090000e-01 -8.821360000e-01
1243000000.0 -1.379390000e-01 -8.856190000e-01
1247500000.0 -1.450460000e-01 -8.789250000e-01
1252000000.0 -1.533550000e-01 -8.843990000e-01
1256500000.0 -1.516570000e-01 -8.789410000e-01
1261000000.0 -1.576570000e-01 -8.730540000e-01
1265500000.0 -1.617290000e-01 -8.754430000e-01
1270000000.0 -1.671160000e-01 -8.740160000e-01
1274500000.0 -1.674120000e-01 -8.715900000e-01
1279000000.0 -1.783110000e-01 -8.691980000e-01
1283500000.0 -1.859220000e-01 -8.658990000e-01
1288000000.0 -1.914660000e-01 -8.648620000e-01
1292500000.0 -1.940140000e-01 -8.644540000e-01
1297000000.0 -1.955480000e-01 -8.570440000e-01
1301500000.0 -2.021210000e-01 -8.545620000e-01
1306000000.0 -2.759400000e-01 -8.119740000e-01
1310500000.0 -2.052660000e-01 -8.532330000e-01
1315000000.0 -1.954360000e-01 -8.591290000e-01
1319500000.0 -2.199040000e-01 -8.512140000e-01
1324000000.0 -2.400430000e-01 -8.455100000e-01
1328500000.0 -2.322770000e-01 -8.442400000e-01
1333000000.0 -2.207160000e-01 -8.544100000e-01
1337500000.0 -2.451510000e-01 -8.391410000e-01
1342000000.0 -2.582310000e-01 -8.353520000e-01
1346500000.0 -2.551450000e-01 -8.394410000e-01
1351000000.0 -2.402020000e-01 -8.443200000e-01
1355500000.0 -2.537840000e-01 -8.338820000e-01
1360000000.0 -2.542980000e-01 -8.313280000e-01
1364500000.0 -2.642470000e-01 -8.295500000e-01
1369000000.0 -2.757740000e-01 -8.318980000e-01
1373500000.0 -2.745990000e-01 -8.400880000e-01
1378000000.0 -2.675730000e-01 -8.349600000e-01
1382500000.0 -2.766030000e-01 -8.350220000e-01
1387000000.0 -2.860890000e-01 -8.251240000e-01
1391500000.0 -2.838550000e-01 -8.270760000e-01
1396000000.0 -2.932330000e-01 -8.231010000e-01
1400500000.0 -3.011260000e-01 -8.204790000e-01
1405000000.0 -2.954970000e-01 -8.282480000e-01
1409500000.0 -2.992110000e-01 -8.221250000e-01
1414000000.0 -3.110420000e-01 -8.217890000e-01
1418500000.0 -3.017940000e-01 -8.205590000e-01
1423000000.0 -3.072590000e-01 -8.090900000e-01
1427500000.0 -3.165500000e-01 -8.177430000e-01
1432000000.0 -3.187880000e-01 -8.142190000e-01
1436500000.0 -3.154700000e-01 -8.112490000e-01
1441000000.0 -3.244630000e-01 -8.050300000e-01
1445500000.0 -3.228160000e-01 -8.140250000e-01
1450000000.0 -3.316520000e-01 -8.032010000e-01
