! piloto_corto / corto_cobre / r07
# HZ S RI R 50
50000.0 1.006237000e+00 -7.234300000e-02
59500.0 1.004453000e+00 -6.012200000e-02
69000.0 1.004400000e+00 -4.752600000e-02
78500.0 1.002382000e+00 -3.346800000e-02
88000.0 1.001586000e+00 -2.123200000e-02
97500.0 1.000607000e+00 -8.581000000e-03
107000.0 1.000017000e+00 4.063000000e-03
116500.0 1.000029000e+00 1.549200000e-02
126000.0 9.978590000e-01 2.789900000e-02
135500.0 1.000177000e+00 4.055000000e-02
145000.0 1.000601000e+00 5.268100000e-02
154500.0 1.000834000e+00 6.444700000e-02
164000.0 1.001135000e+00 7.595300000e-02
173500.0 1.002011000e+00 8.765400000e-02
183000.0 1.001728000e+00 9.837400000e-02
192500.0 1.002591000e+00 1.106170000e-01
202000.0 1.003101000e+00 1.234290000e-01
211500.0 1.002401000e+00 1.331840000e-01
221000.0 1.002993000e+00 1.450390000e-01
230500.0 1.002648000e+00 1.558130000e-01
240000.0 1.003851000e+00 1.671640000e-01
249500.0 1.003231000e+00 1.784310000e-01
259000.0 1.003389000e+00 1.891700000e-01
268500.0 1.004261000e+00 1.994680000e-01
278000.0 1.004513000e+00 2.113890000e-01
287500.0 1.004522000e+00 2.224930000e-01
297000.0 1.004863000e+00 2.332090000e-01
306500.0 1.003611000e+00 2.435750000e-01
316000.0 1.005015000e+00 2.548840000e-01
325500.0 1.004729000e+00 2.645570000e-01
335000.0 1.004471000e+00 2.750320000e-01
344500.0 1.004419000e+00 2.857630000e-01
354000.0 1.005870000e+00 2.958360000e-01
363500.0 1.005600000e+00 3.072510000e-01
373000.0 1.005085000e+00 3.176040000e-01
382500.0 1.005896000e+00 3.274180000e-01
392000.0 1.006042000e+00 3.380860000e-01
401500.0 1.006405000e+00 3.483210000e-01
411000.0 1.006431000e+00 3.588720000e-01
420500.0 1.006322000e+00 3.693450000e-01
430000.0 1.006669000e+00 3.791050000e-01
439500.0 1.006762000e+00 3.885560000e-01
449000.0 1.008215000e+00 3.997320000e-01
458500.0 1.008023000e+00 4.090020000e-01
468000.0 1.007745000e+00 4.181330000e-01
477500.0 1.008090000e+00 4.282530000e-01
487000.0 1.007689000e+00 4.389700000e-01
496500.0 1.008697000e+00 4.483010000e-01
506000.0 1.008574000e+00 4.582900000e-01
515500.0 1.008553000e+00 4.684100000e-01
525000.0 1.009473000e+00 4.774280000e-01
534500.0 1.010255000e+00 4.871560000e-01
544000.0 1.009885000e+00 4.975040000e-01
553500.0 1.010956000e+00 5.063310000e-01
563000.0 1.010604000e+00 5.162000000e-01
572500.0 1.011281000e+00 5.249750000e-01
582000.0 1.011650000e+00 5.352800000e-01
591500.0 1.012019000e+00 5.450580000e-01
601000.0 1.012441000e+00 5.543520000e-01
610500.0 1.012007000e+00 5.639870000e-01
620000.0 1.012323000e+00 5.743410000e-01
629500.0 1.013092000e+00 5.836320000e-01
639000.0 1.013403000e+00 5.911110000e-01
648500.0 1.014831000e+00 6.003200000e-01
658000.0 1.015085000e+00 6.109430000e-01
667500.0 1.016186000e+00 6.202170000e-01
677000.0 1.016832000e+00 6.293630000e-01
686500.0 1.016355000e+00 6.394880000e-01
696000.0 1.018942000e+00 6.473130000e-01
705500.0 1.018296000e+00 6.575610000e-01
715000.0 1.019443000e+00 6.658750000e-01
724500.0 1.020269000e+00 6.758260000e-01
734000.0 1.020848000e+00 6.844570000e-01
743500.0 1.021572000e+00 6.944210000e-01
753000.0 1.022432000e+00 7.038750000e-01
762500.0 1.023878000e+00 7.130420000e-01
772000.0 1.025473000e+00 7.211630000e-01
781500.0 1.025836000e+00 7.306480000e-01
791000.0 1.027763000e+00 7.398370000e-01
800500.0 1.029218000e+00 7.482870000e-01
810000.0 1.027181000e+00 7.251720000e-01
819500.0 1.030742000e+00 7.678770000e-01
829000.0 1.032809000e+00 7.741180000e-01
838500.0 1.033784000e+00 7.835140000e-01
848000.0 1.035132000e+00 7.928210000e-01
857500.0 1.037074000e+00 8.029140000e-01
867000.0 1.036167000e+00 8.115740000e-01
876500.0 1.039010000e+00 8.187830000e-01
886000.0 1.041616000e+00 8.289520000e-01
895500.0 1.042782000e+00 8.366130000e-01
905000.0 1.043837000e+00 8.469780000e-01
914500.0 1.045956000e+00 8.557880000e-01
924000.0 1.048934000e+00 8.640680000e-01
933500.0 1.050452000e+00 8.713620000e-01
943000.0 1.052734000e+00 8.804480000e-01
952500.0 1.053317000e+00 8.898340000e-01
962000.0 1.055964000e+00 8.977930000e-01
971500.0 1.058849000e+00 9.069960000e-01
981000.0 1.061705000e+00 9.145730000e-01
990500.0 1.063605000e+00 9.230630000e-01
1000000.0 1.063954000e+00 9.312050000e-01
1090000.0 1.088547000e+00 1.010914000e+00
1180000.0 1.126929000e+00 1.084755000e+00
1270000.0 1.169228000e+00 1.155559000e+00
1360000.0 1.224755000e+00 1.216527000e+00
1450000.0 1.286963000e+00 1.273121000e+00
1540000.0 1.360778000e+00 1.313007000e+00
1630000.0 1.441113000e+00 1.340201000e+00
1720000.0 1.526634000e+00 1.349736000e+00
1810000.0 1.614430000e+00 1.341979000e+00
1900000.0 1.703280000e+00 1.312802000e+00
1990000.0 1.780245000e+00 1.264765000e+00
2080000.0 1.848078000e+00 1.201011000e+00
2170000.0 1.899746000e+00 1.121200000e+00
2260000.0 1.934626000e+00 1.039064000e+00
2350000.0 1.954611000e+00 9.487870000e-01
2440000.0 1.956874000e+00 8.608120000e-01
2530000.0 1.948375000e+00 7.761730000e-01
2620000.0 1.923817000e+00 6.979720000e-01
2710000.0 1.896142000e+00 6.286920000e-01
2800000.0 1.861774000e+00 5.668470000e-01
2890000.0 1.826956000e+00 5.109450000e-01
2980000.0 1.788895000e+00 4.633790000e-01
3070000.0 1.751385000e+00 4.205720000e-01
3160000.0 1.719732000e+00 3.368940000e-01
3250000.0 1.676490000e+00 3.484870000e-01
3340000.0 1.641897000e+00 3.177090000e-01
3430000.0 1.608584000e+00 2.919670000e-01
3520000.0 1.578673000e+00 2.678510000e-01
3610000.0 1.547082000e+00 2.429310000e-01
3700000.0 1.520928000e+00 2.256710000e-01
3790000.0 1.494002000e+00 2.063860000e-01
3880000.0 1.471407000e+00 1.892340000e-01
3970000.0 1.448965000e+00 1.689770000e-01
4060000.0 1.428131000e+00 1.532050000e-01
4150000.0 1.407793000e+00 1.392980000e-01
4240000.0 1.391851000e+00 1.245330000e-01
4330000.0 1.376105000e+00 1.088630000e-01
4420000.0 1.360438000e+00 9.521200000e-02
4510000.0 1.348289000e+00 8.009200000e-02
4600000.0 1.335068000e+00 6.744200000e-02
4690000.0 1.324644000e+00 5.399100000e-02
4780000.0 1.314760000e+00 4.002200000e-02
4870000.0 1.306159000e+00 2.680100000e-02
4960000.0 1.298666000e+00 1.325500000e-02
5050000.0 1.282968000e+00 1.216000000e-03
5140000.0 1.277309000e+00 -1.026200000e-02
5230000.0 1.273529000e+00 -2.342700000e-02
5320000.0 1.266601000e+00 -3.642100000e-02
5410000.0 1.262587000e+00 -4.709800000e-02
5500000.0 1.259392000e+00 -5.917200000e-02
5590000.0 1.254505000e+00 -7.115000000e-02
5680000.0 1.251227000e+00 -8.309000000e-02
5770000.0 1.248746000e+00 -9.413700000e-02
5860000.0 1.244798000e+00 -1.061680000e-01
5950000.0 1.241863000e+00 -1.169370000e-01
6040000.0 1.239433000e+00 -1.266000000e-01
6130000.0 1.235398000e+00 -1.346310000e-01
6220000.0 1.233975000e+00 -1.454230000e-01
6310000.0 1.230206000e+00 -1.533370000e-01
6400000.0 1.228363000e+00 -1.626850000e-01
6490000.0 1.227566000e+00 -1.706990000e-01
6580000.0 1.225316000e+00 -1.777210000e-01
6670000.0 1.223283000e+00 -1.853650000e-01
6760000.0 1.222634000e+00 -1.916350000e-01
6850000.0 1.221350000e+00 -1.981670000e-01
6940000.0 1.220287000e+00 -2.023720000e-01
7030000.0 1.219037000e+00 -2.055770000e-01
7120000.0 1.219072000e+00 -2.090180000e-01
7210000.0 1.218305000e+00 -2.125100000e-01
7300000.0 1.218011000e+00 -2.150040000e-01
7390000.0 1.217397000e+00 -2.146530000e-01
7480000.0 1.218670000e+00 -2.143700000e-01
7570000.0 -2.649230000e-01 -1.256695000e+00
7660000.0 -2.656150000e-01 -1.257212000e+00
7750000.0 -2.651790000e-01 -1.257288000e+00
7840000.0 -2.637110000e-01 -1.256894000e+00
7930000.0 -2.628270000e-01 -1.258755000e+00
8020000.0 -2.630330000e-01 -1.258127000e+00
8110000.0 -2.612200000e-01 -1.258387000e+00
8200000.0 -2.616190000e-01 -1.259516000e+00
8290000.0 -2.617530000e-01 -1.259939000e+00
8380000.0 -2.614930000e-01 -1.260025000e+00
8470000.0 -2.613430000e-01 -1.260663000e+00
8560000.0 -2.604470000e-01 -1.260558000e+00
8650000.0 -2.590130000e-01 -1.261865000e+00
8740000.0 -2.587710000e-01 -1.262827000e+00
8830000.0 -2.580500000e-01 -1.262791000e+00
8920000.0 -2.583240000e-01 -1.264197000e+00
9010000.0 -2.581320000e-01 -1.263271000e+00
9100000.0 -2.575980000e-01 -1.264902000e+00
9190000.0 -2.586190000e-01 -1.266022000e+00
9280000.0 -2.573790000e-01 -1.266351000e+00
9370000.0 -2.582020000e-01 -1.268040000e+00
9460000.0 -2.554190000e-01 -1.267279000e+00
9550000.0 -2.559590000e-01 -1.268275000e+00
9640000.0 -2.553070000e-01 -1.268960000e+00
9730000.0 -2.549760000e-01 -1.269310000e+00
9820000.0 -2.537420000e-01 -1.270751000e+00
9910000.0 -2.532970000e-01 -1.271650000e+00
10000000.0 -2.529640000e-01 -1.272095000e+00
10900000.0 -2.505290000e-01 -1.280409000e+00
11800000.0 -2.471560000e-01 -1.288671000e+00
12700000.0 -2.429680000e-01 -1.299657000e+00
13600000.0 -2.408670000e-01 -1.309100000e+00
14500000.0 -2.379500000e-01 -1.319623000e+00
15400000.0 -2.332450000e-01 -1.330829000e+00
16300000.0 -2.303150000e-01 -1.342815000e+00
17200000.0 -2.268340000e-01 -1.354355000e+00
18100000.0 -2.238560000e-01 -1.365783000e+00
19000000.0 -2.191630000e-01 -1.378664000e+00
19900000.0 -2.125180000e-01 -1.390864000e+00
20800000.0 -2.088980000e-01 -1.402849000e+00
21700000.0 -2.032860000e-01 -1.416165000e+00
22600000.0 -1.985500000e-01 -1.428411000e+00
23500000.0 -1.918560000e-01 -1.442416000e+00
24400000.0 -1.851900000e-01 -1.456298000e+00
25300000.0 -1.801110000e-01 -1.469580000e+00
26200000.0 -1.704860000e-01 -1.483110000e+00
27100000.0 -1.646710000e-01 -1.498562000e+00
28000000.0 -1.571890000e-01 -1.513209000e+00
28900000.0 -1.471540000e-01 -1.529170000e+00
29800000.0 -5.420100000e-02 -1.562246000e+00
30700000.0 -1.283710000e-01 -1.557825000e+00
31600000.0 -1.189870000e-01 -1.572031000e+00
32500000.0 -1.076580000e-01 -1.587568000e+00
33400000.0 -9.613200000e-02 -1.603164000e+00
34300000.0 -8.418800000e-02 -1.617427000e+00
35200000.0 -7.238700000e-02 -1.634114000e+00
36100000.0 -5.914300000e-02 -1.650626000e+00
37000000.0 -4.622700000e-02 -1.665716000e+00
37900000.0 -3.245300000e-02 -1.680386000e+00
38800000.0 -1.676100000e-02 -1.698337000e+00
39700000.0 -8.980000000e-04 -1.711246000e+00
40600000.0 1.502900000e-02 -1.728823000e+00
41500000.0 3.099000000e-02 -1.744300000e+00
42400000.0 5.177400000e-02 -1.759435000e+00
43300000.0 6.969000000e-02 -1.775043000e+00
44200000.0 8.934000000e-02 -1.790014000e+00
45100000.0 1.093890000e-01 -1.804713000e+00
46000000.0 1.309000000e-01 -1.819173000e+00
46900000.0 1.520910000e-01 -1.833619000e+00
47800000.0 1.771670000e-01 -1.849172000e+00
48700000.0 2.013480000e-01 -1.860106000e+00
49600000.0 2.267050000e-01 -1.874298000e+00
50500000.0 2.527430000e-01 -1.887728000e+00
51400000.0 2.793360000e-01 -1.900020000e+00
52300000.0 3.065650000e-01 -1.911109000e+00
53200000.0 3.349570000e-01 -1.922163000e+00
54100000.0 3.675670000e-01 -1.930358000e+00
55000000.0 3.958300000e-01 -1.939749000e+00
55900000.0 4.289770000e-01 -1.948377000e+00
56800000.0 4.598650000e-01 -1.954737000e+00
57700000.0 4.913290000e-01 -1.960657000e+00
58600000.0 5.267680000e-01 -1.963999000e+00
59500000.0 5.614330000e-01 -1.967106000e+00
60400000.0 5.966880000e-01 -1.967694000e+00
61300000.0 6.345200000e-01 -1.969034000e+00
62200000.0 6.687910000e-01 -1.968723000e+00
63100000.0 7.072260000e-01 -1.966113000e+00
64000000.0 7.441040000e-01 -1.961806000e+00
64900000.0 7.794490000e-01 -1.957240000e+00
65800000.0 8.175240000e-01 -1.949789000e+00
66700000.0 8.525990000e-01 -1.940192000e+00
67600000.0 8.886380000e-01 -1.930723000e+00
68500000.0 9.235520000e-01 -1.914738000e+00
69400000.0 9.586960000e-01 -1.901939000e+00
70300000.0 9.984890000e-01 -1.884891000e+00
71200000.0 1.032868000e+00 -1.867810000e+00
72100000.0 1.068551000e+00 -1.849416000e+00
73000000.0 1.100462000e+00 -1.826918000e+00
73900000.0 1.133851000e+00 -1.805073000e+00
74800000.0 1.164047000e+00 -1.780594000e+00
75700000.0 1.194368000e+00 -1.756825000e+00
76600000.0 1.220542000e+00 -1.731439000e+00
77500000.0 1.250949000e+00 -1.701713000e+00
78400000.0 1.274730000e+00 -1.673567000e+00
79300000.0 1.301736000e+00 -1.643019000e+00
80200000.0 1.327156000e+00 -1.610365000e+00
81100000.0 1.347227000e+00 -1.581866000e+00
82000000.0 1.364532000e+00 -1.548387000e+00
82900000.0 1.383768000e+00 -1.516354000e+00
83800000.0 1.399776000e+00 -1.483437000e+00
84700000.0 1.414079000e+00 -1.452150000e+00
85600000.0 1.431625000e+00 -1.418392000e+00
86500000.0 1.440597000e+00 -1.385361000e+00
87400000.0 1.451695000e+00 -1.351288000e+00
88300000.0 1.461343000e+00 -1.318233000e+00
89200000.0 1.469729000e+00 -1.285492000e+00
90100000.0 1.473749000e+00 -1.254586000e+00
91000000.0 1.477155000e+00 -1.222183000e+00
91900000.0 1.483465000e+00 -1.190450000e+00
92800000.0 1.484153000e+00 -1.160323000e+00
93700000.0 1.485145000e+00 -1.130413000e+00
94600000.0 1.486233000e+00 -1.100186000e+00
95500000.0 1.485336000e+00 -1.070248000e+00
96400000.0 1.482945000e+00 -1.039897000e+00
97300000.0 1.481444000e+00 -1.013234000e+00
98200000.0 1.478415000e+00 -9.853110000e-01
99100000.0 1.473450000e+00 -9.599170000e-01
100000000.0 1.467465000e+00 -9.332330000e-01
109000000.0 1.394914000e+00 -7.075380000e-01
118000000.0 1.293629000e+00 -5.442760000e-01
127000000.0 1.190401000e+00 -4.288660000e-01
136000000.0 1.091022000e+00 -3.507080000e-01
145000000.0 1.000795000e+00 -2.926160000e-01
154000000.0 9.528570000e-01 -2.748390000e-01
163000000.0 9.478890000e-01 -2.931160000e-01
172000000.0 9.411600000e-01 -3.097610000e-01
181000000.0 9.362840000e-01 -3.271160000e-01
190000000.0 9.309610000e-01 -3.430350000e-01
199000000.0 9.251900000e-01 -3.575940000e-01
208000000.0 9.191240000e-01 -3.733020000e-01
217000000.0 9.124370000e-01 -3.874250000e-01
226000000.0 9.055490000e-01 -4.001980000e-01
235000000.0 8.995190000e-01 -4.121910000e-01
244000000.0 8.923280000e-01 -4.264000000e-01
253000000.0 8.857390000e-01 -4.390570000e-01
262000000.0 8.782550000e-01 -4.525750000e-01
271000000.0 8.686430000e-01 -4.675910000e-01
280000000.0 8.604880000e-01 -4.798250000e-01
289000000.0 8.525490000e-01 -4.936300000e-01
298000000.0 8.432680000e-01 -5.066290000e-01
307000000.0 8.361960000e-01 -5.195490000e-01
316000000.0 8.284730000e-01 -5.309920000e-01
325000000.0 8.208250000e-01 -5.434220000e-01
334000000.0 8.147490000e-01 -5.539780000e-01
343000000.0 8.070690000e-01 -5.656250000e-01
352000000.0 7.975430000e-01 -5.773550000e-01
361000000.0 7.893210000e-01 -5.883750000e-01
370000000.0 7.799750000e-01 -6.013610000e-01
379000000.0 7.708680000e-01 -6.121650000e-01
388000000.0 7.484490000e-01 -6.363710000e-01
397000000.0 7.508080000e-01 -6.348100000e-01
406000000.0 7.412070000e-01 -6.452980000e-01
415000000.0 7.176880000e-01 -6.646600000e-01
424000000.0 7.191650000e-01 -6.650740000e-01
433000000.0 7.076300000e-01 -6.759840000e-01
442000000.0 6.939800000e-01 -6.845190000e-01
451000000.0 6.828280000e-01 -6.968450000e-01
460000000.0 6.723740000e-01 -7.081330000e-01
469000000.0 6.634550000e-01 -7.210670000e-01
478000000.0 6.546360000e-01 -7.305910000e-01
487000000.0 6.446380000e-01 -7.423470000e-01
496000000.0 6.372670000e-01 -7.510790000e-01
505000000.0 6.280710000e-01 -7.599270000e-01
514000000.0 6.164480000e-01 -7.679930000e-01
523000000.0 6.070190000e-01 -7.794050000e-01
532000000.0 5.967570000e-01 -7.880190000e-01
541000000.0 5.840850000e-01 -7.974820000e-01
550000000.0 5.712220000e-01 -8.082050000e-01
559000000.0 5.579310000e-01 -8.150670000e-01
568000000.0 5.435360000e-01 -8.207110000e-01
577000000.0 5.336580000e-01 -8.252510000e-01
586000000.0 5.191550000e-01 -8.333620000e-01
595000000.0 5.072640000e-01 -8.365190000e-01
604000000.0 4.941430000e-01 -8.443890000e-01
613000000.0 4.851510000e-01 -8.533130000e-01
622000000.0 4.727110000e-01 -8.671400000e-01
631000000.0 4.610950000e-01 -8.748360000e-01
640000000.0 4.507270000e-01 -8.832120000e-01
649000000.0 4.432820000e-01 -8.915710000e-01
658000000.0 4.291100000e-01 -8.939340000e-01
667000000.0 4.181990000e-01 -9.044540000e-01
676000000.0 4.033390000e-01 -9.088940000e-01
685000000.0 3.893470000e-01 -9.114180000e-01
694000000.0 3.808130000e-01 -9.190630000e-01
703000000.0 4.763160000e-01 -1.013274000e+00
712000000.0 3.464030000e-01 -9.235420000e-01
721000000.0 3.311770000e-01 -9.274910000e-01
730000000.0 3.200730000e-01 -9.282610000e-01
739000000.0 3.073440000e-01 -9.274140000e-01
748000000.0 2.944380000e-01 -9.248660000e-01
757000000.0 2.798580000e-01 -9.293490000e-01
766000000.0 2.701740000e-01 -9.363890000e-01
775000000.0 2.517270000e-01 -9.427040000e-01
784000000.0 2.369620000e-01 -9.485240000e-01
793000000.0 2.223500000e-01 -9.520770000e-01
802000000.0 2.095320000e-01 -9.547970000e-01
811000000.0 1.924810000e-01 -9.596030000e-01
820000000.0 1.797760000e-01 -9.612920000e-01
829000000.0 1.682340000e-01 -9.642670000e-01
838000000.0 1.547810000e-01 -9.660110000e-01
847000000.0 1.468630000e-01 -9.635430000e-01
856000000.0 1.371040000e-01 -9.658920000e-01
865000000.0 1.278900000e-01 -9.653020000e-01
874000000.0 1.161080000e-01 -9.645010000e-01
883000000.0 1.063640000e-01 -9.639590000e-01
892000000.0 9.339300000e-02 -9.631130000e-01
901000000.0 8.467400000e-02 -9.629310000e-01
910000000.0 7.147700000e-02 -9.628890000e-01
919000000.0 5.801100000e-02 -9.652450000e-01
928000000.0 4.597600000e-02 -9.644980000e-01
937000000.0 3.436100000e-02 -9.643220000e-01
946000000.0 2.322600000e-02 -9.629730000e-01
955000000.0 1.264400000e-02 -9.631660000e-01
964000000.0 8.274000000e-03 -9.628950000e-01
973000000.0 -4.214000000e-03 -9.630250000e-01
982000000.0 -1.203600000e-02 -9.631970000e-01
991000000.0 -2.251100000e-02 -9.635340000e-01
1000000000.0 -4.256500000e-02 -9.625170000e-01
1004500000.0 -2.561200000e-02 -9.631000000e-01
1009000000.0 -2.898100000e-02 -9.627880000e-01
1013500000.0 -3.878200000e-02 -9.615750000e-01
1018000000.0 -4.520000000e-02 -9.633920000e-01
1022500000.0 -4.550300000e-02 -9.626130000e-01
1027000000.0 -4.974800000e-02 -9.631900000e-01
1031500000.0 -5.402500000e-02 -9.619600000e-01
1036000000.0 -5.255800000e-02 -9.629740000e-01
1040500000.0 -5.926800000e-02 -9.628130000e-01
1045000000.0 -6.279400000e-02 -9.631600000e-01
1049500000.0 -7.103100000e-02 -9.639630000e-01
1054000000.0 -7.102700000e-02 -9.631020000e-01
1058500000.0 -8.272600000e-02 -9.613860000e-01
1063000000.0 -6.703300000e-02 -9.600720000e-01
1067500000.0 -8.904100000e-02 -9.622570000e-01
1072000000.0 -9.124100000e-02 -9.617900000e-01
1076500000.0 -9.511700000e-02 -9.593140000e-01
1081000000.0 -1.072290000e-01 -9.577180000e-01
1085500000.0 -1.162480000e-01 -9.555090000e-01
1090000000.0 -1.001340000e-01 -9.597140000e-01
1094500000.0 -8.471500000e-02 -9.635550000e-01
1099000000.0 -1.086700000e-01 -9.607050000e-01
1103500000.0 -1.340630000e-01 -9.550700000e-01
1108000000.0 -1.232230000e-01 -9.560940000e-01
1112500000.0 -1.097170000e-01 -9.609900000e-01
1117000000.0 -1.338920000e-01 -9.572960000e-01
1121500000.0 -1.630310000e-01 -9.527650000e-01
1126000000.0 -5.893500000e-02 -1.035318000e+00
1130500000.0 -1.822190000e-01 -9.397920000e-01
1135000000.0 -1.431430000e-01 -9.585660000e-01
1139500000.0 -1.291950000e-01 -9.682970000e-01
1144000000.0 -1.653140000e-01 -9.530980000e-01
1148500000.0 -1.619120000e-01 -9.476650000e-01
1153000000.0 -1.700380000e-01 -9.495570000e-01
1157500000.0 -1.855620000e-01 -9.505750000e-01
1162000000.0 -2.127310000e-01 -9.303910000e-01
1166500000.0 -1.873670000e-01 -9.443530000e-01
1171000000.0 -1.962760000e-01 -9.428620000e-01
1175500000.0 -2.163300000e-01 -9.401120000e-01
1180000000.0 -2.172490000e-01 -9.394740000e-01
1184500000.0 -2.282770000e-01 -9.394430000e-01
1189000000.0 -2.433870000e-01 -9.321820000e-01
1193500000.0 -2.469390000e-01 -9.328480000e-01
1198000000.0 -2.469260000e-01 -9.289030000e-01
1202500000.0 -2.500050000e-01 -9.326240000e-01
1207000000.0 -2.576530000e-01 -9.330030000e-01
1211500000.0 -2.643950000e-01 -9.247570000e-01
1216000000.0 -2.753910000e-01 -9.273300000e-01
1220500000.0 -2.776140000e-01 -9.296240000e-01
1225000000.0 -2.922110000e-01 -9.221450000e-01
1229500000.0 -2.944300000e-01 -9.244760000e-01
1234000000.0 -3.053080000e-01 -9.186640000e-01
1238500000.0 -3.043370000e-01 -9.191220000e-01
1243000000.0 -3.091210000e-01 -9.199540000e-01
1247500000.0 -3.163770000e-01 -9.122420000e-01
1252000000.0 -3.197800000e-01 -9.152080000e-01
1256500000.0 -3.214390000e-01 -9.121400000e-01
1261000000.0 -3.230730000e-01 -9.080890000e-01
1265500000.0 -3.266130000e-01 -9.138820000e-01
1270000000.0 -3.380610000e-01 -9.123150000e-01
1274500000.0 -3.454280000e-01 -9.041770000e-01
1279000000.0 -3.504730000e-01 -8.989410000e-01
1283500000.0 -3.518280000e-01 -9.031980000e-01
1288000000.0 -3.494250000e-01 -9.058260000e-01
1292500000.0 -3.598960000e-01 -8.993150000e-01
1297000000.0 -3.601930000e-01 -8.939490000e-01
1301500000.0 -3.786050000e-01 -8.942830000e-01
1306000000.0 -3.748960000e-01 -8.926960000e-01
1310500000.0 -3.843490000e-01 -8.896410000e-01
1315000000.0 -3.968680000e-01 -8.860830000e-01
1319500000.0 -4.050340000e-01 -8.845080000e-01
1324000000.0 -4.056200000e-01 -8.787380000e-01
1328500000.0 -4.109490000e-01 -8.752760000e-01
1333000000.0 -4.151090000e-01 -8.822190000e-01
1337500000.0 -4.220240000e-01 -8.661160000e-01
1342000000.0 -4.278480000e-01 -8.727530000e-01
1346500000.0 -4.346340000e-01 -8.606250000e-01
1351000000.0 -4.393430000e-01 -8.552050000e-01
1355500000.0 -4.403260000e-01 -8.605450000e-01
1360000000.0 -4.586280000e-01 -8.563420000e-01
1364500000.0 -4.603840000e-01 -8.586360000e-01
1369000000.0 -4.666520000e-01 -8.632170000e-01
1373500000.0 -4.716710000e-01 -8.577650000e-01
1378000000.0 -4.811730000e-01 -8.542610000e-01
1382500000.0 -4.868080000e-01 -8.486440000e-01
1387000000.0 -4.789810000e-01 -8.478310000e-01
1391500000.0 -4.934470000e-01 -8.471220000e-01
1396000000.0 -4.919090000e-01 -8.454820000e-01
1400500000.0 -5.149760000e-01 -8.404760000e-01
1405000000.0 -5.103010000e-01 -8.432460000e-01
1409500000.0 -5.234020000e-01 -8.336850000e-01
1414000000.0 -5.172160000e-01 -8.331110000e-01
1418500000.0 -5.251360000e-01 -8.286000000e-01
1423000000.0 -5.258270000e-01 -8.285780000e-01
1427500000.0 -5.480930000e-01 -8.279110000e-01
1432000000.0 -5.431760000e-01 -8.225630000e-01
1436500000.0 -5.447660000e-01 -8.185960000e-01
1441000000.0 -5.631680000e-01 -8.050310000e-01
1445500000.0 -5.773410000e-01 -7.982340000e-01
1450000000.0 -5.692850000e-01 -8.011250000e-01
