! piloto_corto / aire / r23
# HZ S RI R 50
50000.0 1.007121000e+00 -7.201900000e-02
59500.0 1.003547000e+00 -5.892600000e-02
69000.0 1.005559000e+00 -4.569600000e-02
78500.0 1.002433000e+00 -3.088000000e-02
88000.0 1.000896000e+00 -1.863800000e-02
97500.0 1.000697000e+00 -6.791000000e-03
107000.0 9.998590000e-01 5.529000000e-03
116500.0 9.992090000e-01 1.806800000e-02
126000.0 9.993600000e-01 3.279600000e-02
135500.0 1.000259000e+00 4.204400000e-02
145000.0 1.001509000e+00 5.484900000e-02
154500.0 1.001373000e+00 6.607800000e-02
164000.0 1.001567000e+00 7.868700000e-02
173500.0 1.001928000e+00 9.046600000e-02
183000.0 1.002016000e+00 1.024570000e-01
192500.0 1.002981000e+00 1.131050000e-01
202000.0 1.002999000e+00 1.249510000e-01
211500.0 1.003054000e+00 1.364950000e-01
221000.0 1.003236000e+00 1.480230000e-01
230500.0 1.003609000e+00 1.590880000e-01
240000.0 1.003817000e+00 1.706200000e-01
249500.0 1.004538000e+00 1.826420000e-01
259000.0 1.004638000e+00 1.934410000e-01
268500.0 1.004704000e+00 2.040950000e-01
278000.0 1.004487000e+00 2.150220000e-01
287500.0 1.005311000e+00 2.259660000e-01
297000.0 1.004305000e+00 2.368300000e-01
306500.0 1.003965000e+00 2.485430000e-01
316000.0 1.006455000e+00 2.577010000e-01
325500.0 1.006288000e+00 2.695380000e-01
335000.0 1.006203000e+00 2.796980000e-01
344500.0 1.006294000e+00 2.907060000e-01
354000.0 1.006311000e+00 3.010750000e-01
363500.0 1.006649000e+00 3.112820000e-01
373000.0 1.006877000e+00 3.218850000e-01
382500.0 1.007128000e+00 3.325280000e-01
392000.0 1.007112000e+00 3.426050000e-01
401500.0 1.007971000e+00 3.546230000e-01
411000.0 1.007944000e+00 3.634620000e-01
420500.0 1.008588000e+00 3.738060000e-01
430000.0 1.008306000e+00 3.847100000e-01
439500.0 1.008641000e+00 3.934860000e-01
449000.0 1.008896000e+00 4.042230000e-01
458500.0 1.009008000e+00 4.136630000e-01
468000.0 1.009995000e+00 4.246220000e-01
477500.0 1.009722000e+00 4.345500000e-01
487000.0 1.009860000e+00 4.446880000e-01
496500.0 1.009199000e+00 4.541130000e-01
506000.0 1.011052000e+00 4.636540000e-01
515500.0 1.006193000e+00 4.408220000e-01
525000.0 1.010620000e+00 4.838830000e-01
534500.0 1.011129000e+00 4.933530000e-01
544000.0 1.012644000e+00 5.037440000e-01
553500.0 1.012282000e+00 5.133750000e-01
563000.0 1.012869000e+00 5.230090000e-01
572500.0 1.013978000e+00 5.330790000e-01
582000.0 1.014495000e+00 5.423320000e-01
591500.0 1.013416000e+00 5.512440000e-01
601000.0 1.015160000e+00 5.615380000e-01
610500.0 1.015132000e+00 5.713290000e-01
620000.0 1.015592000e+00 5.806760000e-01
629500.0 1.016266000e+00 5.909770000e-01
639000.0 1.016908000e+00 5.995970000e-01
648500.0 1.015422000e+00 6.089720000e-01
658000.0 1.018128000e+00 6.181150000e-01
667500.0 1.019325000e+00 6.281420000e-01
677000.0 1.019442000e+00 6.381670000e-01
686500.0 1.020079000e+00 6.474700000e-01
696000.0 1.021106000e+00 6.559010000e-01
705500.0 1.022739000e+00 6.650730000e-01
715000.0 1.022295000e+00 6.751290000e-01
724500.0 1.023725000e+00 6.835400000e-01
734000.0 1.025437000e+00 6.936780000e-01
743500.0 1.025975000e+00 7.029730000e-01
753000.0 1.026405000e+00 7.129300000e-01
762500.0 1.028628000e+00 7.214300000e-01
772000.0 1.029431000e+00 7.300810000e-01
781500.0 1.029048000e+00 7.402540000e-01
791000.0 1.031864000e+00 7.480370000e-01
800500.0 1.033459000e+00 7.569960000e-01
810000.0 1.033605000e+00 7.668700000e-01
819500.0 1.034534000e+00 7.743760000e-01
829000.0 1.037181000e+00 7.845350000e-01
838500.0 1.037001000e+00 7.929110000e-01
848000.0 1.039681000e+00 8.039320000e-01
857500.0 1.040811000e+00 8.113250000e-01
867000.0 1.043930000e+00 8.215260000e-01
876500.0 1.043633000e+00 8.299700000e-01
886000.0 1.046563000e+00 8.385860000e-01
895500.0 1.048694000e+00 8.478470000e-01
905000.0 1.050529000e+00 8.570180000e-01
914500.0 1.051377000e+00 8.659570000e-01
924000.0 1.054128000e+00 8.744480000e-01
933500.0 1.055926000e+00 8.820360000e-01
943000.0 1.057568000e+00 8.920700000e-01
952500.0 1.060668000e+00 9.006180000e-01
962000.0 1.062366000e+00 9.100980000e-01
971500.0 1.066717000e+00 9.187020000e-01
981000.0 1.068874000e+00 9.264410000e-01
990500.0 1.071514000e+00 9.362400000e-01
1000000.0 1.072622000e+00 9.451300000e-01
1090000.0 1.098686000e+00 1.022006000e+00
1180000.0 1.137425000e+00 1.097386000e+00
1270000.0 1.184524000e+00 1.168967000e+00
1360000.0 1.239692000e+00 1.229932000e+00
1450000.0 1.307665000e+00 1.283763000e+00
1540000.0 1.382760000e+00 1.322926000e+00
1630000.0 1.465802000e+00 1.347138000e+00
1720000.0 1.556878000e+00 1.351891000e+00
1810000.0 1.645758000e+00 1.336025000e+00
1900000.0 1.730125000e+00 1.302690000e+00
1990000.0 1.809441000e+00 1.248927000e+00
2080000.0 1.873340000e+00 1.179836000e+00
2170000.0 1.921578000e+00 1.098301000e+00
2260000.0 1.953509000e+00 1.009074000e+00
2350000.0 1.964493000e+00 9.198870000e-01
2440000.0 1.960342000e+00 8.317610000e-01
2530000.0 1.945653000e+00 7.545370000e-01
2620000.0 1.921940000e+00 6.757020000e-01
2710000.0 1.890378000e+00 6.089830000e-01
2800000.0 1.855489000e+00 5.507740000e-01
2890000.0 1.818645000e+00 4.959170000e-01
2980000.0 1.778532000e+00 4.492430000e-01
3070000.0 1.740220000e+00 4.110770000e-01
3160000.0 1.702766000e+00 3.760100000e-01
3250000.0 1.666721000e+00 3.445110000e-01
3340000.0 1.630511000e+00 3.152430000e-01
3430000.0 1.599199000e+00 2.885420000e-01
3520000.0 1.566843000e+00 2.662700000e-01
3610000.0 1.537743000e+00 2.442990000e-01
3700000.0 1.511932000e+00 2.246210000e-01
3790000.0 1.485671000e+00 2.060830000e-01
3880000.0 1.464146000e+00 1.882010000e-01
3970000.0 1.442183000e+00 1.713750000e-01
4060000.0 1.422213000e+00 1.558790000e-01
4150000.0 1.402783000e+00 1.413960000e-01
4240000.0 1.385161000e+00 1.267900000e-01
4330000.0 1.371729000e+00 1.100930000e-01
4420000.0 1.355021000e+00 9.659800000e-02
4510000.0 1.342719000e+00 8.318700000e-02
4600000.0 1.330722000e+00 6.913600000e-02
4690000.0 1.320106000e+00 5.691100000e-02
4780000.0 1.310482000e+00 4.254800000e-02
4870000.0 1.302229000e+00 3.121900000e-02
4960000.0 1.294135000e+00 1.694200000e-02
5050000.0 1.279073000e+00 5.240000000e-03
5140000.0 1.275005000e+00 -8.404000000e-03
5230000.0 1.270419000e+00 -1.926400000e-02
5320000.0 1.265604000e+00 -3.294200000e-02
5410000.0 1.260696000e+00 -4.483200000e-02
5500000.0 1.256473000e+00 -5.587600000e-02
5590000.0 1.253813000e+00 -6.784700000e-02
5680000.0 1.248878000e+00 -8.055200000e-02
5770000.0 1.245875000e+00 -9.149500000e-02
5860000.0 1.243527000e+00 -1.021330000e-01
5950000.0 1.240026000e+00 -1.113240000e-01
6040000.0 1.236882000e+00 -1.217470000e-01
6130000.0 1.235016000e+00 -1.321540000e-01
6220000.0 1.232169000e+00 -1.411220000e-01
6310000.0 1.230770000e+00 -1.505310000e-01
6400000.0 1.228082000e+00 -1.583280000e-01
6490000.0 1.226196000e+00 -1.662450000e-01
6580000.0 1.225318000e+00 -1.751840000e-01
6670000.0 1.222228000e+00 -1.814520000e-01
6760000.0 1.222286000e+00 -1.872080000e-01
6850000.0 1.221433000e+00 -1.921150000e-01
6940000.0 1.219063000e+00 -1.992470000e-01
7030000.0 1.216907000e+00 -2.015630000e-01
7120000.0 1.217574000e+00 -2.044050000e-01
7210000.0 1.216860000e+00 -2.078100000e-01
7300000.0 1.217438000e+00 -2.088860000e-01
7390000.0 1.217495000e+00 -2.104200000e-01
7480000.0 1.217417000e+00 -2.095440000e-01
7570000.0 -2.606330000e-01 -1.255956000e+00
7660000.0 -2.595740000e-01 -1.257608000e+00
7750000.0 -2.599500000e-01 -1.256706000e+00
7840000.0 -2.594980000e-01 -1.258591000e+00
7930000.0 -2.581610000e-01 -1.256787000e+00
8020000.0 -2.588410000e-01 -1.258002000e+00
8110000.0 -2.578710000e-01 -1.259571000e+00
8200000.0 -2.575210000e-01 -1.259342000e+00
8290000.0 -2.554010000e-01 -1.259309000e+00
8380000.0 -2.566790000e-01 -1.259577000e+00
8470000.0 -2.554760000e-01 -1.259808000e+00
8560000.0 -2.537100000e-01 -1.261639000e+00
8650000.0 -2.544230000e-01 -1.262089000e+00
8740000.0 -2.530140000e-01 -1.262159000e+00
8830000.0 -2.534110000e-01 -1.263556000e+00
8920000.0 -2.532430000e-01 -1.263084000e+00
9010000.0 -2.534120000e-01 -1.264020000e+00
9100000.0 -2.310860000e-01 -1.270011000e+00
9190000.0 -2.521540000e-01 -1.265173000e+00
9280000.0 -2.521600000e-01 -1.265295000e+00
9370000.0 -2.505430000e-01 -1.267234000e+00
9460000.0 -2.502700000e-01 -1.266373000e+00
9550000.0 -2.503940000e-01 -1.269304000e+00
9640000.0 -2.498160000e-01 -1.268965000e+00
9730000.0 -2.489470000e-01 -1.269416000e+00
9820000.0 -2.479770000e-01 -1.271117000e+00
9910000.0 -2.479360000e-01 -1.271459000e+00
10000000.0 -2.477670000e-01 -1.272083000e+00
10900000.0 -2.450220000e-01 -1.279374000e+00
11800000.0 -2.401710000e-01 -1.289101000e+00
12700000.0 -2.365620000e-01 -1.300197000e+00
13600000.0 -2.330820000e-01 -1.310503000e+00
14500000.0 -2.304540000e-01 -1.321888000e+00
15400000.0 -2.249320000e-01 -1.332205000e+00
16300000.0 -2.211190000e-01 -1.343014000e+00
17200000.0 -2.174600000e-01 -1.354105000e+00
18100000.0 -2.125320000e-01 -1.367672000e+00
19000000.0 -2.083640000e-01 -1.379184000e+00
19900000.0 -2.032400000e-01 -1.391321000e+00
20800000.0 -1.982130000e-01 -1.405329000e+00
21700000.0 -1.911580000e-01 -1.417080000e+00
22600000.0 -1.856450000e-01 -1.431088000e+00
23500000.0 -1.783680000e-01 -1.443077000e+00
24400000.0 -1.716900000e-01 -1.456008000e+00
25300000.0 -1.643250000e-01 -1.470757000e+00
26200000.0 -1.570130000e-01 -1.485107000e+00
27100000.0 -1.481380000e-01 -1.499834000e+00
28000000.0 -1.387200000e-01 -1.513252000e+00
28900000.0 -1.308150000e-01 -1.527954000e+00
29800000.0 -1.207370000e-01 -1.541685000e+00
30700000.0 -1.104920000e-01 -1.557606000e+00
31600000.0 -9.878600000e-02 -1.572693000e+00
32500000.0 -8.825200000e-02 -1.587249000e+00
33400000.0 -7.672300000e-02 -1.603413000e+00
34300000.0 -6.466400000e-02 -1.618916000e+00
35200000.0 -5.267200000e-02 -1.633685000e+00
36100000.0 -3.725700000e-02 -1.648553000e+00
37000000.0 -2.262500000e-02 -1.664325000e+00
37900000.0 -8.513000000e-03 -1.680644000e+00
38800000.0 7.202000000e-03 -1.697374000e+00
39700000.0 2.317300000e-02 -1.713099000e+00
40600000.0 4.246900000e-02 -1.728879000e+00
41500000.0 5.969500000e-02 -1.743031000e+00
42400000.0 7.789600000e-02 -1.757594000e+00
43300000.0 9.834700000e-02 -1.774079000e+00
44200000.0 1.196110000e-01 -1.788906000e+00
45100000.0 1.410410000e-01 -1.803251000e+00
46000000.0 1.608480000e-01 -1.816067000e+00
46900000.0 1.862960000e-01 -1.830317000e+00
47800000.0 2.080330000e-01 -1.843915000e+00
48700000.0 2.344590000e-01 -1.858251000e+00
49600000.0 2.598330000e-01 -1.870640000e+00
50500000.0 2.879720000e-01 -1.882334000e+00
51400000.0 3.132410000e-01 -1.891830000e+00
52300000.0 3.438190000e-01 -1.903456000e+00
53200000.0 3.728750000e-01 -1.914202000e+00
54100000.0 4.031210000e-01 -1.922870000e+00
55000000.0 4.354980000e-01 -1.932061000e+00
55900000.0 4.661140000e-01 -1.937806000e+00
56800000.0 4.992040000e-01 -1.944864000e+00
57700000.0 5.336560000e-01 -1.949117000e+00
58600000.0 5.668360000e-01 -1.953307000e+00
59500000.0 6.007600000e-01 -1.955677000e+00
60400000.0 6.375510000e-01 -1.956080000e+00
61300000.0 6.755290000e-01 -1.953056000e+00
62200000.0 7.093930000e-01 -1.954041000e+00
63100000.0 7.468320000e-01 -1.948963000e+00
64000000.0 7.826320000e-01 -1.944206000e+00
64900000.0 8.223130000e-01 -1.938278000e+00
65800000.0 8.599580000e-01 -1.928575000e+00
66700000.0 8.942640000e-01 -1.919468000e+00
67600000.0 9.317260000e-01 -1.905392000e+00
68500000.0 9.711430000e-01 -1.891910000e+00
69400000.0 1.007207000e+00 -1.875312000e+00
70300000.0 1.042936000e+00 -1.859350000e+00
71200000.0 1.078034000e+00 -1.840203000e+00
72100000.0 1.112003000e+00 -1.817582000e+00
73000000.0 1.144790000e+00 -1.796981000e+00
73900000.0 1.176353000e+00 -1.772661000e+00
74800000.0 1.208399000e+00 -1.748618000e+00
75700000.0 1.236044000e+00 -1.721498000e+00
76600000.0 1.264329000e+00 -1.695007000e+00
77500000.0 1.293344000e+00 -1.667204000e+00
78400000.0 1.319180000e+00 -1.636059000e+00
79300000.0 1.341657000e+00 -1.608123000e+00
80200000.0 1.364481000e+00 -1.574076000e+00
81100000.0 1.385685000e+00 -1.543255000e+00
82000000.0 1.405252000e+00 -1.509862000e+00
82900000.0 1.423346000e+00 -1.476585000e+00
83800000.0 1.437880000e+00 -1.442851000e+00
84700000.0 1.451834000e+00 -1.410545000e+00
85600000.0 1.466279000e+00 -1.375487000e+00
86500000.0 1.476127000e+00 -1.342313000e+00
87400000.0 1.486040000e+00 -1.310338000e+00
88300000.0 1.492283000e+00 -1.276239000e+00
89200000.0 1.500104000e+00 -1.242986000e+00
90100000.0 1.506276000e+00 -1.210259000e+00
91000000.0 1.509840000e+00 -1.177398000e+00
91900000.0 1.513476000e+00 -1.143181000e+00
92800000.0 1.515591000e+00 -1.113088000e+00
93700000.0 1.515908000e+00 -1.083196000e+00
94600000.0 1.516072000e+00 -1.052739000e+00
95500000.0 1.512101000e+00 -1.022975000e+00
96400000.0 1.512236000e+00 -9.931710000e-01
97300000.0 1.507123000e+00 -9.652700000e-01
98200000.0 1.505084000e+00 -9.365210000e-01
99100000.0 1.499862000e+00 -9.109720000e-01
100000000.0 1.494933000e+00 -8.845080000e-01
109000000.0 1.413648000e+00 -6.617930000e-01
118000000.0 1.309897000e+00 -4.992810000e-01
127000000.0 1.202699000e+00 -3.847620000e-01
136000000.0 1.102745000e+00 -3.108890000e-01
145000000.0 1.011661000e+00 -2.550210000e-01
154000000.0 9.629010000e-01 -2.365760000e-01
163000000.0 9.593120000e-01 -2.491910000e-01
172000000.0 9.570660000e-01 -2.625940000e-01
181000000.0 9.530280000e-01 -2.765920000e-01
190000000.0 9.489950000e-01 -2.886930000e-01
199000000.0 9.440980000e-01 -3.011000000e-01
208000000.0 9.398900000e-01 -3.149520000e-01
217000000.0 9.345010000e-01 -3.271170000e-01
226000000.0 9.297720000e-01 -3.378810000e-01
235000000.0 9.245490000e-01 -3.511520000e-01
244000000.0 9.200140000e-01 -3.627860000e-01
253000000.0 9.132120000e-01 -3.746850000e-01
262000000.0 9.064400000e-01 -3.883800000e-01
271000000.0 9.025510000e-01 -3.988670000e-01
280000000.0 8.942430000e-01 -4.099380000e-01
289000000.0 8.872000000e-01 -4.221840000e-01
298000000.0 8.809870000e-01 -4.327180000e-01
307000000.0 8.745020000e-01 -4.451330000e-01
316000000.0 8.708030000e-01 -4.558530000e-01
325000000.0 8.619270000e-01 -4.678620000e-01
334000000.0 8.588010000e-01 -4.774520000e-01
343000000.0 8.510620000e-01 -4.902200000e-01
352000000.0 8.663830000e-01 -4.705730000e-01
361000000.0 8.286080000e-01 -5.245870000e-01
370000000.0 8.576020000e-01 -4.938930000e-01
379000000.0 8.368620000e-01 -5.165350000e-01
388000000.0 8.560890000e-01 -5.019820000e-01
397000000.0 8.337290000e-01 -5.274900000e-01
406000000.0 8.006860000e-01 -5.604590000e-01
415000000.0 8.193530000e-01 -5.446580000e-01
424000000.0 7.839390000e-01 -5.802310000e-01
433000000.0 7.749490000e-01 -5.892110000e-01
442000000.0 7.653620000e-01 -5.984230000e-01
451000000.0 7.531660000e-01 -6.105020000e-01
460000000.0 7.515500000e-01 -6.177090000e-01
469000000.0 7.442640000e-01 -6.268290000e-01
478000000.0 7.379280000e-01 -6.374000000e-01
487000000.0 7.294240000e-01 -6.464050000e-01
496000000.0 7.252300000e-01 -6.575680000e-01
505000000.0 7.153950000e-01 -6.653750000e-01
514000000.0 7.062830000e-01 -6.779700000e-01
523000000.0 6.997840000e-01 -6.855440000e-01
532000000.0 6.920830000e-01 -6.922620000e-01
541000000.0 6.822700000e-01 -7.000430000e-01
550000000.0 6.764560000e-01 -7.119000000e-01
559000000.0 6.616030000e-01 -7.182410000e-01
568000000.0 6.509580000e-01 -7.281120000e-01
577000000.0 6.413780000e-01 -7.321950000e-01
586000000.0 6.293470000e-01 -7.406690000e-01
595000000.0 6.184390000e-01 -7.456460000e-01
604000000.0 6.083640000e-01 -7.540240000e-01
613000000.0 5.980650000e-01 -7.681860000e-01
622000000.0 5.893180000e-01 -7.736490000e-01
631000000.0 5.815080000e-01 -7.859300000e-01
640000000.0 5.723830000e-01 -7.947470000e-01
649000000.0 5.656060000e-01 -8.031440000e-01
658000000.0 5.537610000e-01 -8.128450000e-01
667000000.0 5.427720000e-01 -8.140970000e-01
676000000.0 5.339020000e-01 -8.234950000e-01
685000000.0 5.266980000e-01 -8.312250000e-01
694000000.0 5.084740000e-01 -8.359960000e-01
703000000.0 4.837570000e-01 -8.475810000e-01
712000000.0 4.852520000e-01 -8.430600000e-01
721000000.0 4.891260000e-01 -8.375330000e-01
730000000.0 4.456050000e-01 -8.555810000e-01
739000000.0 4.329900000e-01 -8.571000000e-01
748000000.0 4.353450000e-01 -8.520110000e-01
757000000.0 4.206050000e-01 -8.599420000e-01
766000000.0 4.107550000e-01 -8.678990000e-01
775000000.0 3.797610000e-01 -8.826010000e-01
784000000.0 3.871280000e-01 -8.819960000e-01
793000000.0 3.908150000e-01 -8.806650000e-01
802000000.0 3.600450000e-01 -8.936590000e-01
811000000.0 3.513240000e-01 -8.967430000e-01
820000000.0 3.395710000e-01 -9.004990000e-01
829000000.0 3.245250000e-01 -9.059460000e-01
838000000.0 3.157950000e-01 -9.097210000e-01
847000000.0 3.035670000e-01 -9.089930000e-01
856000000.0 2.973680000e-01 -9.121100000e-01
865000000.0 2.885030000e-01 -9.117990000e-01
874000000.0 2.762950000e-01 -9.129260000e-01
883000000.0 2.669470000e-01 -9.146600000e-01
892000000.0 2.556980000e-01 -9.161800000e-01
901000000.0 2.439100000e-01 -9.168180000e-01
910000000.0 2.312830000e-01 -9.194780000e-01
919000000.0 2.255970000e-01 -9.178130000e-01
928000000.0 2.092000000e-01 -9.213800000e-01
937000000.0 1.971800000e-01 -9.233130000e-01
946000000.0 1.845950000e-01 -9.241550000e-01
955000000.0 1.754770000e-01 -9.258710000e-01
964000000.0 1.612160000e-01 -9.285350000e-01
973000000.0 1.544450000e-01 -9.266380000e-01
982000000.0 1.441180000e-01 -9.291200000e-01
991000000.0 1.330050000e-01 -9.308740000e-01
1000000000.0 1.187690000e-01 -9.319630000e-01
1004500000.0 1.193040000e-01 -9.324690000e-01
1009000000.0 1.100870000e-01 -9.347010000e-01
1013500000.0 1.048420000e-01 -9.354440000e-01
1018000000.0 9.996100000e-02 -9.337690000e-01
1022500000.0 9.570600000e-02 -9.348800000e-01
1027000000.0 9.462200000e-02 -9.349610000e-01
1031500000.0 8.927900000e-02 -9.347520000e-01
1036000000.0 7.986600000e-02 -9.367900000e-01
1040500000.0 7.411200000e-02 -9.359660000e-01
1045000000.0 7.271100000e-02 -9.366770000e-01
1049500000.0 6.585900000e-02 -9.374390000e-01
1054000000.0 6.078900000e-02 -9.388190000e-01
1058500000.0 5.385000000e-02 -9.380670000e-01
1063000000.0 4.940100000e-02 -9.383350000e-01
1067500000.0 4.647300000e-02 -9.401550000e-01
1072000000.0 3.871700000e-02 -9.381900000e-01
1076500000.0 3.234200000e-02 -9.399630000e-01
1081000000.0 1.011600000e-02 -9.381740000e-01
1085500000.0 2.524800000e-02 -9.392370000e-01
1090000000.0 3.511300000e-02 -9.406520000e-01
1094500000.0 1.009900000e-02 -9.391140000e-01
1099000000.0 -1.201700000e-02 -9.359280000e-01
1103500000.0 3.418000000e-03 -9.405620000e-01
1108000000.0 1.329600000e-02 -9.399950000e-01
1112500000.0 -1.065700000e-02 -9.420590000e-01
1117000000.0 -3.613400000e-02 -9.343230000e-01
1121500000.0 -2.386900000e-02 -9.367740000e-01
1126000000.0 -2.739000000e-03 -9.403160000e-01
1130500000.0 -2.356100000e-02 -9.367300000e-01
1135000000.0 -2.271900000e-02 -9.399440000e-01
1139500000.0 -7.116700000e-02 -9.268840000e-01
1144000000.0 -5.372500000e-02 -9.334490000e-01
1148500000.0 -7.297100000e-02 -9.306860000e-01
1153000000.0 -5.621700000e-02 -9.321570000e-01
1157500000.0 -6.600300000e-02 -9.371350000e-01
1162000000.0 -7.102900000e-02 -9.301060000e-01
1166500000.0 -7.513700000e-02 -9.288140000e-01
1171000000.0 -7.897800000e-02 -9.311560000e-01
1175500000.0 -8.812700000e-02 -9.276770000e-01
1180000000.0 -9.209900000e-02 -9.294190000e-01
1184500000.0 -1.019970000e-01 -9.259130000e-01
1189000000.0 -1.086800000e-01 -9.242240000e-01
1193500000.0 -1.073920000e-01 -9.314610000e-01
1198000000.0 -1.130390000e-01 -9.250870000e-01
1202500000.0 -1.179980000e-01 -9.240660000e-01
1207000000.0 -1.267760000e-01 -9.258410000e-01
1211500000.0 -1.291210000e-01 -9.230120000e-01
1216000000.0 -1.356370000e-01 -9.216620000e-01
1220500000.0 -1.405210000e-01 -9.265050000e-01
1225000000.0 -1.445880000e-01 -9.217450000e-01
1229500000.0 -1.549020000e-01 -9.205100000e-01
1234000000.0 -1.491880000e-01 -9.206080000e-01
1238500000.0 -1.552790000e-01 -9.223690000e-01
1243000000.0 -1.671970000e-01 -9.251320000e-01
1247500000.0 -1.737750000e-01 -9.191340000e-01
1252000000.0 -1.653930000e-01 -9.219870000e-01
1256500000.0 -1.716960000e-01 -9.204800000e-01
1261000000.0 -1.863950000e-01 -9.214330000e-01
1265500000.0 -1.866650000e-01 -9.190580000e-01
1270000000.0 -1.931430000e-01 -9.207040000e-01
1274500000.0 -2.017280000e-01 -9.113460000e-01
1279000000.0 -2.047570000e-01 -9.077180000e-01
1283500000.0 -2.086320000e-01 -9.087510000e-01
1288000000.0 -2.173000000e-01 -9.099480000e-01
1292500000.0 -2.172820000e-01 -9.036690000e-01
1297000000.0 -2.277680000e-01 -9.048020000e-01
1301500000.0 -2.318690000e-01 -9.041840000e-01
1306000000.0 -2.317260000e-01 -9.030940000e-01
1310500000.0 -2.412560000e-01 -9.024530000e-01
1315000000.0 -2.478820000e-01 -8.952920000e-01
1319500000.0 -2.524710000e-01 -9.004450000e-01
1324000000.0 -2.564010000e-01 -8.958050000e-01
1328500000.0 -2.575070000e-01 -8.923850000e-01
1333000000.0 -2.635460000e-01 -8.931200000e-01
1337500000.0 -2.741840000e-01 -8.907010000e-01
1342000000.0 -2.815010000e-01 -8.805610000e-01
1346500000.0 -2.851680000e-01 -8.851390000e-01
1351000000.0 -2.906860000e-01 -8.762580000e-01
1355500000.0 -2.889800000e-01 -8.860280000e-01
1360000000.0 -3.050240000e-01 -8.826330000e-01
1364500000.0 -3.029670000e-01 -8.815190000e-01
1369000000.0 -3.059280000e-01 -8.779310000e-01
1373500000.0 -3.178380000e-01 -8.802470000e-01
1378000000.0 -3.179840000e-01 -8.747030000e-01
1382500000.0 -3.215990000e-01 -8.833080000e-01
1387000000.0 -3.246020000e-01 -8.802920000e-01
1391500000.0 -3.300300000e-01 -8.794600000e-01
1396000000.0 -3.312820000e-01 -8.788130000e-01
1400500000.0 -3.429530000e-01 -8.718810000e-01
1405000000.0 -3.418690000e-01 -8.767620000e-01
1409500000.0 -3.558180000e-01 -8.714100000e-01
1414000000.0 -3.504950000e-01 -8.706350000e-01
1418500000.0 -3.460300000e-01 -8.785500000e-01
1423000000.0 -3.718010000e-01 -8.667700000e-01
1427500000.0 -3.600350000e-01 -8.698240000e-01
1432000000.0 -3.671860000e-01 -8.635150000e-01
1436500000.0 -3.706700000e-01 -8.622200000e-01
1441000000.0 -3.730510000e-01 -8.593810000e-01
1445500000.0 -3.771930000e-01 -8.611690000e-01
1450000000.0 -3.897210000e-01 -8.521610000e-01
