! piloto_corto / aire / r17
# HZ S RI R 50
50000.0 1.007149000e+00 -7.213900000e-02
59500.0 1.007947000e+00 -5.817100000e-02
69000.0 1.002394000e+00 -4.375600000e-02
78500.0 1.002819000e+00 -3.207900000e-02
88000.0 9.751610000e-01 -8.778200000e-02
97500.0 1.001034000e+00 -6.182000000e-03
107000.0 9.999000000e-01 5.202000000e-03
116500.0 9.987070000e-01 -3.380000000e-04
126000.0 9.797090000e-01 -1.818000000e-02
135500.0 1.000631000e+00 4.248200000e-02
145000.0 1.000899000e+00 5.447100000e-02
154500.0 1.001586000e+00 6.590700000e-02
164000.0 1.001196000e+00 7.815000000e-02
173500.0 1.002038000e+00 8.975900000e-02
183000.0 1.002548000e+00 1.012850000e-01
192500.0 1.002386000e+00 1.126310000e-01
202000.0 1.002625000e+00 1.247170000e-01
211500.0 1.003112000e+00 1.356070000e-01
221000.0 1.003533000e+00 1.468240000e-01
230500.0 1.003913000e+00 1.582330000e-01
240000.0 1.004164000e+00 1.702600000e-01
249500.0 1.004154000e+00 1.810790000e-01
259000.0 1.004170000e+00 1.920310000e-01
268500.0 1.003733000e+00 2.030060000e-01
278000.0 1.004336000e+00 2.144300000e-01
287500.0 1.004923000e+00 2.251150000e-01
297000.0 1.004355000e+00 2.364050000e-01
306500.0 1.005341000e+00 2.467880000e-01
316000.0 1.005979000e+00 2.581670000e-01
325500.0 1.005347000e+00 2.684780000e-01
335000.0 1.005696000e+00 2.784900000e-01
344500.0 1.005441000e+00 2.891630000e-01
354000.0 1.007066000e+00 3.000840000e-01
363500.0 1.006337000e+00 3.111770000e-01
373000.0 1.006779000e+00 3.208710000e-01
382500.0 1.006567000e+00 3.311360000e-01
392000.0 1.005984000e+00 3.415230000e-01
401500.0 1.007094000e+00 3.517510000e-01
411000.0 1.006830000e+00 3.622770000e-01
420500.0 1.007608000e+00 3.727310000e-01
430000.0 1.007794000e+00 3.839020000e-01
439500.0 1.008280000e+00 3.937600000e-01
449000.0 1.008576000e+00 4.025820000e-01
458500.0 1.009275000e+00 4.124710000e-01
468000.0 1.007931000e+00 4.227660000e-01
477500.0 1.009428000e+00 4.327520000e-01
487000.0 1.009001000e+00 4.434380000e-01
496500.0 1.009442000e+00 4.539380000e-01
506000.0 1.010226000e+00 4.623990000e-01
515500.0 1.010713000e+00 4.728960000e-01
525000.0 1.010141000e+00 4.820980000e-01
534500.0 1.010935000e+00 4.927280000e-01
544000.0 1.010808000e+00 5.033580000e-01
553500.0 1.011442000e+00 5.120170000e-01
563000.0 1.011536000e+00 5.217990000e-01
572500.0 1.014172000e+00 5.304760000e-01
582000.0 1.013162000e+00 5.407740000e-01
591500.0 1.013742000e+00 5.507880000e-01
601000.0 1.013475000e+00 5.604040000e-01
610500.0 1.013840000e+00 5.696550000e-01
620000.0 1.014400000e+00 5.795510000e-01
629500.0 1.016271000e+00 5.887970000e-01
639000.0 1.015720000e+00 5.988920000e-01
648500.0 1.016706000e+00 6.080870000e-01
658000.0 1.016936000e+00 6.173610000e-01
667500.0 1.017614000e+00 6.257220000e-01
677000.0 1.018755000e+00 6.355290000e-01
686500.0 1.019243000e+00 6.456460000e-01
696000.0 1.019882000e+00 6.546790000e-01
705500.0 1.021359000e+00 6.649130000e-01
715000.0 1.021734000e+00 6.738890000e-01
724500.0 1.022301000e+00 6.816640000e-01
734000.0 1.023403000e+00 6.905500000e-01
743500.0 1.024446000e+00 7.016470000e-01
753000.0 1.024339000e+00 7.106080000e-01
762500.0 1.026972000e+00 7.184000000e-01
772000.0 1.026734000e+00 7.271870000e-01
781500.0 1.029182000e+00 7.372900000e-01
791000.0 1.031091000e+00 7.465410000e-01
800500.0 1.031746000e+00 7.557410000e-01
810000.0 1.032939000e+00 7.652790000e-01
819500.0 1.032590000e+00 7.747480000e-01
829000.0 1.035457000e+00 7.823650000e-01
838500.0 1.036537000e+00 7.930490000e-01
848000.0 1.038378000e+00 8.008530000e-01
857500.0 1.039232000e+00 8.103620000e-01
867000.0 1.041598000e+00 8.180940000e-01
876500.0 1.043780000e+00 8.286560000e-01
886000.0 1.045306000e+00 8.361180000e-01
895500.0 1.045425000e+00 8.455020000e-01
905000.0 1.050353000e+00 8.534850000e-01
914500.0 1.051287000e+00 8.644160000e-01
924000.0 1.052512000e+00 8.724100000e-01
933500.0 1.054433000e+00 8.809560000e-01
943000.0 1.056891000e+00 8.888320000e-01
952500.0 1.060163000e+00 8.999070000e-01
962000.0 1.062110000e+00 9.072750000e-01
971500.0 1.063887000e+00 9.142370000e-01
981000.0 1.067142000e+00 9.236420000e-01
990500.0 1.068663000e+00 9.336160000e-01
1000000.0 1.071880000e+00 9.418900000e-01
1090000.0 1.096091000e+00 1.019622000e+00
1180000.0 1.133117000e+00 1.095684000e+00
1270000.0 1.179308000e+00 1.164482000e+00
1360000.0 1.238181000e+00 1.227541000e+00
1450000.0 1.302188000e+00 1.280596000e+00
1540000.0 1.376710000e+00 1.321972000e+00
1630000.0 1.461080000e+00 1.344992000e+00
1720000.0 1.549837000e+00 1.352716000e+00
1810000.0 1.640934000e+00 1.339412000e+00
1900000.0 1.724889000e+00 1.305103000e+00
1990000.0 1.803572000e+00 1.253619000e+00
2080000.0 1.867383000e+00 1.184748000e+00
2170000.0 1.915944000e+00 1.103406000e+00
2260000.0 1.948178000e+00 1.016817000e+00
2350000.0 1.962198000e+00 9.263890000e-01
2440000.0 1.960629000e+00 8.386840000e-01
2530000.0 1.947669000e+00 7.575890000e-01
2620000.0 1.924003000e+00 6.820600000e-01
2710000.0 1.892407000e+00 6.142200000e-01
2800000.0 1.857098000e+00 5.527350000e-01
2890000.0 1.822094000e+00 4.983960000e-01
2980000.0 1.782424000e+00 4.519160000e-01
3070000.0 1.741166000e+00 4.136990000e-01
3160000.0 1.703574000e+00 3.759820000e-01
3250000.0 1.668222000e+00 3.446990000e-01
3340000.0 1.634080000e+00 3.172940000e-01
3430000.0 1.600541000e+00 2.891540000e-01
3520000.0 1.570741000e+00 2.657730000e-01
3610000.0 1.541497000e+00 2.451800000e-01
3700000.0 1.513905000e+00 2.243430000e-01
3790000.0 1.489082000e+00 2.058910000e-01
3880000.0 1.465074000e+00 1.882940000e-01
3970000.0 1.441482000e+00 1.716110000e-01
4060000.0 1.422309000e+00 1.566230000e-01
4150000.0 1.404183000e+00 1.410820000e-01
4240000.0 1.386720000e+00 1.266850000e-01
4330000.0 1.370361000e+00 1.114230000e-01
4420000.0 1.356212000e+00 9.746600000e-02
4510000.0 1.344073000e+00 8.429200000e-02
4600000.0 1.332525000e+00 7.029500000e-02
4690000.0 1.321628000e+00 5.703200000e-02
4780000.0 1.310667000e+00 4.344700000e-02
4870000.0 1.303479000e+00 3.022200000e-02
4960000.0 1.296243000e+00 1.757200000e-02
5050000.0 1.280533000e+00 5.762000000e-03
5140000.0 1.275201000e+00 -7.592000000e-03
5230000.0 1.270245000e+00 -1.919200000e-02
5320000.0 1.266326000e+00 -3.229000000e-02
5410000.0 1.261699000e+00 -4.414500000e-02
5500000.0 1.258534000e+00 -5.659900000e-02
5590000.0 1.253544000e+00 -6.765700000e-02
5680000.0 1.249509000e+00 -8.023000000e-02
5770000.0 1.246938000e+00 -9.133600000e-02
5860000.0 1.243223000e+00 -1.014170000e-01
5950000.0 1.241216000e+00 -1.117040000e-01
6040000.0 1.236982000e+00 -1.223190000e-01
6130000.0 1.235086000e+00 -1.322170000e-01
6220000.0 1.232333000e+00 -1.407650000e-01
6310000.0 1.229788000e+00 -1.504180000e-01
6400000.0 1.229096000e+00 -1.583640000e-01
6490000.0 1.226786000e+00 -1.670700000e-01
6580000.0 1.224874000e+00 -1.750500000e-01
6670000.0 1.223685000e+00 -1.819230000e-01
6760000.0 1.221334000e+00 -1.866000000e-01
6850000.0 1.220747000e+00 -1.939610000e-01
6940000.0 1.220158000e+00 -1.984860000e-01
7030000.0 1.219612000e+00 -2.022930000e-01
7120000.0 1.219221000e+00 -2.051370000e-01
7210000.0 1.218047000e+00 -2.077980000e-01
7300000.0 1.217530000e+00 -2.108430000e-01
7390000.0 1.218148000e+00 -2.099050000e-01
7480000.0 1.218613000e+00 -2.106610000e-01
7570000.0 -2.615250000e-01 -1.256207000e+00
7660000.0 -2.603080000e-01 -1.256543000e+00
7750000.0 -2.590390000e-01 -1.256837000e+00
7840000.0 -2.592870000e-01 -1.256924000e+00
7930000.0 -2.590220000e-01 -1.257238000e+00
8020000.0 -2.584030000e-01 -1.258545000e+00
8110000.0 -2.572920000e-01 -1.259031000e+00
8200000.0 -2.567200000e-01 -1.260400000e+00
8290000.0 -2.567350000e-01 -1.259552000e+00
8380000.0 -2.574430000e-01 -1.259995000e+00
8470000.0 -2.563320000e-01 -1.260808000e+00
8560000.0 -2.555930000e-01 -1.261218000e+00
8650000.0 -2.538830000e-01 -1.262304000e+00
8740000.0 -2.535370000e-01 -1.262677000e+00
8830000.0 -2.530510000e-01 -1.262989000e+00
8920000.0 -2.531280000e-01 -1.263397000e+00
9010000.0 -2.538260000e-01 -1.265027000e+00
9100000.0 -2.520970000e-01 -1.264767000e+00
9190000.0 -2.524430000e-01 -1.266843000e+00
9280000.0 -2.511570000e-01 -1.266710000e+00
9370000.0 -2.508120000e-01 -1.268237000e+00
9460000.0 -2.509180000e-01 -1.267523000e+00
9550000.0 -2.499310000e-01 -1.267786000e+00
9640000.0 -2.483840000e-01 -1.268195000e+00
9730000.0 -2.487410000e-01 -1.271334000e+00
9820000.0 -2.487110000e-01 -1.271443000e+00
9910000.0 -2.484210000e-01 -1.272174000e+00
10000000.0 -2.497530000e-01 -1.271929000e+00
10900000.0 -2.432260000e-01 -1.280695000e+00
11800000.0 -2.404530000e-01 -1.290515000e+00
12700000.0 -2.362190000e-01 -1.299409000e+00
13600000.0 -2.337530000e-01 -1.309384000e+00
14500000.0 -2.294890000e-01 -1.321439000e+00
15400000.0 -2.245980000e-01 -1.332136000e+00
16300000.0 -2.211020000e-01 -1.343930000e+00
17200000.0 -2.165690000e-01 -1.354740000e+00
18100000.0 -2.130290000e-01 -1.367052000e+00
19000000.0 -2.084960000e-01 -1.379552000e+00
19900000.0 -2.026020000e-01 -1.391681000e+00
20800000.0 -1.972920000e-01 -1.404327000e+00
21700000.0 -1.916450000e-01 -1.417613000e+00
22600000.0 -1.858100000e-01 -1.430285000e+00
23500000.0 -1.783410000e-01 -1.444358000e+00
24400000.0 -1.715200000e-01 -1.457886000e+00
25300000.0 -1.637970000e-01 -1.471480000e+00
26200000.0 -1.568450000e-01 -1.484644000e+00
27100000.0 -1.482110000e-01 -1.499727000e+00
28000000.0 -1.398820000e-01 -1.512841000e+00
28900000.0 -1.305310000e-01 -1.527021000e+00
29800000.0 -1.217820000e-01 -1.542525000e+00
30700000.0 -1.121860000e-01 -1.557880000e+00
31600000.0 -9.987300000e-02 -1.571911000e+00
32500000.0 -8.720500000e-02 -1.589027000e+00
33400000.0 -7.662800000e-02 -1.603597000e+00
34300000.0 -6.523200000e-02 -1.619436000e+00
35200000.0 -5.059700000e-02 -1.633336000e+00
36100000.0 -3.562000000e-02 -1.650271000e+00
37000000.0 -2.340000000e-02 -1.663746000e+00
37900000.0 -7.653000000e-03 -1.681090000e+00
38800000.0 7.045000000e-03 -1.696119000e+00
39700000.0 2.437300000e-02 -1.712973000e+00
40600000.0 4.075200000e-02 -1.726971000e+00
41500000.0 6.029900000e-02 -1.742393000e+00
42400000.0 7.764300000e-02 -1.756999000e+00
43300000.0 9.500700000e-02 -1.773411000e+00
44200000.0 1.183360000e-01 -1.788565000e+00
45100000.0 1.394070000e-01 -1.802980000e+00
46000000.0 1.631660000e-01 -1.817618000e+00
46900000.0 1.845330000e-01 -1.830885000e+00
47800000.0 2.099660000e-01 -1.844781000e+00
48700000.0 2.340330000e-01 -1.857826000e+00
49600000.0 2.591360000e-01 -1.871080000e+00
50500000.0 2.857060000e-01 -1.881367000e+00
51400000.0 3.135070000e-01 -1.892582000e+00
52300000.0 3.433920000e-01 -1.905148000e+00
53200000.0 3.709580000e-01 -1.914943000e+00
54100000.0 4.019490000e-01 -1.923737000e+00
55000000.0 4.356830000e-01 -1.931963000e+00
55900000.0 4.637370000e-01 -1.938553000e+00
56800000.0 4.991380000e-01 -1.944234000e+00
57700000.0 5.326090000e-01 -1.948200000e+00
58600000.0 5.662070000e-01 -1.953121000e+00
59500000.0 6.048300000e-01 -1.953353000e+00
60400000.0 6.382100000e-01 -1.955946000e+00
61300000.0 6.758130000e-01 -1.954915000e+00
62200000.0 7.108670000e-01 -1.951572000e+00
63100000.0 7.470320000e-01 -1.949891000e+00
64000000.0 7.842910000e-01 -1.944866000e+00
64900000.0 8.212370000e-01 -1.938527000e+00
65800000.0 8.595360000e-01 -1.928502000e+00
66700000.0 8.962930000e-01 -1.917566000e+00
67600000.0 9.324510000e-01 -1.905078000e+00
68500000.0 9.704070000e-01 -1.892340000e+00
69400000.0 1.005724000e+00 -1.876074000e+00
70300000.0 1.039153000e+00 -1.860676000e+00
71200000.0 1.076114000e+00 -1.839406000e+00
72100000.0 1.110849000e+00 -1.823289000e+00
73000000.0 1.143214000e+00 -1.798048000e+00
73900000.0 1.175511000e+00 -1.774166000e+00
74800000.0 1.208682000e+00 -1.747200000e+00
75700000.0 1.237078000e+00 -1.724023000e+00
76600000.0 1.265840000e+00 -1.694600000e+00
77500000.0 1.292959000e+00 -1.664170000e+00
78400000.0 1.317049000e+00 -1.635864000e+00
79300000.0 1.342890000e+00 -1.605052000e+00
80200000.0 1.363666000e+00 -1.573734000e+00
81100000.0 1.386154000e+00 -1.544161000e+00
82000000.0 1.405071000e+00 -1.510361000e+00
82900000.0 1.421032000e+00 -1.477702000e+00
83800000.0 1.439141000e+00 -1.446891000e+00
84700000.0 1.452667000e+00 -1.410216000e+00
85600000.0 1.465696000e+00 -1.376652000e+00
86500000.0 1.476584000e+00 -1.342900000e+00
87400000.0 1.486607000e+00 -1.309827000e+00
88300000.0 1.494182000e+00 -1.276567000e+00
89200000.0 1.499577000e+00 -1.242734000e+00
90100000.0 1.506981000e+00 -1.209954000e+00
91000000.0 1.510237000e+00 -1.176594000e+00
91900000.0 1.513006000e+00 -1.144821000e+00
92800000.0 1.516623000e+00 -1.113588000e+00
93700000.0 1.515701000e+00 -1.082291000e+00
94600000.0 1.515785000e+00 -1.051533000e+00
95500000.0 1.514753000e+00 -1.021620000e+00
96400000.0 1.513666000e+00 -9.921220000e-01
97300000.0 1.509109000e+00 -9.654010000e-01
98200000.0 1.505359000e+00 -9.372840000e-01
99100000.0 1.500354000e+00 -9.116550000e-01
100000000.0 1.494382000e+00 -8.822110000e-01
109000000.0 1.414761000e+00 -6.606600000e-01
118000000.0 1.309073000e+00 -4.980790000e-01
127000000.0 1.202653000e+00 -3.846210000e-01
136000000.0 1.102311000e+00 -3.103320000e-01
145000000.0 1.011653000e+00 -2.545010000e-01
154000000.0 9.630840000e-01 -2.364380000e-01
163000000.0 9.604610000e-01 -2.495310000e-01
172000000.0 9.577980000e-01 -2.625850000e-01
181000000.0 9.520880000e-01 -2.765280000e-01
190000000.0 9.480780000e-01 -2.887370000e-01
199000000.0 9.441720000e-01 -3.021800000e-01
208000000.0 9.402590000e-01 -3.128580000e-01
217000000.0 9.359450000e-01 -3.256460000e-01
226000000.0 9.306370000e-01 -3.383570000e-01
235000000.0 9.256600000e-01 -3.511170000e-01
244000000.0 9.193070000e-01 -3.636980000e-01
253000000.0 9.139230000e-01 -3.756840000e-01
262000000.0 9.079000000e-01 -3.869110000e-01
271000000.0 9.019050000e-01 -3.979370000e-01
280000000.0 8.965060000e-01 -4.105900000e-01
289000000.0 8.886600000e-01 -4.216730000e-01
298000000.0 8.811040000e-01 -4.337020000e-01
307000000.0 8.769460000e-01 -4.448660000e-01
316000000.0 8.717710000e-01 -4.537260000e-01
325000000.0 8.667270000e-01 -4.674550000e-01
334000000.0 8.602790000e-01 -4.783900000e-01
343000000.0 8.531710000e-01 -4.891630000e-01
352000000.0 8.490720000e-01 -4.983880000e-01
361000000.0 8.308320000e-01 -5.250990000e-01
370000000.0 8.347060000e-01 -5.216320000e-01
379000000.0 7.844530000e-01 -5.627680000e-01
388000000.0 8.075890000e-01 -5.550060000e-01
397000000.0 8.106440000e-01 -5.517460000e-01
406000000.0 8.041170000e-01 -5.608770000e-01
415000000.0 7.943780000e-01 -5.704020000e-01
424000000.0 7.858810000e-01 -5.810700000e-01
433000000.0 7.774630000e-01 -5.889200000e-01
442000000.0 7.696580000e-01 -5.986620000e-01
451000000.0 7.578540000e-01 -6.087220000e-01
460000000.0 7.524500000e-01 -6.189240000e-01
469000000.0 7.463190000e-01 -6.289080000e-01
478000000.0 7.407090000e-01 -6.394410000e-01
487000000.0 7.324150000e-01 -6.495680000e-01
496000000.0 7.253070000e-01 -6.595580000e-01
505000000.0 7.180420000e-01 -6.680250000e-01
514000000.0 7.110470000e-01 -6.768990000e-01
523000000.0 7.006210000e-01 -6.862210000e-01
532000000.0 6.954440000e-01 -6.962950000e-01
541000000.0 6.859480000e-01 -7.036970000e-01
550000000.0 6.786070000e-01 -7.095940000e-01
559000000.0 6.654340000e-01 -7.183640000e-01
568000000.0 6.400610000e-01 -7.371960000e-01
577000000.0 6.472550000e-01 -7.355980000e-01
586000000.0 6.470220000e-01 -7.326080000e-01
595000000.0 6.219280000e-01 -7.492460000e-01
604000000.0 5.958690000e-01 -7.692290000e-01
613000000.0 6.040600000e-01 -7.690780000e-01
622000000.0 6.105230000e-01 -7.684030000e-01
631000000.0 5.862020000e-01 -7.891510000e-01
640000000.0 5.779890000e-01 -7.981260000e-01
649000000.0 5.681250000e-01 -8.054070000e-01
658000000.0 5.586230000e-01 -8.140960000e-01
667000000.0 5.460750000e-01 -8.236790000e-01
676000000.0 5.351960000e-01 -8.299860000e-01
685000000.0 5.219820000e-01 -8.303830000e-01
694000000.0 5.143320000e-01 -8.404460000e-01
703000000.0 4.994090000e-01 -8.449480000e-01
712000000.0 4.886010000e-01 -8.445300000e-01
721000000.0 4.775100000e-01 -8.528180000e-01
730000000.0 4.660060000e-01 -8.528870000e-01
739000000.0 4.511220000e-01 -8.568110000e-01
748000000.0 4.411290000e-01 -8.561170000e-01
757000000.0 4.277090000e-01 -8.631130000e-01
766000000.0 4.146490000e-01 -8.712010000e-01
775000000.0 4.000240000e-01 -8.794050000e-01
784000000.0 3.913750000e-01 -8.850720000e-01
793000000.0 3.774440000e-01 -8.924180000e-01
802000000.0 3.620530000e-01 -8.989480000e-01
811000000.0 3.531480000e-01 -9.044830000e-01
820000000.0 3.404380000e-01 -9.072090000e-01
829000000.0 3.325210000e-01 -9.099130000e-01
838000000.0 3.184210000e-01 -9.151840000e-01
847000000.0 3.072190000e-01 -9.145970000e-01
856000000.0 2.968360000e-01 -9.176460000e-01
865000000.0 2.883220000e-01 -9.189190000e-01
874000000.0 2.819610000e-01 -9.194310000e-01
883000000.0 2.687040000e-01 -9.203060000e-01
892000000.0 2.614200000e-01 -9.223220000e-01
901000000.0 2.489800000e-01 -9.228420000e-01
910000000.0 2.349320000e-01 -9.244230000e-01
919000000.0 2.232180000e-01 -9.258670000e-01
928000000.0 2.096610000e-01 -9.292530000e-01
937000000.0 1.997320000e-01 -9.308910000e-01
946000000.0 1.892650000e-01 -9.313460000e-01
955000000.0 1.773000000e-01 -9.329400000e-01
964000000.0 1.637970000e-01 -9.347110000e-01
973000000.0 1.544920000e-01 -9.365090000e-01
982000000.0 1.463090000e-01 -9.369170000e-01
991000000.0 1.319110000e-01 -9.385510000e-01
1000000000.0 1.206090000e-01 -9.388200000e-01
1004500000.0 1.180120000e-01 -9.398450000e-01
1009000000.0 9.705600000e-02 -9.400570000e-01
1013500000.0 1.080030000e-01 -9.410780000e-01
1018000000.0 1.202910000e-01 -9.413540000e-01
1022500000.0 9.866100000e-02 -9.428450000e-01
1027000000.0 7.250200000e-02 -9.432440000e-01
1031500000.0 8.507800000e-02 -9.422590000e-01
1036000000.0 1.049610000e-01 -9.444310000e-01
1040500000.0 7.716200000e-02 -9.456020000e-01
1045000000.0 7.321300000e-02 -9.440910000e-01
1049500000.0 6.864900000e-02 -9.449340000e-01
1054000000.0 6.068700000e-02 -9.473470000e-01
1058500000.0 6.339800000e-02 -9.467360000e-01
1063000000.0 4.677800000e-02 -9.480200000e-01
1067500000.0 4.254000000e-02 -9.468110000e-01
1072000000.0 4.109100000e-02 -9.470770000e-01
1076500000.0 3.685500000e-02 -9.450520000e-01
1081000000.0 3.044000000e-02 -9.463580000e-01
1085500000.0 2.514600000e-02 -9.495830000e-01
1090000000.0 1.725500000e-02 -9.481400000e-01
1094500000.0 1.557400000e-02 -9.464220000e-01
1099000000.0 6.636000000e-03 -9.470990000e-01
1103500000.0 4.569000000e-03 -9.491350000e-01
1108000000.0 3.625000000e-03 -9.469390000e-01
1112500000.0 -9.087000000e-03 -9.480440000e-01
1117000000.0 -1.125800000e-02 -9.491950000e-01
1121500000.0 -1.482200000e-02 -9.487000000e-01
1126000000.0 1.033200000e-02 -9.542060000e-01
1130500000.0 -3.196300000e-02 -9.446650000e-01
1135000000.0 -3.522700000e-02 -9.466890000e-01
1139500000.0 -4.186700000e-02 -9.457200000e-01
1144000000.0 -5.035600000e-02 -9.476550000e-01
1148500000.0 -5.158600000e-02 -9.455600000e-01
1153000000.0 -6.319600000e-02 -9.405920000e-01
1157500000.0 -6.691700000e-02 -9.414670000e-01
1162000000.0 -6.549100000e-02 -9.415410000e-01
1166500000.0 -7.564800000e-02 -9.440420000e-01
1171000000.0 -8.293900000e-02 -9.378790000e-01
1175500000.0 -8.243700000e-02 -9.437510000e-01
1180000000.0 -8.925700000e-02 -9.415420000e-01
1184500000.0 -9.732100000e-02 -9.365520000e-01
1189000000.0 -1.064440000e-01 -9.336530000e-01
1193500000.0 -1.097010000e-01 -9.346490000e-01
1198000000.0 -1.181600000e-01 -9.367470000e-01
1202500000.0 -1.163610000e-01 -9.404980000e-01
1207000000.0 -1.302690000e-01 -9.341380000e-01
1211500000.0 -1.289920000e-01 -9.337660000e-01
1216000000.0 -1.352300000e-01 -9.319680000e-01
1220500000.0 -1.392300000e-01 -9.368080000e-01
1225000000.0 -1.389190000e-01 -9.344270000e-01
1229500000.0 -1.488570000e-01 -9.346350000e-01
1234000000.0 -1.521400000e-01 -9.334330000e-01
1238500000.0 -1.648950000e-01 -9.344190000e-01
1243000000.0 -1.638900000e-01 -9.348290000e-01
1247500000.0 -1.727140000e-01 -9.295100000e-01
1252000000.0 -1.752020000e-01 -9.312430000e-01
1256500000.0 -1.779330000e-01 -9.313340000e-01
1261000000.0 -1.823110000e-01 -9.314580000e-01
1265500000.0 -1.929130000e-01 -9.254290000e-01
1270000000.0 -1.938670000e-01 -9.254900000e-01
1274500000.0 -2.060340000e-01 -9.291510000e-01
1279000000.0 -2.049240000e-01 -9.197270000e-01
1283500000.0 -2.115920000e-01 -9.194170000e-01
1288000000.0 -2.163000000e-01 -9.167870000e-01
1292500000.0 -2.222620000e-01 -9.195790000e-01
1297000000.0 -2.307550000e-01 -9.162220000e-01
1301500000.0 -2.336060000e-01 -9.147190000e-01
1306000000.0 -2.404100000e-01 -9.130690000e-01
1310500000.0 -2.373350000e-01 -9.135990000e-01
1315000000.0 -2.527780000e-01 -9.043960000e-01
1319500000.0 -2.522610000e-01 -9.156700000e-01
1324000000.0 -2.566950000e-01 -9.047210000e-01
1328500000.0 -2.610350000e-01 -9.030720000e-01
1333000000.0 -2.655030000e-01 -9.003180000e-01
1337500000.0 -2.784260000e-01 -9.017000000e-01
1342000000.0 -2.774960000e-01 -8.955990000e-01
1346500000.0 -2.846430000e-01 -8.918450000e-01
1351000000.0 -2.920110000e-01 -8.949280000e-01
1355500000.0 -2.876800000e-01 -8.985010000e-01
1360000000.0 -3.015300000e-01 -8.957550000e-01
1364500000.0 -3.107140000e-01 -8.984160000e-01
1369000000.0 -3.069200000e-01 -8.946260000e-01
1373500000.0 -3.113600000e-01 -8.892510000e-01
1378000000.0 -3.224300000e-01 -8.918570000e-01
1382500000.0 -3.291480000e-01 -8.898740000e-01
1387000000.0 -3.232970000e-01 -8.948350000e-01
1391500000.0 -3.287700000e-01 -8.888970000e-01
1396000000.0 -3.447620000e-01 -8.900770000e-01
1400500000.0 -3.307730000e-01 -8.912040000e-01
1405000000.0 -3.439070000e-01 -8.852750000e-01
1409500000.0 -3.497230000e-01 -8.888120000e-01
1414000000.0 -3.593600000e-01 -8.862630000e-01
1418500000.0 -3.569280000e-01 -8.839650000e-01
1423000000.0 -3.564280000e-01 -8.919180000e-01
1427500000.0 -3.685520000e-01 -8.792860000e-01
1432000000.0 -3.654880000e-01 -8.835800000e-01
1436500000.0 -3.687250000e-01 -8.795090000e-01
1441000000.0 -3.744570000e-01 -8.756660000e-01
1445500000.0 -3.875450000e-01 -8.679570000e-01
1450000000.0 -3.901420000e-01 -8.653330000e-01
