! piloto_corto / corto_aluminio / r04
# HZ S RI R 50
50000.0 -9.959370000e-01 -3.670100000e-02
59500.0 -9.934040000e-01 -1.836500000e-02
69000.0 -9.965810000e-01 -6.920000000e-03
78500.0 -9.956010000e-01 -5.790000000e-04
88000.0 -9.975790000e-01 1.574000000e-03
97500.0 -9.970100000e-01 1.546000000e-03
107000.0 -9.974950000e-01 -1.093000000e-03
116500.0 -9.981700000e-01 -4.243000000e-03
126000.0 -9.973600000e-01 -9.340000000e-03
135500.0 -9.979410000e-01 -1.482900000e-02
145000.0 -9.982830000e-01 -2.064900000e-02
154500.0 -9.983710000e-01 -2.767700000e-02
164000.0 -9.984780000e-01 -3.428300000e-02
173500.0 -9.980650000e-01 -4.222600000e-02
183000.0 -9.976840000e-01 -4.940100000e-02
192500.0 -9.980520000e-01 -5.810900000e-02
202000.0 -9.986910000e-01 -6.637100000e-02
211500.0 -9.986980000e-01 -7.442600000e-02
221000.0 -9.984560000e-01 -8.318200000e-02
230500.0 -9.985700000e-01 -9.165500000e-02
240000.0 -9.996200000e-01 -1.003260000e-01
249500.0 -9.989240000e-01 -1.099050000e-01
259000.0 -1.000014000e+00 -1.182690000e-01
268500.0 -9.996590000e-01 -1.277110000e-01
278000.0 -9.989930000e-01 -1.365780000e-01
287500.0 -1.000399000e+00 -1.464140000e-01
297000.0 -9.994460000e-01 -1.553830000e-01
306500.0 -9.997710000e-01 -1.645150000e-01
316000.0 -1.001001000e+00 -1.739930000e-01
325500.0 -1.000770000e+00 -1.826730000e-01
335000.0 -1.001183000e+00 -1.924470000e-01
344500.0 -1.001085000e+00 -2.017380000e-01
354000.0 -1.000454000e+00 -2.104770000e-01
363500.0 -1.000988000e+00 -2.196070000e-01
373000.0 -1.000702000e+00 -2.276130000e-01
382500.0 -1.001454000e+00 -2.379240000e-01
392000.0 -1.002527000e+00 -2.471460000e-01
401500.0 -1.002694000e+00 -2.564960000e-01
411000.0 -1.001697000e+00 -2.659800000e-01
420500.0 -1.002393000e+00 -2.746080000e-01
430000.0 -1.002303000e+00 -2.841080000e-01
439500.0 -1.001871000e+00 -2.928990000e-01
449000.0 -1.003695000e+00 -3.018470000e-01
458500.0 -1.002860000e+00 -3.106350000e-01
468000.0 -1.002001000e+00 -3.208330000e-01
477500.0 -1.002827000e+00 -3.290060000e-01
487000.0 -1.003471000e+00 -3.390350000e-01
496500.0 -1.002980000e+00 -3.479730000e-01
506000.0 -1.003726000e+00 -3.569420000e-01
515500.0 -1.003710000e+00 -3.666080000e-01
525000.0 -1.004846000e+00 -3.757500000e-01
534500.0 -1.003077000e+00 -3.839010000e-01
544000.0 -1.004930000e+00 -3.931490000e-01
553500.0 -1.004401000e+00 -4.022540000e-01
563000.0 -1.004561000e+00 -4.110500000e-01
572500.0 -1.006274000e+00 -4.206960000e-01
582000.0 -1.006018000e+00 -4.295720000e-01
591500.0 -1.006756000e+00 -4.383230000e-01
601000.0 -1.006589000e+00 -4.467350000e-01
610500.0 -1.007780000e+00 -4.565820000e-01
620000.0 -1.007423000e+00 -4.644600000e-01
629500.0 -1.007642000e+00 -4.741010000e-01
639000.0 -1.009113000e+00 -4.830030000e-01
648500.0 -1.008904000e+00 -4.917020000e-01
658000.0 -1.008274000e+00 -5.005100000e-01
667500.0 -1.009995000e+00 -5.094960000e-01
677000.0 -1.009734000e+00 -5.178810000e-01
686500.0 -1.011734000e+00 -5.263180000e-01
696000.0 -1.012706000e+00 -5.354540000e-01
705500.0 -1.011416000e+00 -5.444040000e-01
715000.0 -1.012316000e+00 -5.536100000e-01
724500.0 -1.013712000e+00 -5.624240000e-01
734000.0 -1.014450000e+00 -5.711760000e-01
743500.0 -1.015105000e+00 -5.796000000e-01
753000.0 -1.017050000e+00 -5.886050000e-01
762500.0 -1.017755000e+00 -5.982800000e-01
772000.0 -1.018683000e+00 -6.049990000e-01
781500.0 -1.019839000e+00 -6.148350000e-01
791000.0 -1.019463000e+00 -6.234290000e-01
800500.0 -1.021897000e+00 -6.329640000e-01
810000.0 -1.022479000e+00 -6.418390000e-01
819500.0 -1.023869000e+00 -6.508380000e-01
829000.0 -1.024827000e+00 -6.593240000e-01
838500.0 -1.028979000e+00 -6.667880000e-01
848000.0 -1.028342000e+00 -6.764360000e-01
857500.0 -1.029185000e+00 -6.840190000e-01
867000.0 -1.030768000e+00 -6.927990000e-01
876500.0 -1.033985000e+00 -7.014710000e-01
886000.0 -1.034887000e+00 -7.091900000e-01
895500.0 -1.036784000e+00 -7.182840000e-01
905000.0 -1.037683000e+00 -7.265590000e-01
914500.0 -1.038682000e+00 -7.346500000e-01
924000.0 -1.042407000e+00 -7.445410000e-01
933500.0 -1.044619000e+00 -7.512600000e-01
943000.0 -1.043906000e+00 -7.600040000e-01
952500.0 -1.047212000e+00 -7.693990000e-01
962000.0 -1.049969000e+00 -7.765320000e-01
971500.0 -1.052604000e+00 -7.852270000e-01
981000.0 -1.053293000e+00 -7.925800000e-01
990500.0 -1.056329000e+00 -8.021380000e-01
1000000.0 -1.059208000e+00 -8.116510000e-01
1090000.0 -1.070770000e+00 -8.746240000e-01
1180000.0 -1.103021000e+00 -9.449990000e-01
1270000.0 -1.148163000e+00 -1.012650000e+00
1360000.0 -1.200863000e+00 -1.074060000e+00
1450000.0 -1.266182000e+00 -1.124997000e+00
1540000.0 -1.337551000e+00 -1.164962000e+00
1630000.0 -1.419395000e+00 -1.185218000e+00
1720000.0 -1.503972000e+00 -1.190834000e+00
1810000.0 -1.591179000e+00 -1.177314000e+00
1900000.0 -1.675025000e+00 -1.138293000e+00
1990000.0 -1.750902000e+00 -1.084882000e+00
2080000.0 -1.807967000e+00 -1.012194000e+00
2170000.0 -1.839300000e+00 -9.666070000e-01
2260000.0 -1.886626000e+00 -8.040020000e-01
2350000.0 -1.873767000e+00 -7.891710000e-01
2440000.0 -1.874024000e+00 -6.645180000e-01
2530000.0 -1.846093000e+00 -6.213930000e-01
2620000.0 -1.829431000e+00 -4.785890000e-01
2710000.0 -1.782690000e+00 -4.834960000e-01
2800000.0 -1.748996000e+00 -3.633360000e-01
2890000.0 -1.700935000e+00 -3.798520000e-01
2980000.0 -1.720434000e+00 -4.158110000e-01
3070000.0 -1.622464000e+00 -2.722310000e-01
3160000.0 -1.582757000e+00 -2.420560000e-01
3250000.0 -1.536343000e+00 -2.116800000e-01
3340000.0 -1.497671000e+00 -1.897570000e-01
3430000.0 -1.467000000e+00 -1.681200000e-01
3520000.0 -1.437501000e+00 -1.473370000e-01
3610000.0 -1.408366000e+00 -1.302910000e-01
3700000.0 -1.382430000e+00 -1.166690000e-01
3790000.0 -1.359292000e+00 -1.007350000e-01
3880000.0 -1.335111000e+00 -8.553700000e-02
3970000.0 -1.315057000e+00 -7.353200000e-02
4060000.0 -1.296165000e+00 -6.051200000e-02
4150000.0 -1.276813000e+00 -4.771700000e-02
4240000.0 -1.262307000e+00 -3.505600000e-02
4330000.0 -1.246314000e+00 -2.468600000e-02
4420000.0 -1.231397000e+00 -1.184900000e-02
4510000.0 -1.218750000e+00 2.460000000e-04
4600000.0 -1.206653000e+00 1.152200000e-02
4690000.0 -1.196925000e+00 2.291100000e-02
4780000.0 -1.184872000e+00 3.206500000e-02
4870000.0 -1.175180000e+00 4.448100000e-02
4960000.0 -1.168306000e+00 5.420800000e-02
5050000.0 -1.153274000e+00 6.546500000e-02
5140000.0 -1.145612000e+00 7.528700000e-02
5230000.0 -1.140164000e+00 8.637200000e-02
5320000.0 -1.135530000e+00 9.630800000e-02
5410000.0 -1.129884000e+00 1.063680000e-01
5500000.0 -1.128535000e+00 1.176370000e-01
5590000.0 -1.123995000e+00 1.276010000e-01
5680000.0 -1.122643000e+00 1.373240000e-01
5770000.0 -1.117942000e+00 1.468300000e-01
5860000.0 -1.114382000e+00 1.558170000e-01
5950000.0 -1.111883000e+00 1.653290000e-01
6040000.0 -1.108786000e+00 1.737430000e-01
6130000.0 -1.105242000e+00 1.825130000e-01
6220000.0 -1.102284000e+00 1.907110000e-01
6310000.0 -1.101364000e+00 1.976480000e-01
6400000.0 -1.098552000e+00 2.059240000e-01
6490000.0 -1.094289000e+00 2.116360000e-01
6580000.0 -1.092973000e+00 2.180190000e-01
6670000.0 -1.091327000e+00 2.238480000e-01
6760000.0 -1.089403000e+00 2.283890000e-01
6850000.0 -1.087193000e+00 2.331610000e-01
6940000.0 -1.086376000e+00 2.370170000e-01
7030000.0 -1.086156000e+00 2.408740000e-01
7120000.0 -1.084431000e+00 2.434120000e-01
7210000.0 -1.083511000e+00 2.457360000e-01
7300000.0 -1.083300000e+00 2.477790000e-01
7390000.0 -1.083944000e+00 2.473470000e-01
7480000.0 -1.082819000e+00 2.478050000e-01
7570000.0 2.019020000e-01 1.054544000e+00
7660000.0 2.001840000e-01 1.051640000e+00
7750000.0 1.975740000e-01 1.044762000e+00
7840000.0 1.975010000e-01 1.045572000e+00
7930000.0 1.955840000e-01 1.045003000e+00
8020000.0 1.953440000e-01 1.045820000e+00
8110000.0 1.936370000e-01 1.046980000e+00
8200000.0 1.943800000e-01 1.048547000e+00
8290000.0 1.928290000e-01 1.048515000e+00
8380000.0 1.917110000e-01 1.049212000e+00
8470000.0 1.924430000e-01 1.049147000e+00
8560000.0 1.909820000e-01 1.050276000e+00
8650000.0 1.915240000e-01 1.051058000e+00
8740000.0 1.902860000e-01 1.052242000e+00
8830000.0 1.901410000e-01 1.052836000e+00
8920000.0 1.894290000e-01 1.053374000e+00
9010000.0 1.887930000e-01 1.054736000e+00
9100000.0 1.876750000e-01 1.054001000e+00
9190000.0 1.873650000e-01 1.053682000e+00
9280000.0 1.860400000e-01 1.055089000e+00
9370000.0 1.864190000e-01 1.055806000e+00
9460000.0 1.851200000e-01 1.056815000e+00
9550000.0 1.852340000e-01 1.057686000e+00
9640000.0 1.850170000e-01 1.058259000e+00
9730000.0 1.840980000e-01 1.059124000e+00
9820000.0 1.832490000e-01 1.058568000e+00
9910000.0 1.837110000e-01 1.060432000e+00
10000000.0 1.824410000e-01 1.059717000e+00
10900000.0 1.800460000e-01 1.087977000e+00
11800000.0 1.760400000e-01 1.094733000e+00
12700000.0 1.696820000e-01 1.102974000e+00
13600000.0 1.656760000e-01 1.110486000e+00
14500000.0 1.595030000e-01 1.118988000e+00
15400000.0 1.539600000e-01 1.128680000e+00
16300000.0 1.488440000e-01 1.138263000e+00
17200000.0 1.422830000e-01 1.147491000e+00
18100000.0 1.369100000e-01 1.157190000e+00
19000000.0 1.303340000e-01 1.165137000e+00
19900000.0 1.223850000e-01 1.173404000e+00
20800000.0 1.158130000e-01 1.185270000e+00
21700000.0 1.084470000e-01 1.194488000e+00
22600000.0 1.023140000e-01 1.204245000e+00
23500000.0 9.265300000e-02 1.213415000e+00
24400000.0 8.447400000e-02 1.224255000e+00
25300000.0 7.548400000e-02 1.233951000e+00
26200000.0 6.608400000e-02 1.243435000e+00
27100000.0 5.628200000e-02 1.253543000e+00
28000000.0 4.770300000e-02 1.264110000e+00
28900000.0 3.616400000e-02 1.273495000e+00
29800000.0 2.571900000e-02 1.284023000e+00
30700000.0 1.487600000e-02 1.292359000e+00
31600000.0 3.498000000e-03 1.302727000e+00
32500000.0 -9.493000000e-03 1.311690000e+00
33400000.0 -2.134300000e-02 1.324641000e+00
34300000.0 -3.457000000e-02 1.336596000e+00
35200000.0 -4.802800000e-02 1.345590000e+00
36100000.0 -5.973000000e-02 1.357054000e+00
37000000.0 -7.551600000e-02 1.366401000e+00
37900000.0 -8.886700000e-02 1.375955000e+00
38800000.0 -1.055820000e-01 1.385436000e+00
39700000.0 -1.206420000e-01 1.395006000e+00
40600000.0 -1.360660000e-01 1.403764000e+00
41500000.0 -1.549250000e-01 1.414221000e+00
42400000.0 -1.700900000e-01 1.422288000e+00
43300000.0 -1.890950000e-01 1.430570000e+00
44200000.0 -2.062840000e-01 1.437947000e+00
45100000.0 -2.227340000e-01 1.443985000e+00
46000000.0 -2.415460000e-01 1.451285000e+00
46900000.0 -2.613650000e-01 1.459329000e+00
47800000.0 -2.806450000e-01 1.464305000e+00
48700000.0 -3.004120000e-01 1.470285000e+00
49600000.0 -3.206940000e-01 1.475158000e+00
50500000.0 -3.415780000e-01 1.480359000e+00
51400000.0 -3.632770000e-01 1.483900000e+00
52300000.0 -3.853440000e-01 1.486969000e+00
53200000.0 -4.051180000e-01 1.490794000e+00
54100000.0 -4.269770000e-01 1.494790000e+00
55000000.0 -4.498140000e-01 1.495283000e+00
55900000.0 -4.704380000e-01 1.498252000e+00
56800000.0 -4.945020000e-01 1.497828000e+00
57700000.0 -5.168450000e-01 1.498005000e+00
58600000.0 -5.392350000e-01 1.497957000e+00
59500000.0 -5.627140000e-01 1.497072000e+00
60400000.0 -5.856510000e-01 1.494463000e+00
61300000.0 -6.092360000e-01 1.491544000e+00
62200000.0 -6.327630000e-01 1.488586000e+00
63100000.0 -6.562260000e-01 1.486089000e+00
64000000.0 -6.777570000e-01 1.479097000e+00
64900000.0 -7.006600000e-01 1.473993000e+00
65800000.0 -7.271430000e-01 1.470194000e+00
66700000.0 -7.481520000e-01 1.462038000e+00
67600000.0 -7.714100000e-01 1.453410000e+00
68500000.0 -7.936040000e-01 1.446356000e+00
69400000.0 -8.157850000e-01 1.438955000e+00
70300000.0 -8.371300000e-01 1.427808000e+00
71200000.0 -8.614040000e-01 1.417173000e+00
72100000.0 -8.816690000e-01 1.408778000e+00
73000000.0 -9.051960000e-01 1.396137000e+00
73900000.0 -9.240790000e-01 1.384919000e+00
74800000.0 -9.453820000e-01 1.371603000e+00
75700000.0 -9.649590000e-01 1.357881000e+00
76600000.0 -9.847830000e-01 1.342796000e+00
77500000.0 -1.003438000e+00 1.327373000e+00
78400000.0 -1.023484000e+00 1.313703000e+00
79300000.0 -1.041879000e+00 1.296697000e+00
80200000.0 -1.057699000e+00 1.281693000e+00
81100000.0 -1.076229000e+00 1.264930000e+00
82000000.0 -1.092921000e+00 1.247942000e+00
82900000.0 -1.110269000e+00 1.230458000e+00
83800000.0 -1.124403000e+00 1.212270000e+00
84700000.0 -1.142100000e+00 1.195742000e+00
85600000.0 -1.155480000e+00 1.177023000e+00
86500000.0 -1.170139000e+00 1.156142000e+00
87400000.0 -1.183623000e+00 1.139843000e+00
88300000.0 -1.196094000e+00 1.117885000e+00
89200000.0 -1.208601000e+00 1.099089000e+00
90100000.0 -1.219607000e+00 1.078131000e+00
91000000.0 -1.230201000e+00 1.058840000e+00
91900000.0 -1.240475000e+00 1.037865000e+00
92800000.0 -1.250506000e+00 1.016371000e+00
93700000.0 -1.258922000e+00 9.952070000e-01
94600000.0 -1.267587000e+00 9.739680000e-01
95500000.0 -1.274650000e+00 9.547110000e-01
96400000.0 -1.282767000e+00 9.321140000e-01
97300000.0 -1.285983000e+00 9.095140000e-01
98200000.0 -1.293414000e+00 8.886790000e-01
99100000.0 -1.296371000e+00 8.686940000e-01
100000000.0 -1.298682000e+00 8.461870000e-01
109000000.0 -1.295057000e+00 6.386310000e-01
118000000.0 -1.252208000e+00 4.688980000e-01
127000000.0 -1.185104000e+00 3.349210000e-01
136000000.0 -1.083659000e+00 2.353050000e-01
145000000.0 -1.009007000e+00 1.650760000e-01
154000000.0 -9.690290000e-01 1.389680000e-01
163000000.0 -9.714320000e-01 1.443090000e-01
172000000.0 -9.723950000e-01 1.508300000e-01
181000000.0 -9.732280000e-01 1.570930000e-01
190000000.0 -9.740260000e-01 1.638630000e-01
199000000.0 -9.741140000e-01 1.702970000e-01
208000000.0 -9.748720000e-01 1.779920000e-01
217000000.0 -9.727220000e-01 1.874180000e-01
226000000.0 -9.706020000e-01 1.936140000e-01
235000000.0 -9.695770000e-01 2.020350000e-01
244000000.0 -9.682010000e-01 2.106830000e-01
253000000.0 -9.662530000e-01 2.194350000e-01
262000000.0 -9.621210000e-01 2.284810000e-01
271000000.0 -9.583030000e-01 2.361850000e-01
280000000.0 -9.527230000e-01 2.469180000e-01
289000000.0 -9.482470000e-01 2.545460000e-01
298000000.0 -9.448040000e-01 2.638350000e-01
307000000.0 -9.425970000e-01 2.718640000e-01
316000000.0 -9.445510000e-01 2.799350000e-01
325000000.0 -9.430510000e-01 2.878000000e-01
334000000.0 -9.419840000e-01 2.961580000e-01
343000000.0 -9.410330000e-01 3.062140000e-01
352000000.0 -9.396760000e-01 3.137620000e-01
361000000.0 -9.390110000e-01 3.204410000e-01
370000000.0 -9.383970000e-01 3.279220000e-01
379000000.0 -9.708520000e-01 2.745880000e-01
388000000.0 -9.112150000e-01 3.700330000e-01
397000000.0 -9.286250000e-01 3.494880000e-01
406000000.0 -9.193630000e-01 3.552480000e-01
415000000.0 -9.250930000e-01 3.487340000e-01
424000000.0 -9.063020000e-01 3.688840000e-01
433000000.0 -9.020760000e-01 3.742530000e-01
442000000.0 -8.961890000e-01 3.808080000e-01
451000000.0 -8.887150000e-01 3.880840000e-01
460000000.0 -8.889290000e-01 3.983870000e-01
469000000.0 -8.891260000e-01 4.071100000e-01
478000000.0 -8.891170000e-01 4.136750000e-01
487000000.0 -8.851070000e-01 4.240760000e-01
496000000.0 -8.832730000e-01 4.325080000e-01
505000000.0 -8.811150000e-01 4.420720000e-01
514000000.0 -8.777890000e-01 4.486360000e-01
523000000.0 -8.740610000e-01 4.539720000e-01
532000000.0 -8.713490000e-01 4.635400000e-01
541000000.0 -8.671170000e-01 4.710180000e-01
550000000.0 -8.608460000e-01 4.745200000e-01
559000000.0 -8.536850000e-01 4.828100000e-01
568000000.0 -8.500930000e-01 4.867730000e-01
577000000.0 -8.453990000e-01 4.935270000e-01
586000000.0 -8.326270000e-01 4.965110000e-01
595000000.0 -8.225690000e-01 5.019030000e-01
604000000.0 -8.150740000e-01 5.144220000e-01
613000000.0 -8.116150000e-01 5.222990000e-01
622000000.0 -8.085800000e-01 5.283300000e-01
631000000.0 -8.071490000e-01 5.391330000e-01
640000000.0 -8.023440000e-01 5.454830000e-01
649000000.0 -7.961130000e-01 5.508530000e-01
658000000.0 -7.931430000e-01 5.583470000e-01
667000000.0 -7.898210000e-01 5.642290000e-01
676000000.0 -7.800730000e-01 5.736460000e-01
685000000.0 -7.779150000e-01 5.813000000e-01
694000000.0 -7.730420000e-01 5.846180000e-01
703000000.0 -7.697350000e-01 5.943670000e-01
712000000.0 -7.625700000e-01 5.994430000e-01
721000000.0 -7.544700000e-01 6.057540000e-01
730000000.0 -7.545020000e-01 6.074810000e-01
739000000.0 -7.502520000e-01 6.081630000e-01
748000000.0 -7.370510000e-01 6.153030000e-01
757000000.0 -7.332080000e-01 6.206000000e-01
766000000.0 -7.283220000e-01 6.253120000e-01
775000000.0 -7.229830000e-01 6.348250000e-01
784000000.0 -7.187220000e-01 6.411230000e-01
793000000.0 -7.154120000e-01 6.494520000e-01
802000000.0 -7.109740000e-01 6.533240000e-01
811000000.0 -7.058500000e-01 6.598570000e-01
820000000.0 -6.979610000e-01 6.644270000e-01
829000000.0 -6.931770000e-01 6.662630000e-01
838000000.0 -6.898180000e-01 6.751980000e-01
847000000.0 -6.845030000e-01 6.766480000e-01
856000000.0 -6.825410000e-01 6.821040000e-01
865000000.0 -6.772300000e-01 6.902780000e-01
874000000.0 -6.688350000e-01 7.003130000e-01
883000000.0 -6.594790000e-01 7.013480000e-01
892000000.0 -6.503060000e-01 7.131740000e-01
901000000.0 -6.471100000e-01 7.195340000e-01
910000000.0 -6.441610000e-01 7.261430000e-01
919000000.0 -6.445780000e-01 7.318500000e-01
928000000.0 -6.377620000e-01 7.426250000e-01
937000000.0 -6.325160000e-01 7.502890000e-01
946000000.0 -6.281110000e-01 7.590630000e-01
955000000.0 -6.253500000e-01 7.632220000e-01
964000000.0 -6.134320000e-01 7.715550000e-01
973000000.0 -6.108290000e-01 7.754550000e-01
982000000.0 -5.989610000e-01 7.849660000e-01
991000000.0 -5.926660000e-01 7.870420000e-01
1000000000.0 -5.852020000e-01 7.931530000e-01
1004500000.0 -5.819490000e-01 7.916250000e-01
1009000000.0 -5.836100000e-01 7.893790000e-01
1013500000.0 -5.764210000e-01 7.914480000e-01
1018000000.0 -5.753690000e-01 7.957450000e-01
1022500000.0 -5.701240000e-01 7.986240000e-01
1027000000.0 -5.642110000e-01 7.992650000e-01
1031500000.0 -5.632500000e-01 8.006150000e-01
1036000000.0 -5.584810000e-01 7.993420000e-01
1040500000.0 -5.545580000e-01 8.018820000e-01
1045000000.0 -5.492100000e-01 8.048060000e-01
1049500000.0 -5.462510000e-01 8.045410000e-01
1054000000.0 -5.440730000e-01 8.037470000e-01
1058500000.0 -5.339300000e-01 8.093120000e-01
1063000000.0 -5.392930000e-01 8.119490000e-01
1067500000.0 -5.338030000e-01 8.150050000e-01
1072000000.0 -5.289320000e-01 8.127640000e-01
1076500000.0 -5.307190000e-01 8.140460000e-01
1081000000.0 -5.249070000e-01 8.212040000e-01
1085500000.0 -5.243010000e-01 8.183360000e-01
1090000000.0 -5.106810000e-01 8.272820000e-01
1094500000.0 -5.080210000e-01 8.327760000e-01
1099000000.0 -5.055000000e-01 8.353980000e-01
1103500000.0 -5.010420000e-01 8.379370000e-01
1108000000.0 -4.977460000e-01 8.432110000e-01
1112500000.0 -4.950570000e-01 8.440920000e-01
1117000000.0 -4.938760000e-01 8.473010000e-01
1121500000.0 -5.040990000e-01 8.455130000e-01
1126000000.0 -4.448900000e-01 8.697960000e-01
1130500000.0 -4.968300000e-01 8.485600000e-01
1135000000.0 -4.747160000e-01 8.562320000e-01
1139500000.0 -4.852090000e-01 8.519100000e-01
1144000000.0 -4.704200000e-01 8.585910000e-01
1148500000.0 -4.322810000e-01 8.697810000e-01
1153000000.0 -4.580430000e-01 8.652250000e-01
1157500000.0 -4.602080000e-01 8.641950000e-01
1162000000.0 -4.498950000e-01 8.701490000e-01
1166500000.0 -4.488290000e-01 8.700300000e-01
1171000000.0 -4.415490000e-01 8.717390000e-01
1175500000.0 -4.301690000e-01 8.748550000e-01
1180000000.0 -4.319510000e-01 8.757360000e-01
1184500000.0 -4.241700000e-01 8.787190000e-01
1189000000.0 -4.263910000e-01 8.751220000e-01
1193500000.0 -4.162480000e-01 8.736030000e-01
1198000000.0 -4.131560000e-01 8.769070000e-01
1202500000.0 -4.105520000e-01 8.775150000e-01
1207000000.0 -4.067300000e-01 8.833160000e-01
1211500000.0 -4.026270000e-01 8.843800000e-01
1216000000.0 -3.969520000e-01 8.866840000e-01
1220500000.0 -3.945000000e-01 8.891660000e-01
1225000000.0 -3.906600000e-01 8.896730000e-01
1229500000.0 -3.839270000e-01 8.937410000e-01
1234000000.0 -3.857780000e-01 8.936240000e-01
1238500000.0 -3.826020000e-01 8.931900000e-01
1243000000.0 -3.722440000e-01 9.008060000e-01
1247500000.0 -3.715930000e-01 8.962320000e-01
1252000000.0 -3.714940000e-01 8.983790000e-01
1256500000.0 -3.693150000e-01 9.004630000e-01
1261000000.0 -3.626360000e-01 9.058480000e-01
1265500000.0 -3.583960000e-01 9.043500000e-01
1270000000.0 -3.532480000e-01 9.055020000e-01
1274500000.0 -3.505490000e-01 9.055230000e-01
1279000000.0 -3.456730000e-01 9.057360000e-01
1283500000.0 -3.447940000e-01 9.066990000e-01
1288000000.0 -3.428350000e-01 9.061140000e-01
1292500000.0 -3.367800000e-01 9.076210000e-01
1297000000.0 -3.320700000e-01 9.051960000e-01
1301500000.0 -3.224070000e-01 9.104680000e-01
1306000000.0 -3.247330000e-01 9.108730000e-01
1310500000.0 -3.100880000e-01 9.122600000e-01
1315000000.0 -3.147080000e-01 9.114380000e-01
1319500000.0 -3.063560000e-01 9.136400000e-01
1324000000.0 -3.024030000e-01 9.138700000e-01
1328500000.0 -2.967240000e-01 9.148260000e-01
1333000000.0 -2.997160000e-01 9.152550000e-01
1337500000.0 -2.897070000e-01 9.172240000e-01
1342000000.0 -2.856670000e-01 9.106330000e-01
1346500000.0 -2.872430000e-01 9.064380000e-01
1351000000.0 -2.813030000e-01 9.115070000e-01
1355500000.0 -2.803110000e-01 9.166370000e-01
1360000000.0 -2.709270000e-01 9.180840000e-01
1364500000.0 -2.721170000e-01 9.183170000e-01
1369000000.0 -2.558440000e-01 9.246790000e-01
1373500000.0 -2.676720000e-01 9.279060000e-01
1378000000.0 -2.487280000e-01 9.245900000e-01
1382500000.0 -2.576940000e-01 9.310390000e-01
1387000000.0 -2.491540000e-01 9.301740000e-01
1391500000.0 -2.457570000e-01 9.338560000e-01
1396000000.0 -2.425340000e-01 9.361990000e-01
1400500000.0 -2.275660000e-01 9.317670000e-01
1405000000.0 -2.364440000e-01 9.396880000e-01
1409500000.0 -2.242180000e-01 9.366330000e-01
1414000000.0 -2.200270000e-01 9.362290000e-01
1418500000.0 -2.155320000e-01 9.375510000e-01
1423000000.0 -2.106260000e-01 9.413360000e-01
1427500000.0 -1.884000000e-01 9.494250000e-01
1432000000.0 -2.020380000e-01 9.454530000e-01
1436500000.0 -1.977220000e-01 9.396150000e-01
1441000000.0 -1.982950000e-01 9.447010000e-01
1445500000.0 -1.916730000e-01 9.479240000e-01
1450000000.0 -1.845920000e-01 9.441430000e-01
