! piloto_corto / aire / r24
# HZ S RI R 50
50000.0 1.007162000e+00 -7.235400000e-02
59500.0 1.003250000e+00 -5.803900000e-02
69000.0 1.004323000e+00 -4.502700000e-02
78500.0 1.002508000e+00 -3.132300000e-02
88000.0 1.001215000e+00 -1.848700000e-02
97500.0 1.000780000e+00 -7.113000000e-03
107000.0 1.000019000e+00 6.607000000e-03
116500.0 1.000832000e+00 1.832400000e-02
126000.0 9.986360000e-01 3.128300000e-02
135500.0 1.000169000e+00 4.253100000e-02
145000.0 1.001048000e+00 5.479100000e-02
154500.0 1.001374000e+00 6.719000000e-02
164000.0 1.000773000e+00 7.813600000e-02
173500.0 1.002077000e+00 9.057100000e-02
183000.0 1.002371000e+00 1.022520000e-01
192500.0 1.003035000e+00 1.144520000e-01
202000.0 1.003006000e+00 1.258000000e-01
211500.0 1.003589000e+00 1.365210000e-01
221000.0 1.003298000e+00 1.484070000e-01
230500.0 1.003539000e+00 1.588980000e-01
240000.0 1.004908000e+00 1.707070000e-01
249500.0 1.110660000e+00 2.236330000e-01
259000.0 1.004220000e+00 1.932890000e-01
268500.0 1.004339000e+00 2.043960000e-01
278000.0 1.005173000e+00 2.159780000e-01
287500.0 1.004746000e+00 2.261040000e-01
297000.0 1.005263000e+00 2.370620000e-01
306500.0 1.004997000e+00 2.480140000e-01
316000.0 1.006292000e+00 2.592570000e-01
325500.0 1.006384000e+00 2.690370000e-01
335000.0 1.006211000e+00 2.799200000e-01
344500.0 1.006176000e+00 2.897760000e-01
354000.0 1.006633000e+00 3.008120000e-01
363500.0 1.006030000e+00 3.119770000e-01
373000.0 1.006234000e+00 3.220220000e-01
382500.0 1.007444000e+00 3.320140000e-01
392000.0 1.006937000e+00 3.426160000e-01
401500.0 1.007530000e+00 3.531880000e-01
411000.0 1.007083000e+00 3.637900000e-01
420500.0 1.008516000e+00 3.742570000e-01
430000.0 1.008372000e+00 3.838880000e-01
439500.0 1.008394000e+00 3.939320000e-01
449000.0 1.009087000e+00 4.044370000e-01
458500.0 1.008875000e+00 4.149640000e-01
468000.0 1.009746000e+00 4.246050000e-01
477500.0 1.009878000e+00 4.344360000e-01
487000.0 1.010135000e+00 4.443170000e-01
496500.0 1.009560000e+00 4.541870000e-01
506000.0 1.010664000e+00 4.641790000e-01
515500.0 1.011791000e+00 4.727620000e-01
525000.0 1.009923000e+00 4.846810000e-01
534500.0 1.011124000e+00 4.954110000e-01
544000.0 1.011312000e+00 5.038120000e-01
553500.0 1.012568000e+00 5.142570000e-01
563000.0 1.012937000e+00 5.227940000e-01
572500.0 1.013375000e+00 5.328750000e-01
582000.0 1.013202000e+00 5.433870000e-01
591500.0 1.013873000e+00 5.518710000e-01
601000.0 1.015363000e+00 5.608550000e-01
610500.0 1.014074000e+00 5.713340000e-01
620000.0 1.015929000e+00 5.813490000e-01
629500.0 1.015735000e+00 5.895410000e-01
639000.0 1.016327000e+00 5.998380000e-01
648500.0 1.018054000e+00 6.099790000e-01
658000.0 1.018204000e+00 6.192010000e-01
667500.0 1.018296000e+00 6.289230000e-01
677000.0 1.020315000e+00 6.378860000e-01
686500.0 1.019500000e+00 6.466180000e-01
696000.0 1.021008000e+00 6.567400000e-01
705500.0 1.021890000e+00 6.649160000e-01
715000.0 1.022114000e+00 6.751410000e-01
724500.0 1.022654000e+00 6.842490000e-01
734000.0 1.025747000e+00 6.937480000e-01
743500.0 1.025537000e+00 7.025630000e-01
753000.0 1.027292000e+00 7.118050000e-01
762500.0 1.026223000e+00 7.202050000e-01
772000.0 1.029053000e+00 7.299000000e-01
781500.0 1.042661000e+00 7.529490000e-01
791000.0 1.030204000e+00 7.480660000e-01
800500.0 1.033494000e+00 7.584790000e-01
810000.0 1.033688000e+00 7.666300000e-01
819500.0 1.035978000e+00 7.767300000e-01
829000.0 1.037412000e+00 7.860450000e-01
838500.0 1.037576000e+00 7.928570000e-01
848000.0 1.040387000e+00 8.026180000e-01
857500.0 1.041744000e+00 8.117170000e-01
867000.0 1.043059000e+00 8.206450000e-01
876500.0 1.045083000e+00 8.301280000e-01
886000.0 1.047580000e+00 8.372330000e-01
895500.0 1.048771000e+00 8.476270000e-01
905000.0 1.051251000e+00 8.565490000e-01
914500.0 1.052913000e+00 8.662200000e-01
924000.0 1.055086000e+00 8.735380000e-01
933500.0 1.056916000e+00 8.836140000e-01
943000.0 1.060139000e+00 8.924800000e-01
952500.0 1.060631000e+00 9.004350000e-01
962000.0 1.063448000e+00 9.095060000e-01
971500.0 1.065844000e+00 9.179570000e-01
981000.0 1.068001000e+00 9.263720000e-01
990500.0 1.071112000e+00 9.365380000e-01
1000000.0 1.073084000e+00 9.440800000e-01
1090000.0 1.099137000e+00 1.023818000e+00
1180000.0 1.135010000e+00 1.098577000e+00
1270000.0 1.184189000e+00 1.168494000e+00
1360000.0 1.240783000e+00 1.228955000e+00
1450000.0 1.307293000e+00 1.283391000e+00
1540000.0 1.384056000e+00 1.321961000e+00
1630000.0 1.467694000e+00 1.346433000e+00
1720000.0 1.555823000e+00 1.351701000e+00
1810000.0 1.645783000e+00 1.340462000e+00
1900000.0 1.730256000e+00 1.303348000e+00
1990000.0 1.807291000e+00 1.250921000e+00
2080000.0 1.870485000e+00 1.180744000e+00
2170000.0 1.924921000e+00 1.098697000e+00
2260000.0 1.946333000e+00 1.009270000e+00
2350000.0 1.962115000e+00 9.206120000e-01
2440000.0 1.962173000e+00 8.332620000e-01
2530000.0 1.944258000e+00 7.496310000e-01
2620000.0 1.921624000e+00 6.766420000e-01
2710000.0 1.891072000e+00 6.079290000e-01
2800000.0 1.854185000e+00 5.475180000e-01
2890000.0 1.821217000e+00 4.780200000e-01
2980000.0 1.777805000e+00 4.516930000e-01
3070000.0 1.740697000e+00 4.080300000e-01
3160000.0 1.703281000e+00 3.749270000e-01
3250000.0 1.667080000e+00 3.428820000e-01
3340000.0 1.629835000e+00 3.138690000e-01
3430000.0 1.598986000e+00 2.872540000e-01
3520000.0 1.565690000e+00 2.657740000e-01
3610000.0 1.541160000e+00 2.432070000e-01
3700000.0 1.512576000e+00 2.252650000e-01
3790000.0 1.487738000e+00 2.066980000e-01
3880000.0 1.461900000e+00 1.881400000e-01
3970000.0 1.442649000e+00 1.708720000e-01
4060000.0 1.420719000e+00 1.559050000e-01
4150000.0 1.402770000e+00 1.426210000e-01
4240000.0 1.386355000e+00 1.261420000e-01
4330000.0 1.370275000e+00 1.125950000e-01
4420000.0 1.355577000e+00 9.818000000e-02
4510000.0 1.342811000e+00 8.444300000e-02
4600000.0 1.331126000e+00 7.010100000e-02
4690000.0 1.320339000e+00 5.635100000e-02
4780000.0 1.310934000e+00 4.342700000e-02
4870000.0 1.302739000e+00 3.043500000e-02
4960000.0 1.294870000e+00 1.794800000e-02
5050000.0 1.279602000e+00 5.507000000e-03
5140000.0 1.274269000e+00 -8.376000000e-03
5230000.0 1.270551000e+00 -1.925800000e-02
5320000.0 1.264723000e+00 -3.277500000e-02
5410000.0 1.260995000e+00 -4.433200000e-02
5500000.0 1.257570000e+00 -5.739900000e-02
5590000.0 1.253234000e+00 -6.789900000e-02
5680000.0 1.248858000e+00 -7.866700000e-02
5770000.0 1.246108000e+00 -8.938200000e-02
5860000.0 1.243475000e+00 -1.007000000e-01
5950000.0 1.240499000e+00 -1.118770000e-01
6040000.0 1.236815000e+00 -1.223350000e-01
6130000.0 1.233748000e+00 -1.321480000e-01
6220000.0 1.232826000e+00 -1.410510000e-01
6310000.0 1.230462000e+00 -1.502650000e-01
6400000.0 1.227450000e+00 -1.580080000e-01
6490000.0 1.226682000e+00 -1.664870000e-01
6580000.0 1.225525000e+00 -1.740330000e-01
6670000.0 1.223125000e+00 -1.806860000e-01
6760000.0 1.221975000e+00 -1.870540000e-01
6850000.0 1.220783000e+00 -1.923310000e-01
6940000.0 1.219712000e+00 -1.985980000e-01
7030000.0 1.218398000e+00 -2.017540000e-01
7120000.0 1.218463000e+00 -2.062740000e-01
7210000.0 1.218143000e+00 -2.079160000e-01
7300000.0 1.217646000e+00 -2.098430000e-01
7390000.0 1.217348000e+00 -2.108180000e-01
7480000.0 1.217314000e+00 -2.110090000e-01
7570000.0 -2.600670000e-01 -1.256796000e+00
7660000.0 -2.586840000e-01 -1.257366000e+00
7750000.0 -2.590200000e-01 -1.258178000e+00
7840000.0 -2.588950000e-01 -1.258168000e+00
7930000.0 -2.585320000e-01 -1.259046000e+00
8020000.0 -2.584680000e-01 -1.258249000e+00
8110000.0 -2.565980000e-01 -1.257575000e+00
8200000.0 -2.570230000e-01 -1.258930000e+00
8290000.0 -2.564270000e-01 -1.260269000e+00
8380000.0 -2.553730000e-01 -1.260768000e+00
8470000.0 -2.552490000e-01 -1.261754000e+00
8560000.0 -2.551270000e-01 -1.260964000e+00
8650000.0 -2.555190000e-01 -1.262364000e+00
8740000.0 -2.526840000e-01 -1.263559000e+00
8830000.0 -2.532820000e-01 -1.263939000e+00
8920000.0 -2.532430000e-01 -1.263279000e+00
9010000.0 -2.524390000e-01 -1.265610000e+00
9100000.0 -2.525510000e-01 -1.264699000e+00
9190000.0 -2.507510000e-01 -1.266009000e+00
9280000.0 -2.516620000e-01 -1.265240000e+00
9370000.0 -2.500960000e-01 -1.267582000e+00
9460000.0 -2.511750000e-01 -1.267926000e+00
9550000.0 -2.505990000e-01 -1.267280000e+00
9640000.0 -2.492900000e-01 -1.269097000e+00
9730000.0 -2.492410000e-01 -1.269595000e+00
9820000.0 -2.478660000e-01 -1.271147000e+00
9910000.0 -2.476820000e-01 -1.271069000e+00
10000000.0 -2.461770000e-01 -1.272299000e+00
10900000.0 -2.437150000e-01 -1.281208000e+00
11800000.0 -2.401810000e-01 -1.290655000e+00
12700000.0 -2.364340000e-01 -1.300324000e+00
13600000.0 -2.335830000e-01 -1.308813000e+00
14500000.0 -2.294590000e-01 -1.321502000e+00
15400000.0 -2.243130000e-01 -1.332049000e+00
16300000.0 -2.232550000e-01 -1.343036000e+00
17200000.0 -2.168170000e-01 -1.353827000e+00
18100000.0 -2.127110000e-01 -1.367356000e+00
19000000.0 -2.071400000e-01 -1.378586000e+00
19900000.0 -2.017610000e-01 -1.391399000e+00
20800000.0 -1.964130000e-01 -1.405572000e+00
21700000.0 -1.914680000e-01 -1.416314000e+00
22600000.0 -1.850480000e-01 -1.429776000e+00
23500000.0 -1.792170000e-01 -1.443610000e+00
24400000.0 -1.701340000e-01 -1.457203000e+00
25300000.0 -1.639670000e-01 -1.469878000e+00
26200000.0 -1.559520000e-01 -1.483791000e+00
27100000.0 -1.481220000e-01 -1.499772000e+00
28000000.0 -1.401330000e-01 -1.512556000e+00
28900000.0 -1.302590000e-01 -1.527808000e+00
29800000.0 -1.206430000e-01 -1.543380000e+00
30700000.0 -1.097470000e-01 -1.558580000e+00
31600000.0 -1.006980000e-01 -1.572899000e+00
32500000.0 -8.767200000e-02 -1.587079000e+00
33400000.0 -7.632700000e-02 -1.602689000e+00
34300000.0 -6.413000000e-02 -1.618503000e+00
35200000.0 -5.156700000e-02 -1.634412000e+00
36100000.0 -3.773000000e-02 -1.650017000e+00
37000000.0 -2.318000000e-02 -1.664252000e+00
37900000.0 -6.961000000e-03 -1.680739000e+00
38800000.0 7.962000000e-03 -1.696018000e+00
39700000.0 2.402900000e-02 -1.712640000e+00
40600000.0 4.121200000e-02 -1.726368000e+00
41500000.0 5.977000000e-02 -1.743015000e+00
42400000.0 7.958800000e-02 -1.758715000e+00
43300000.0 9.795500000e-02 -1.772575000e+00
44200000.0 1.177530000e-01 -1.788001000e+00
45100000.0 1.403200000e-01 -1.801051000e+00
46000000.0 1.622280000e-01 -1.816840000e+00
46900000.0 1.847070000e-01 -1.830837000e+00
47800000.0 2.091030000e-01 -1.843889000e+00
48700000.0 2.328100000e-01 -1.856357000e+00
49600000.0 2.601480000e-01 -1.868776000e+00
50500000.0 2.879340000e-01 -1.882007000e+00
51400000.0 3.149350000e-01 -1.893151000e+00
52300000.0 3.422380000e-01 -1.904821000e+00
53200000.0 3.710070000e-01 -1.912330000e+00
54100000.0 4.027120000e-01 -1.921178000e+00
55000000.0 4.342720000e-01 -1.931198000e+00
55900000.0 4.656480000e-01 -1.938420000e+00
56800000.0 4.973040000e-01 -1.944220000e+00
57700000.0 5.325240000e-01 -1.949381000e+00
58600000.0 5.674890000e-01 -1.953114000e+00
59500000.0 6.012990000e-01 -1.954043000e+00
60400000.0 6.368340000e-01 -1.955661000e+00
61300000.0 6.728920000e-01 -1.953780000e+00
62200000.0 7.117930000e-01 -1.952755000e+00
63100000.0 7.466890000e-01 -1.949701000e+00
64000000.0 7.822140000e-01 -1.943768000e+00
64900000.0 8.223690000e-01 -1.937576000e+00
65800000.0 8.595160000e-01 -1.928445000e+00
66700000.0 8.975330000e-01 -1.917629000e+00
67600000.0 9.317620000e-01 -1.907144000e+00
68500000.0 9.694260000e-01 -1.893564000e+00
69400000.0 1.004226000e+00 -1.875516000e+00
70300000.0 1.040093000e+00 -1.858790000e+00
71200000.0 1.077329000e+00 -1.840040000e+00
72100000.0 1.110793000e+00 -1.820557000e+00
73000000.0 1.143711000e+00 -1.798473000e+00
73900000.0 1.175143000e+00 -1.773845000e+00
74800000.0 1.205994000e+00 -1.748474000e+00
75700000.0 1.237383000e+00 -1.722702000e+00
76600000.0 1.267042000e+00 -1.694155000e+00
77500000.0 1.292862000e+00 -1.665222000e+00
78400000.0 1.317708000e+00 -1.635740000e+00
79300000.0 1.342319000e+00 -1.606844000e+00
80200000.0 1.364393000e+00 -1.573538000e+00
81100000.0 1.384224000e+00 -1.543753000e+00
82000000.0 1.403819000e+00 -1.510735000e+00
82900000.0 1.420402000e+00 -1.476096000e+00
83800000.0 1.439582000e+00 -1.443128000e+00
84700000.0 1.451434000e+00 -1.410947000e+00
85600000.0 1.465025000e+00 -1.375113000e+00
86500000.0 1.476604000e+00 -1.343792000e+00
87400000.0 1.486163000e+00 -1.308527000e+00
88300000.0 1.492330000e+00 -1.275962000e+00
89200000.0 1.500777000e+00 -1.242917000e+00
90100000.0 1.506175000e+00 -1.208947000e+00
91000000.0 1.510214000e+00 -1.177230000e+00
91900000.0 1.512401000e+00 -1.144290000e+00
92800000.0 1.515215000e+00 -1.112501000e+00
93700000.0 1.517059000e+00 -1.083331000e+00
94600000.0 1.513490000e+00 -1.054964000e+00
95500000.0 1.513365000e+00 -1.020243000e+00
96400000.0 1.511449000e+00 -9.937540000e-01
97300000.0 1.508852000e+00 -9.642420000e-01
98200000.0 1.504228000e+00 -9.376930000e-01
99100000.0 1.500499000e+00 -9.102120000e-01
100000000.0 1.494906000e+00 -8.840510000e-01
109000000.0 1.414839000e+00 -6.594220000e-01
118000000.0 1.309578000e+00 -4.987130000e-01
127000000.0 1.203402000e+00 -3.833020000e-01
136000000.0 1.102517000e+00 -3.096720000e-01
145000000.0 1.011314000e+00 -2.553360000e-01
154000000.0 9.627960000e-01 -2.361870000e-01
163000000.0 9.595020000e-01 -2.492000000e-01
172000000.0 9.559760000e-01 -2.635440000e-01
181000000.0 9.529730000e-01 -2.747580000e-01
190000000.0 9.482470000e-01 -2.890870000e-01
199000000.0 9.435980000e-01 -3.029100000e-01
208000000.0 9.397780000e-01 -3.150300000e-01
217000000.0 9.354070000e-01 -3.274880000e-01
226000000.0 9.320490000e-01 -3.383020000e-01
235000000.0 9.250340000e-01 -3.504120000e-01
244000000.0 9.197950000e-01 -3.636130000e-01
253000000.0 9.135930000e-01 -3.748240000e-01
262000000.0 9.073370000e-01 -3.869490000e-01
271000000.0 9.011650000e-01 -3.989800000e-01
280000000.0 8.956960000e-01 -4.098740000e-01
289000000.0 8.884170000e-01 -4.223660000e-01
298000000.0 8.790440000e-01 -4.320540000e-01
307000000.0 8.770960000e-01 -4.449180000e-01
316000000.0 8.693500000e-01 -4.547460000e-01
325000000.0 8.652160000e-01 -4.669240000e-01
334000000.0 8.563510000e-01 -4.773960000e-01
343000000.0 8.546030000e-01 -4.890550000e-01
352000000.0 8.467560000e-01 -4.991310000e-01
361000000.0 8.387050000e-01 -5.125190000e-01
370000000.0 8.753950000e-01 -4.833500000e-01
379000000.0 8.366180000e-01 -5.163370000e-01
388000000.0 8.183680000e-01 -5.409840000e-01
397000000.0 7.713300000e-01 -5.897300000e-01
406000000.0 8.004270000e-01 -5.621270000e-01
415000000.0 7.926850000e-01 -5.698280000e-01
424000000.0 7.823810000e-01 -5.812670000e-01
433000000.0 7.765130000e-01 -5.914010000e-01
442000000.0 7.659480000e-01 -5.993960000e-01
451000000.0 7.551720000e-01 -6.103810000e-01
460000000.0 7.518610000e-01 -6.177790000e-01
469000000.0 7.456360000e-01 -6.285350000e-01
478000000.0 7.382010000e-01 -6.387970000e-01
487000000.0 7.320300000e-01 -6.491240000e-01
496000000.0 7.245850000e-01 -6.582480000e-01
505000000.0 7.177410000e-01 -6.656450000e-01
514000000.0 7.070690000e-01 -6.765570000e-01
523000000.0 6.990430000e-01 -6.873200000e-01
532000000.0 6.923750000e-01 -6.936840000e-01
541000000.0 6.836540000e-01 -7.018100000e-01
550000000.0 6.770490000e-01 -7.099780000e-01
559000000.0 6.638690000e-01 -7.202360000e-01
568000000.0 6.523650000e-01 -7.273490000e-01
577000000.0 6.448680000e-01 -7.319430000e-01
586000000.0 6.310960000e-01 -7.407300000e-01
595000000.0 6.183040000e-01 -7.469630000e-01
604000000.0 6.082170000e-01 -7.575290000e-01
613000000.0 5.967400000e-01 -7.666330000e-01
622000000.0 5.907880000e-01 -7.760160000e-01
631000000.0 5.852060000e-01 -7.866430000e-01
640000000.0 5.758070000e-01 -7.957560000e-01
649000000.0 5.669790000e-01 -8.027140000e-01
658000000.0 5.538490000e-01 -8.100490000e-01
667000000.0 5.466090000e-01 -8.157520000e-01
676000000.0 5.324000000e-01 -8.270350000e-01
685000000.0 5.219190000e-01 -8.343620000e-01
694000000.0 5.088610000e-01 -8.365890000e-01
703000000.0 4.966720000e-01 -8.429290000e-01
712000000.0 4.836290000e-01 -8.460920000e-01
721000000.0 4.750460000e-01 -8.491010000e-01
730000000.0 4.617170000e-01 -8.519110000e-01
739000000.0 4.471930000e-01 -8.521300000e-01
748000000.0 4.333300000e-01 -8.539620000e-01
757000000.0 4.265450000e-01 -8.597870000e-01
766000000.0 4.120380000e-01 -8.677050000e-01
775000000.0 3.982490000e-01 -8.772010000e-01
784000000.0 3.852820000e-01 -8.835390000e-01
793000000.0 3.709510000e-01 -8.904380000e-01
802000000.0 3.610180000e-01 -8.936770000e-01
811000000.0 3.524910000e-01 -8.967160000e-01
820000000.0 3.370430000e-01 -9.018220000e-01
829000000.0 3.270270000e-01 -9.043530000e-01
838000000.0 3.175950000e-01 -9.085970000e-01
847000000.0 3.035390000e-01 -9.123040000e-01
856000000.0 2.976040000e-01 -9.126860000e-01
865000000.0 2.864460000e-01 -9.130370000e-01
874000000.0 2.743100000e-01 -9.178840000e-01
883000000.0 2.674380000e-01 -9.174090000e-01
892000000.0 2.591070000e-01 -9.173240000e-01
901000000.0 2.474020000e-01 -9.158660000e-01
910000000.0 2.351060000e-01 -9.191670000e-01
919000000.0 2.230180000e-01 -9.222560000e-01
928000000.0 2.088760000e-01 -9.238940000e-01
937000000.0 1.961110000e-01 -9.249370000e-01
946000000.0 1.877230000e-01 -9.254420000e-01
955000000.0 1.569000000e-01 -9.292530000e-01
964000000.0 1.631270000e-01 -9.279080000e-01
973000000.0 1.681030000e-01 -9.286270000e-01
982000000.0 1.444780000e-01 -9.313790000e-01
991000000.0 1.132430000e-01 -9.341500000e-01
1000000000.0 1.193240000e-01 -9.338720000e-01
1004500000.0 1.134870000e-01 -9.352380000e-01
1009000000.0 1.108390000e-01 -9.348220000e-01
1013500000.0 1.077300000e-01 -9.358480000e-01
1018000000.0 9.929600000e-02 -9.371900000e-01
1022500000.0 9.455500000e-02 -9.382610000e-01
1027000000.0 9.141300000e-02 -9.378060000e-01
1031500000.0 8.609900000e-02 -9.389980000e-01
1036000000.0 7.913300000e-02 -9.390520000e-01
1040500000.0 7.399600000e-02 -9.389510000e-01
1045000000.0 6.776300000e-02 -9.386600000e-01
1049500000.0 6.786500000e-02 -9.393740000e-01
1054000000.0 6.176800000e-02 -9.397030000e-01
1058500000.0 5.502900000e-02 -9.389850000e-01
1063000000.0 4.806500000e-02 -9.402540000e-01
1067500000.0 4.425500000e-02 -9.398220000e-01
1072000000.0 3.585800000e-02 -9.405830000e-01
1076500000.0 3.145200000e-02 -9.417930000e-01
1081000000.0 3.308100000e-02 -9.412900000e-01
1085500000.0 2.107900000e-02 -9.409950000e-01
1090000000.0 2.162400000e-02 -9.403110000e-01
1094500000.0 1.265700000e-02 -9.408840000e-01
1099000000.0 7.251000000e-03 -9.410560000e-01
1103500000.0 4.443000000e-03 -9.438650000e-01
1108000000.0 -3.661000000e-03 -9.423120000e-01
1112500000.0 -1.380700000e-02 -9.410960000e-01
1117000000.0 -1.616600000e-02 -9.383730000e-01
1121500000.0 -2.469600000e-02 -9.411240000e-01
1126000000.0 -2.271600000e-02 -9.442400000e-01
1130500000.0 -3.346300000e-02 -9.397140000e-01
1135000000.0 -3.918300000e-02 -9.409290000e-01
1139500000.0 -4.524900000e-02 -9.409190000e-01
1144000000.0 -1.353000000e-02 -9.476190000e-01
1148500000.0 -5.354100000e-02 -9.394280000e-01
1153000000.0 -4.194800000e-02 -9.395970000e-01
1157500000.0 -6.326800000e-02 -9.355800000e-01
1162000000.0 -7.201700000e-02 -9.342510000e-01
1166500000.0 -7.581200000e-02 -9.362030000e-01
1171000000.0 -7.790000000e-02 -9.303490000e-01
1175500000.0 -8.775500000e-02 -9.310460000e-01
1180000000.0 -9.543100000e-02 -9.291450000e-01
1184500000.0 -9.963400000e-02 -9.317060000e-01
1189000000.0 -1.216830000e-01 -9.240720000e-01
1193500000.0 -1.144710000e-01 -9.256630000e-01
1198000000.0 -1.213890000e-01 -9.274590000e-01
1202500000.0 -1.205880000e-01 -9.282110000e-01
1207000000.0 -1.308450000e-01 -9.252150000e-01
1211500000.0 -1.304630000e-01 -9.276740000e-01
1216000000.0 -1.337700000e-01 -9.257240000e-01
1220500000.0 -1.491280000e-01 -9.238890000e-01
1225000000.0 -1.435130000e-01 -9.278720000e-01
1229500000.0 -1.515500000e-01 -9.268730000e-01
1234000000.0 -1.587910000e-01 -9.263790000e-01
1238500000.0 -1.623260000e-01 -9.235550000e-01
1243000000.0 -1.681320000e-01 -9.278970000e-01
1247500000.0 -1.713760000e-01 -9.208040000e-01
1252000000.0 -1.746250000e-01 -9.172730000e-01
1256500000.0 -1.804870000e-01 -9.189480000e-01
1261000000.0 -1.908860000e-01 -9.225660000e-01
1265500000.0 -1.951250000e-01 -9.225160000e-01
1270000000.0 -1.935920000e-01 -9.216150000e-01
1274500000.0 -2.021010000e-01 -9.179470000e-01
1279000000.0 -2.086420000e-01 -9.191930000e-01
1283500000.0 -2.104340000e-01 -9.101220000e-01
1288000000.0 -2.159890000e-01 -9.105070000e-01
1292500000.0 -2.162880000e-01 -9.144440000e-01
1297000000.0 -2.237320000e-01 -9.077220000e-01
1301500000.0 -2.327510000e-01 -9.098380000e-01
1306000000.0 -2.414600000e-01 -9.052570000e-01
1310500000.0 -2.431780000e-01 -9.044830000e-01
1315000000.0 -2.489550000e-01 -8.988450000e-01
1319500000.0 -2.518120000e-01 -9.046040000e-01
1324000000.0 -2.597860000e-01 -8.965490000e-01
1328500000.0 -2.616450000e-01 -9.006860000e-01
1333000000.0 -2.688380000e-01 -9.028580000e-01
1337500000.0 -2.751900000e-01 -8.955590000e-01
1342000000.0 -2.769930000e-01 -8.875880000e-01
1346500000.0 -2.908800000e-01 -8.838360000e-01
1351000000.0 -2.960890000e-01 -8.765250000e-01
1355500000.0 -2.937380000e-01 -8.858710000e-01
1360000000.0 -2.954480000e-01 -8.866750000e-01
1364500000.0 -2.999530000e-01 -8.805550000e-01
1369000000.0 -3.130320000e-01 -8.841440000e-01
1373500000.0 -3.128860000e-01 -8.857020000e-01
1378000000.0 -3.242590000e-01 -8.802290000e-01
1382500000.0 -3.196160000e-01 -8.816990000e-01
1387000000.0 -3.268030000e-01 -8.781710000e-01
1391500000.0 -3.323750000e-01 -8.748720000e-01
1396000000.0 -3.382630000e-01 -8.849710000e-01
1400500000.0 -3.494180000e-01 -8.818340000e-01
1405000000.0 -3.582660000e-01 -8.820930000e-01
1409500000.0 -3.559480000e-01 -8.822810000e-01
1414000000.0 -3.559100000e-01 -8.720360000e-01
1418500000.0 -3.713350000e-01 -8.684960000e-01
1423000000.0 -3.654540000e-01 -8.810400000e-01
1427500000.0 -3.641670000e-01 -8.770670000e-01
1432000000.0 -3.669250000e-01 -8.719680000e-01
1436500000.0 -3.776400000e-01 -8.649730000e-01
1441000000.0 -3.837650000e-01 -8.675030000e-01
1445500000.0 -3.823890000e-01 -8.598950000e-01
1450000000.0 -3.942440000e-01 -8.578250000e-01
