! piloto_corto / corto_aluminio / r01
# HZ S RI R 50
50000.0 5.951100000e-01 -6.030800000e-02
59500.0 1.007014000e+00 -5.926100000e-02
69000.0 1.003101000e+00 -4.500700000e-02
78500.0 1.002833000e+00 -3.207400000e-02
88000.0 1.002014000e+00 -1.984200000e-02
97500.0 1.000608000e+00 -6.850000000e-03
107000.0 1.000473000e+00 4.322000000e-03
116500.0 9.996460000e-01 1.717800000e-02
126000.0 9.988650000e-01 2.784500000e-02
135500.0 1.000861000e+00 4.071600000e-02
145000.0 1.001066000e+00 5.359000000e-02
154500.0 1.001773000e+00 6.544700000e-02
164000.0 1.001331000e+00 7.743100000e-02
173500.0 1.001717000e+00 8.887900000e-02
183000.0 1.002103000e+00 1.006190000e-01
192500.0 1.002148000e+00 1.118460000e-01
202000.0 1.003300000e+00 1.238320000e-01
211500.0 1.003098000e+00 1.350170000e-01
221000.0 1.003370000e+00 1.466540000e-01
230500.0 1.003495000e+00 1.573300000e-01
240000.0 1.002220000e+00 1.683000000e-01
249500.0 1.005813000e+00 1.618030000e-01
259000.0 1.004249000e+00 1.912740000e-01
268500.0 1.004499000e+00 2.023480000e-01
278000.0 1.005266000e+00 2.131300000e-01
287500.0 1.005318000e+00 2.238530000e-01
297000.0 1.005672000e+00 2.346250000e-01
306500.0 1.010645000e+00 2.803420000e-01
316000.0 1.005844000e+00 2.568530000e-01
325500.0 1.006227000e+00 2.675330000e-01
335000.0 1.006240000e+00 2.779460000e-01
344500.0 1.005247000e+00 2.885420000e-01
354000.0 1.006597000e+00 2.989050000e-01
363500.0 1.006963000e+00 3.093490000e-01
373000.0 1.005270000e+00 3.190420000e-01
382500.0 1.868280000e-01 7.348500000e-02
392000.0 -5.398610000e-01 -1.318640000e-01
401500.0 -5.683030000e-01 -1.445480000e-01
411000.0 -1.763300000e-02 1.486200000e-02
420500.0 9.220730000e-01 3.390360000e-01
430000.0 1.006877000e+00 3.813020000e-01
439500.0 1.008590000e+00 3.912360000e-01
449000.0 1.008525000e+00 4.013920000e-01
458500.0 4.610700000e-01 1.915120000e-01
468000.0 -6.793790000e-01 -2.169580000e-01
477500.0 -9.117100000e-01 -2.997690000e-01
487000.0 -9.291580000e-01 -3.141360000e-01
496500.0 -9.113850000e-01 -3.161490000e-01
506000.0 -4.283620000e-01 -1.475200000e-01
515500.0 -2.094050000e-01 -6.614700000e-02
525000.0 -7.139390000e-01 -2.663660000e-01
534500.0 -8.480570000e-01 -3.248970000e-01
544000.0 -8.986640000e-01 -3.524330000e-01
553500.0 -9.135290000e-01 -3.649030000e-01
563000.0 -9.223740000e-01 -3.772500000e-01
572500.0 -9.316520000e-01 -3.887930000e-01
582000.0 -8.780670000e-01 -3.747460000e-01
591500.0 -2.797330000e-01 -1.123170000e-01
601000.0 5.042230000e-01 2.789410000e-01
610500.0 3.936110000e-01 2.234470000e-01
620000.0 -5.174220000e-01 -2.361790000e-01
629500.0 -8.143860000e-01 -3.835810000e-01
639000.0 -9.108320000e-01 -4.362560000e-01
648500.0 -9.366050000e-01 -4.572050000e-01
658000.0 -6.122280000e-01 -3.018020000e-01
667500.0 5.321690000e-01 3.281950000e-01
677000.0 3.161840000e-01 2.043400000e-01
686500.0 -8.173670000e-01 -4.263070000e-01
696000.0 -9.334960000e-01 -4.938420000e-01
705500.0 -9.426660000e-01 -5.057680000e-01
715000.0 -9.483460000e-01 -5.195280000e-01
724500.0 -9.408350000e-01 -5.221670000e-01
734000.0 -9.399750000e-01 -5.297110000e-01
743500.0 -9.524210000e-01 -5.436810000e-01
753000.0 -9.603590000e-01 -5.555150000e-01
762500.0 -9.640270000e-01 -5.660810000e-01
772000.0 -9.642570000e-01 -5.738950000e-01
781500.0 -9.675670000e-01 -5.827270000e-01
791000.0 -9.705260000e-01 -5.918710000e-01
800500.0 -9.750450000e-01 -6.032140000e-01
810000.0 -9.779100000e-01 -6.121810000e-01
819500.0 -9.877390000e-01 -6.260310000e-01
829000.0 -1.006469000e+00 -6.461410000e-01
838500.0 -1.012433000e+00 -6.577900000e-01
848000.0 -1.016355000e+00 -6.685760000e-01
857500.0 -1.023184000e+00 -6.811340000e-01
867000.0 -1.027712000e+00 -6.901210000e-01
876500.0 -1.030736000e+00 -7.001220000e-01
886000.0 -1.030499000e+00 -7.071350000e-01
895500.0 -1.025512000e+00 -7.124580000e-01
905000.0 -1.026122000e+00 -7.176570000e-01
914500.0 -1.026567000e+00 -7.267910000e-01
924000.0 -1.029456000e+00 -7.340780000e-01
933500.0 -1.032061000e+00 -7.429380000e-01
943000.0 -1.031167000e+00 -7.517060000e-01
952500.0 -1.029648000e+00 -7.555570000e-01
962000.0 -1.030010000e+00 -7.624020000e-01
971500.0 -1.027002000e+00 -7.668820000e-01
981000.0 -7.905710000e-01 -5.938050000e-01
990500.0 1.055035000e+00 9.156600000e-01
1000000.0 1.070215000e+00 9.367080000e-01
1090000.0 1.097021000e+00 1.019081000e+00
1180000.0 1.132554000e+00 1.093248000e+00
1270000.0 1.180553000e+00 1.162063000e+00
1360000.0 1.235554000e+00 1.224360000e+00
1450000.0 1.302437000e+00 1.279199000e+00
1540000.0 1.378267000e+00 1.317607000e+00
1630000.0 1.459670000e+00 1.342099000e+00
1720000.0 1.547109000e+00 1.350206000e+00
1810000.0 1.637879000e+00 1.336652000e+00
1900000.0 1.723364000e+00 1.306179000e+00
1990000.0 1.801939000e+00 1.254768000e+00
2080000.0 1.865435000e+00 1.187389000e+00
2170000.0 1.915750000e+00 1.104411000e+00
2260000.0 1.949694000e+00 1.015912000e+00
2350000.0 1.962521000e+00 9.280320000e-01
2440000.0 1.961720000e+00 8.391350000e-01
2530000.0 1.949176000e+00 7.554300000e-01
2620000.0 1.922713000e+00 6.823200000e-01
2710000.0 1.893144000e+00 6.144510000e-01
2800000.0 1.857670000e+00 5.523280000e-01
2890000.0 1.822354000e+00 4.987440000e-01
2980000.0 1.783841000e+00 4.544200000e-01
3070000.0 1.743879000e+00 4.093900000e-01
3160000.0 1.707347000e+00 3.759530000e-01
3250000.0 1.669044000e+00 3.427240000e-01
3340000.0 1.633679000e+00 3.139380000e-01
3430000.0 1.603313000e+00 2.870730000e-01
3520000.0 1.571239000e+00 2.630130000e-01
3610000.0 1.543427000e+00 2.414260000e-01
3700000.0 1.513754000e+00 2.219430000e-01
3790000.0 1.490783000e+00 2.029840000e-01
3880000.0 1.465322000e+00 1.859730000e-01
3970000.0 1.444379000e+00 1.693650000e-01
4060000.0 1.424535000e+00 1.522870000e-01
4150000.0 1.406072000e+00 1.372370000e-01
4240000.0 1.388285000e+00 1.218040000e-01
4330000.0 1.372376000e+00 1.066400000e-01
4420000.0 1.360017000e+00 9.265800000e-02
4510000.0 1.345277000e+00 7.878400000e-02
4600000.0 1.332294000e+00 6.632900000e-02
4690000.0 1.322266000e+00 5.128100000e-02
4780000.0 1.311722000e+00 3.843200000e-02
4870000.0 1.303905000e+00 2.483400000e-02
4960000.0 1.297002000e+00 1.313900000e-02
5050000.0 1.281912000e+00 6.650000000e-04
5140000.0 1.275760000e+00 -1.282800000e-02
5230000.0 1.271053000e+00 -2.459700000e-02
5320000.0 1.266668000e+00 -3.719500000e-02
5410000.0 1.262285000e+00 -4.961300000e-02
5500000.0 1.257765000e+00 -6.156600000e-02
5590000.0 1.254323000e+00 -7.228300000e-02
5680000.0 1.250166000e+00 -8.423300000e-02
5770000.0 1.247107000e+00 -9.605800000e-02
5860000.0 1.243806000e+00 -1.069980000e-01
5950000.0 1.241055000e+00 -1.166060000e-01
6040000.0 1.238221000e+00 -1.280850000e-01
6130000.0 1.234708000e+00 -1.367210000e-01
6220000.0 1.232359000e+00 -1.457400000e-01
6310000.0 1.230124000e+00 -1.565630000e-01
6400000.0 1.228374000e+00 -1.645800000e-01
6490000.0 1.225383000e+00 -1.707430000e-01
6580000.0 1.224322000e+00 -1.790580000e-01
6670000.0 1.223672000e+00 -1.856870000e-01
6760000.0 1.221499000e+00 -1.919750000e-01
6850000.0 1.220250000e+00 -1.982560000e-01
6940000.0 1.218647000e+00 -2.022480000e-01
7030000.0 1.218791000e+00 -2.076600000e-01
7120000.0 1.218557000e+00 -2.113030000e-01
7210000.0 1.216586000e+00 -2.148920000e-01
7300000.0 1.217684000e+00 -2.153040000e-01
7390000.0 1.218124000e+00 -2.165760000e-01
7480000.0 1.216784000e+00 -2.155380000e-01
7570000.0 -2.665470000e-01 -1.256585000e+00
7660000.0 -2.679700000e-01 -1.254173000e+00
7750000.0 -2.652510000e-01 -1.256146000e+00
7840000.0 -2.654750000e-01 -1.257274000e+00
7930000.0 -2.645730000e-01 -1.256479000e+00
8020000.0 -2.643330000e-01 -1.257517000e+00
8110000.0 -2.631010000e-01 -1.257338000e+00
8200000.0 -2.661400000e-01 -1.258314000e+00
8290000.0 -2.655730000e-01 -1.258507000e+00
8380000.0 -2.649430000e-01 -1.259256000e+00
8470000.0 -2.626410000e-01 -1.259860000e+00
8560000.0 -2.610300000e-01 -1.259997000e+00
8650000.0 -2.613120000e-01 -1.261467000e+00
8740000.0 -2.595330000e-01 -1.261215000e+00
8830000.0 -2.603140000e-01 -1.263144000e+00
8920000.0 -2.587970000e-01 -1.262912000e+00
9010000.0 -2.582610000e-01 -1.263295000e+00
9100000.0 -2.583340000e-01 -1.264003000e+00
9190000.0 -2.574300000e-01 -1.264143000e+00
9280000.0 -2.569980000e-01 -1.265701000e+00
9370000.0 -2.566260000e-01 -1.265584000e+00
9460000.0 -2.562830000e-01 -1.267395000e+00
9550000.0 -2.553290000e-01 -1.266562000e+00
9640000.0 -2.560470000e-01 -1.268992000e+00
9730000.0 -2.556090000e-01 -1.270223000e+00
9820000.0 -2.553670000e-01 -1.270207000e+00
9910000.0 -2.545310000e-01 -1.270147000e+00
10000000.0 -2.564560000e-01 -1.270886000e+00
10900000.0 -2.467940000e-01 -1.280290000e+00
11800000.0 -2.442320000e-01 -1.289096000e+00
12700000.0 -2.402240000e-01 -1.299206000e+00
13600000.0 -2.375770000e-01 -1.310148000e+00
14500000.0 -2.338470000e-01 -1.320464000e+00
15400000.0 -2.299290000e-01 -1.331344000e+00
16300000.0 -2.264980000e-01 -1.343529000e+00
17200000.0 -2.215530000e-01 -1.354611000e+00
18100000.0 -2.175800000e-01 -1.367458000e+00
19000000.0 -2.137400000e-01 -1.379118000e+00
19900000.0 -2.081470000e-01 -1.390608000e+00
20800000.0 -2.032750000e-01 -1.403817000e+00
21700000.0 -1.969850000e-01 -1.416822000e+00
22600000.0 -1.924220000e-01 -1.429232000e+00
23500000.0 -1.849410000e-01 -1.443990000e+00
24400000.0 -1.788760000e-01 -1.456447000e+00
25300000.0 -1.712060000e-01 -1.470578000e+00
26200000.0 -1.647090000e-01 -1.484298000e+00
27100000.0 -1.559700000e-01 -1.498382000e+00
28000000.0 -1.485570000e-01 -1.513497000e+00
28900000.0 -1.396520000e-01 -1.528053000e+00
29800000.0 -1.807690000e-01 -1.526783000e+00
30700000.0 -1.198560000e-01 -1.557867000e+00
31600000.0 -1.096500000e-01 -1.572367000e+00
32500000.0 -9.790200000e-02 -1.587069000e+00
33400000.0 -8.801800000e-02 -1.600844000e+00
34300000.0 -7.595200000e-02 -1.617763000e+00
35200000.0 -6.423200000e-02 -1.633955000e+00
36100000.0 -4.917300000e-02 -1.648978000e+00
37000000.0 -3.452200000e-02 -1.666276000e+00
37900000.0 -2.002900000e-02 -1.680465000e+00
38800000.0 -3.695000000e-03 -1.697510000e+00
39700000.0 1.429000000e-02 -1.712569000e+00
40600000.0 2.872900000e-02 -1.728132000e+00
41500000.0 4.663900000e-02 -1.742499000e+00
42400000.0 6.587800000e-02 -1.759491000e+00
43300000.0 8.478200000e-02 -1.772818000e+00
44200000.0 1.042910000e-01 -1.788997000e+00
45100000.0 1.257200000e-01 -1.803283000e+00
46000000.0 1.466220000e-01 -1.819203000e+00
46900000.0 1.701240000e-01 -1.831761000e+00
47800000.0 1.940040000e-01 -1.845595000e+00
48700000.0 2.171410000e-01 -1.859285000e+00
49600000.0 2.431610000e-01 -1.871519000e+00
50500000.0 2.704550000e-01 -1.884747000e+00
51400000.0 2.974270000e-01 -1.895200000e+00
52300000.0 3.246710000e-01 -1.907598000e+00
53200000.0 3.558410000e-01 -1.917873000e+00
54100000.0 3.852660000e-01 -1.926954000e+00
55000000.0 4.170490000e-01 -1.936586000e+00
55900000.0 4.485000000e-01 -1.943533000e+00
56800000.0 4.809210000e-01 -1.947911000e+00
57700000.0 5.128570000e-01 -1.955073000e+00
58600000.0 5.483820000e-01 -1.958046000e+00
59500000.0 5.803670000e-01 -1.959592000e+00
60400000.0 6.170820000e-01 -1.963177000e+00
61300000.0 6.518520000e-01 -1.962662000e+00
62200000.0 6.898160000e-01 -1.960137000e+00
63100000.0 7.262060000e-01 -1.958827000e+00
64000000.0 7.620710000e-01 -1.953363000e+00
64900000.0 7.992570000e-01 -1.946228000e+00
65800000.0 8.402540000e-01 -1.936565000e+00
66700000.0 8.762330000e-01 -1.927139000e+00
67600000.0 9.145680000e-01 -1.915947000e+00
68500000.0 9.504920000e-01 -1.902451000e+00
69400000.0 9.845600000e-01 -1.889821000e+00
70300000.0 1.022081000e+00 -1.872209000e+00
71200000.0 1.056483000e+00 -1.853181000e+00
72100000.0 1.090129000e+00 -1.835751000e+00
73000000.0 1.123574000e+00 -1.812835000e+00
73900000.0 1.154469000e+00 -1.790142000e+00
74800000.0 1.186333000e+00 -1.765851000e+00
75700000.0 1.215118000e+00 -1.739455000e+00
76600000.0 1.245004000e+00 -1.713771000e+00
77500000.0 1.272231000e+00 -1.684733000e+00
78400000.0 1.296316000e+00 -1.655700000e+00
79300000.0 1.320319000e+00 -1.624117000e+00
80200000.0 1.345348000e+00 -1.594661000e+00
81100000.0 1.364247000e+00 -1.564115000e+00
82000000.0 1.383810000e+00 -1.529669000e+00
82900000.0 1.400499000e+00 -1.498464000e+00
83800000.0 1.419436000e+00 -1.464797000e+00
84700000.0 1.433569000e+00 -1.430865000e+00
85600000.0 1.446182000e+00 -1.401039000e+00
86500000.0 1.457759000e+00 -1.365520000e+00
87400000.0 1.468396000e+00 -1.332350000e+00
88300000.0 1.477720000e+00 -1.297557000e+00
89200000.0 1.484450000e+00 -1.264202000e+00
90100000.0 1.490499000e+00 -1.229940000e+00
91000000.0 1.495869000e+00 -1.197973000e+00
91900000.0 1.498212000e+00 -1.165284000e+00
92800000.0 1.500961000e+00 -1.136342000e+00
93700000.0 1.502381000e+00 -1.105792000e+00
94600000.0 1.501474000e+00 -1.076009000e+00
95500000.0 1.501167000e+00 -1.045169000e+00
96400000.0 1.497682000e+00 -1.019294000e+00
97300000.0 1.494736000e+00 -9.885940000e-01
98200000.0 1.491579000e+00 -9.617750000e-01
99100000.0 1.488161000e+00 -9.344680000e-01
100000000.0 1.480825000e+00 -9.094510000e-01
109000000.0 1.408105000e+00 -6.734990000e-01
118000000.0 1.303717000e+00 -5.124360000e-01
127000000.0 1.199848000e+00 -3.978050000e-01
136000000.0 1.097852000e+00 -3.239620000e-01
145000000.0 1.008103000e+00 -2.674710000e-01
154000000.0 9.600030000e-01 -2.480040000e-01
163000000.0 9.570410000e-01 -2.625920000e-01
172000000.0 9.531840000e-01 -2.754080000e-01
181000000.0 9.492130000e-01 -2.892580000e-01
190000000.0 9.440130000e-01 -3.040250000e-01
199000000.0 9.402870000e-01 -3.164610000e-01
208000000.0 9.347340000e-01 -3.294070000e-01
217000000.0 9.300270000e-01 -3.423000000e-01
226000000.0 9.230290000e-01 -3.563520000e-01
235000000.0 9.197180000e-01 -3.679380000e-01
244000000.0 9.126850000e-01 -3.819190000e-01
253000000.0 9.075130000e-01 -3.929870000e-01
262000000.0 9.009400000e-01 -4.045350000e-01
271000000.0 8.934450000e-01 -4.170600000e-01
280000000.0 8.877370000e-01 -4.277870000e-01
289000000.0 8.815370000e-01 -4.401890000e-01
298000000.0 8.735270000e-01 -4.510420000e-01
307000000.0 8.652050000e-01 -4.655040000e-01
316000000.0 8.635150000e-01 -4.753920000e-01
325000000.0 8.565780000e-01 -4.893140000e-01
334000000.0 8.516160000e-01 -5.008660000e-01
343000000.0 8.457710000e-01 -5.091770000e-01
352000000.0 8.463300000e-01 -5.044870000e-01
361000000.0 8.546360000e-01 -5.047040000e-01
370000000.0 8.477700000e-01 -5.149920000e-01
379000000.0 8.148400000e-01 -5.515610000e-01
388000000.0 8.075830000e-01 -5.623350000e-01
397000000.0 8.102010000e-01 -5.586490000e-01
406000000.0 7.898240000e-01 -5.851190000e-01
415000000.0 7.691650000e-01 -6.047990000e-01
424000000.0 7.731030000e-01 -6.018440000e-01
433000000.0 7.630180000e-01 -6.126910000e-01
442000000.0 7.528610000e-01 -6.228960000e-01
451000000.0 7.441950000e-01 -6.315830000e-01
460000000.0 7.399350000e-01 -6.389720000e-01
469000000.0 7.317010000e-01 -6.503030000e-01
478000000.0 7.245290000e-01 -6.607510000e-01
487000000.0 7.186540000e-01 -6.694970000e-01
496000000.0 7.126430000e-01 -6.791540000e-01
505000000.0 7.041810000e-01 -6.886720000e-01
514000000.0 6.961670000e-01 -6.985190000e-01
523000000.0 6.871290000e-01 -7.081130000e-01
532000000.0 6.771970000e-01 -7.148070000e-01
541000000.0 6.681550000e-01 -7.242640000e-01
550000000.0 6.594570000e-01 -7.321310000e-01
559000000.0 6.457500000e-01 -7.428050000e-01
568000000.0 6.361370000e-01 -7.503330000e-01
577000000.0 6.283770000e-01 -7.541100000e-01
586000000.0 6.140480000e-01 -7.622470000e-01
595000000.0 6.020150000e-01 -7.717810000e-01
604000000.0 5.888450000e-01 -7.799540000e-01
613000000.0 5.815920000e-01 -7.916320000e-01
622000000.0 5.771210000e-01 -7.996570000e-01
631000000.0 5.656080000e-01 -8.080280000e-01
640000000.0 5.578290000e-01 -8.169260000e-01
649000000.0 5.497690000e-01 -8.290690000e-01
658000000.0 5.356000000e-01 -8.377460000e-01
667000000.0 5.263010000e-01 -8.451100000e-01
676000000.0 5.136170000e-01 -8.505520000e-01
685000000.0 5.035410000e-01 -8.559810000e-01
694000000.0 4.953460000e-01 -8.602490000e-01
703000000.0 5.323550000e-01 -8.802300000e-01
712000000.0 4.690280000e-01 -8.694280000e-01
721000000.0 4.556920000e-01 -8.696330000e-01
730000000.0 4.456300000e-01 -8.720260000e-01
739000000.0 4.304600000e-01 -8.751670000e-01
748000000.0 4.157080000e-01 -8.763860000e-01
757000000.0 4.044160000e-01 -8.818000000e-01
766000000.0 3.901260000e-01 -8.916300000e-01
775000000.0 3.762520000e-01 -8.986320000e-01
784000000.0 3.821400000e-01 -9.001530000e-01
793000000.0 3.535220000e-01 -9.134940000e-01
802000000.0 3.204840000e-01 -9.223140000e-01
811000000.0 3.276020000e-01 -9.199430000e-01
820000000.0 3.398180000e-01 -9.181610000e-01
829000000.0 3.060860000e-01 -9.302040000e-01
838000000.0 2.789390000e-01 -9.339170000e-01
847000000.0 2.849130000e-01 -9.326660000e-01
856000000.0 2.796760000e-01 -9.333130000e-01
865000000.0 2.681350000e-01 -9.344280000e-01
874000000.0 2.543440000e-01 -9.372600000e-01
883000000.0 2.465590000e-01 -9.358320000e-01
892000000.0 2.403860000e-01 -9.367930000e-01
901000000.0 2.314560000e-01 -9.379770000e-01
910000000.0 2.139070000e-01 -9.413240000e-01
919000000.0 2.040720000e-01 -9.440720000e-01
928000000.0 1.914420000e-01 -9.447760000e-01
937000000.0 1.832750000e-01 -9.447660000e-01
946000000.0 1.707270000e-01 -9.487070000e-01
955000000.0 1.579280000e-01 -9.490590000e-01
964000000.0 1.473510000e-01 -9.501600000e-01
973000000.0 1.375220000e-01 -9.518480000e-01
982000000.0 1.272510000e-01 -9.529770000e-01
991000000.0 1.175880000e-01 -9.543050000e-01
1000000000.0 1.042190000e-01 -9.561200000e-01
1004500000.0 1.184980000e-01 -9.550490000e-01
1009000000.0 1.148320000e-01 -9.534510000e-01
1013500000.0 1.067330000e-01 -9.538100000e-01
1018000000.0 1.054890000e-01 -9.536300000e-01
1022500000.0 1.001540000e-01 -9.550160000e-01
1027000000.0 9.872400000e-02 -9.562940000e-01
1031500000.0 9.054100000e-02 -9.568090000e-01
1036000000.0 8.465200000e-02 -9.583650000e-01
1040500000.0 8.503400000e-02 -9.562330000e-01
1045000000.0 7.748900000e-02 -9.583410000e-01
1049500000.0 7.449700000e-02 -9.604590000e-01
1054000000.0 6.725300000e-02 -9.587370000e-01
1058500000.0 6.864500000e-02 -9.607160000e-01
1063000000.0 6.145300000e-02 -9.600530000e-01
1067500000.0 5.781500000e-02 -9.614130000e-01
1072000000.0 5.628800000e-02 -9.608440000e-01
1076500000.0 5.243500000e-02 -9.625390000e-01
1081000000.0 4.790300000e-02 -9.603510000e-01
1085500000.0 3.520200000e-02 -9.621700000e-01
1090000000.0 3.712000000e-02 -9.621050000e-01
1094500000.0 3.171300000e-02 -9.621300000e-01
1099000000.0 2.450500000e-02 -9.637520000e-01
1103500000.0 2.063100000e-02 -9.636780000e-01
1108000000.0 1.388900000e-02 -9.628840000e-01
1112500000.0 1.011300000e-02 -9.621910000e-01
1117000000.0 4.479000000e-03 -9.640370000e-01
1121500000.0 7.430000000e-04 -9.640130000e-01
1126000000.0 -6.508000000e-03 -9.625130000e-01
1130500000.0 -1.304900000e-02 -9.614680000e-01
1135000000.0 -2.206600000e-02 -9.640140000e-01
1139500000.0 -1.855000000e-02 -9.631060000e-01
1144000000.0 4.060000000e-03 -9.692890000e-01
1148500000.0 -6.765100000e-02 -9.525350000e-01
1153000000.0 -5.256800000e-02 -9.643530000e-01
1157500000.0 -5.698400000e-02 -9.628730000e-01
1162000000.0 -4.125700000e-02 -9.627070000e-01
1166500000.0 -7.408700000e-02 -9.605540000e-01
1171000000.0 -7.541400000e-02 -9.589710000e-01
1175500000.0 -9.013200000e-02 -9.579410000e-01
1180000000.0 -8.192500000e-02 -9.615110000e-01
1184500000.0 -1.154140000e-01 -9.565140000e-01
1189000000.0 -1.143900000e-01 -9.535370000e-01
1193500000.0 -1.243220000e-01 -9.544040000e-01
1198000000.0 -1.363510000e-01 -9.554690000e-01
1202500000.0 -1.407000000e-01 -9.552910000e-01
1207000000.0 -1.488620000e-01 -9.496860000e-01
1211500000.0 -1.549880000e-01 -9.526660000e-01
1216000000.0 -1.676090000e-01 -9.522430000e-01
1220500000.0 -1.692600000e-01 -9.464200000e-01
1225000000.0 -1.707870000e-01 -9.494910000e-01
1229500000.0 -1.844640000e-01 -9.449370000e-01
1234000000.0 -1.933230000e-01 -9.437730000e-01
1238500000.0 -1.986990000e-01 -9.454510000e-01
1243000000.0 -2.063190000e-01 -9.444290000e-01
1247500000.0 -2.124680000e-01 -9.425130000e-01
1252000000.0 -2.168810000e-01 -9.396520000e-01
1256500000.0 -2.237080000e-01 -9.414060000e-01
1261000000.0 -2.268090000e-01 -9.421550000e-01
1265500000.0 -2.383580000e-01 -9.410550000e-01
1270000000.0 -2.518360000e-01 -9.322320000e-01
1274500000.0 -2.603290000e-01 -9.317970000e-01
1279000000.0 -2.811580000e-01 -9.300470000e-01
1283500000.0 -3.005120000e-01 -9.216570000e-01
1288000000.0 -3.222320000e-01 -9.170890000e-01
1292500000.0 -3.475870000e-01 -9.046430000e-01
1297000000.0 -3.793620000e-01 -8.952310000e-01
1301500000.0 -4.022390000e-01 -8.811000000e-01
1306000000.0 -4.518900000e-01 -8.588180000e-01
1310500000.0 -4.926560000e-01 -8.359050000e-01
1315000000.0 -5.664580000e-01 -7.968590000e-01
1319500000.0 -6.606590000e-01 -7.200580000e-01
1324000000.0 -8.181750000e-01 -5.430760000e-01
1328500000.0 -3.470840000e-01 9.170780000e-01
1333000000.0 -3.409660000e-01 9.080420000e-01
1337500000.0 -3.414480000e-01 9.131930000e-01
1342000000.0 -3.384150000e-01 9.156060000e-01
1346500000.0 -3.356560000e-01 9.178870000e-01
1351000000.0 -3.324090000e-01 9.173740000e-01
1355500000.0 -3.289730000e-01 9.216320000e-01
1360000000.0 -3.214900000e-01 9.286110000e-01
1364500000.0 -3.186220000e-01 9.190080000e-01
1369000000.0 -3.186550000e-01 9.238580000e-01
1373500000.0 -3.105410000e-01 9.325530000e-01
1378000000.0 -3.158610000e-01 9.254090000e-01
1382500000.0 -3.014550000e-01 9.264260000e-01
1387000000.0 -2.910370000e-01 9.335780000e-01
1391500000.0 -2.913720000e-01 9.315460000e-01
1396000000.0 -2.895440000e-01 9.389120000e-01
1400500000.0 -2.896890000e-01 9.380500000e-01
1405000000.0 -2.844260000e-01 9.394640000e-01
1409500000.0 -2.804050000e-01 9.376790000e-01
1414000000.0 -2.683580000e-01 9.487250000e-01
1418500000.0 -2.655970000e-01 9.422470000e-01
1423000000.0 -2.621230000e-01 9.397130000e-01
1427500000.0 -2.606090000e-01 9.517660000e-01
1432000000.0 -2.522420000e-01 9.513620000e-01
1436500000.0 -2.451590000e-01 9.483910000e-01
1441000000.0 -2.466210000e-01 9.499650000e-01
1445500000.0 -2.407370000e-01 9.537430000e-01
1450000000.0 -2.306460000e-01 9.474770000e-01
