! piloto_corto / corto_cobre / r06
# HZ S RI R 50
50000.0 1.016334000e+00 -3.690700000e-02
59500.0 1.006795000e+00 -6.041500000e-02
69000.0 1.002363000e+00 -4.372700000e-02
78500.0 1.002148000e+00 -3.307400000e-02
88000.0 1.000563000e+00 -2.062600000e-02
97500.0 1.001012000e+00 -8.506000000e-03
107000.0 9.995710000e-01 3.147000000e-03
116500.0 9.998000000e-01 1.555300000e-02
126000.0 1.001651000e+00 2.709600000e-02
135500.0 9.994290000e-01 4.027100000e-02
145000.0 1.000676000e+00 5.139400000e-02
154500.0 1.001246000e+00 6.385200000e-02
164000.0 1.001017000e+00 7.539300000e-02
173500.0 1.002237000e+00 8.626300000e-02
183000.0 1.001456000e+00 9.904500000e-02
192500.0 1.001798000e+00 1.101320000e-01
202000.0 1.001477000e+00 1.216230000e-01
211500.0 1.002554000e+00 1.334020000e-01
221000.0 1.002759000e+00 1.446330000e-01
230500.0 1.002837000e+00 1.561380000e-01
240000.0 1.003454000e+00 1.661000000e-01
249500.0 1.003425000e+00 1.775090000e-01
259000.0 1.003584000e+00 1.885550000e-01
268500.0 1.004415000e+00 1.998570000e-01
278000.0 1.004052000e+00 2.106410000e-01
287500.0 1.004787000e+00 2.206700000e-01
297000.0 1.003706000e+00 2.323110000e-01
306500.0 1.004299000e+00 2.432090000e-01
316000.0 1.004299000e+00 2.542310000e-01
325500.0 1.005174000e+00 2.644610000e-01
335000.0 1.005248000e+00 2.753630000e-01
344500.0 1.005137000e+00 2.851220000e-01
354000.0 1.004992000e+00 2.952470000e-01
363500.0 1.004661000e+00 3.060890000e-01
373000.0 1.006177000e+00 3.175110000e-01
382500.0 1.005869000e+00 3.273100000e-01
392000.0 1.005660000e+00 3.363050000e-01
401500.0 1.005586000e+00 3.472640000e-01
411000.0 1.005950000e+00 3.572640000e-01
420500.0 1.006818000e+00 3.680870000e-01
430000.0 1.006464000e+00 3.779200000e-01
439500.0 1.006609000e+00 3.871130000e-01
449000.0 1.006184000e+00 3.978190000e-01
458500.0 1.007089000e+00 4.080120000e-01
468000.0 1.007029000e+00 4.174120000e-01
477500.0 1.007031000e+00 4.279280000e-01
487000.0 1.007800000e+00 4.374690000e-01
496500.0 1.008160000e+00 4.475310000e-01
506000.0 1.008061000e+00 4.571440000e-01
515500.0 1.008969000e+00 4.675080000e-01
525000.0 1.009330000e+00 4.767570000e-01
534500.0 1.009171000e+00 4.859780000e-01
544000.0 1.009408000e+00 4.959740000e-01
553500.0 1.009958000e+00 5.056690000e-01
563000.0 1.010855000e+00 5.152820000e-01
572500.0 1.010626000e+00 5.247080000e-01
582000.0 1.011331000e+00 5.343300000e-01
591500.0 1.011445000e+00 5.440530000e-01
601000.0 1.011511000e+00 5.533380000e-01
610500.0 1.012539000e+00 5.626060000e-01
620000.0 1.012285000e+00 5.717060000e-01
629500.0 1.013152000e+00 5.812430000e-01
639000.0 1.014604000e+00 5.916730000e-01
648500.0 1.014244000e+00 5.998990000e-01
658000.0 1.013968000e+00 6.099970000e-01
667500.0 1.015046000e+00 6.191820000e-01
677000.0 1.016172000e+00 6.278260000e-01
686500.0 1.016439000e+00 6.378670000e-01
696000.0 1.017271000e+00 6.458310000e-01
705500.0 1.018358000e+00 6.557990000e-01
715000.0 1.018555000e+00 6.646240000e-01
724500.0 1.019070000e+00 6.739080000e-01
734000.0 1.020788000e+00 6.836880000e-01
743500.0 1.020692000e+00 6.922050000e-01
753000.0 1.022488000e+00 7.018710000e-01
762500.0 1.023760000e+00 7.113170000e-01
772000.0 1.025128000e+00 7.194000000e-01
781500.0 1.025164000e+00 7.300460000e-01
791000.0 1.027189000e+00 7.372460000e-01
800500.0 1.026552000e+00 7.467270000e-01
810000.0 1.029419000e+00 7.552640000e-01
819500.0 1.030184000e+00 7.648920000e-01
829000.0 1.030548000e+00 7.741180000e-01
838500.0 1.032342000e+00 7.844060000e-01
848000.0 1.034266000e+00 7.927920000e-01
857500.0 1.035839000e+00 8.006060000e-01
867000.0 1.037211000e+00 8.106650000e-01
876500.0 1.037387000e+00 8.186160000e-01
886000.0 1.037724000e+00 8.266910000e-01
895500.0 1.041925000e+00 8.369900000e-01
905000.0 1.044589000e+00 8.448830000e-01
914500.0 1.046298000e+00 8.528070000e-01
924000.0 1.046943000e+00 8.612360000e-01
933500.0 1.049317000e+00 8.693440000e-01
943000.0 1.050783000e+00 8.789930000e-01
952500.0 1.054005000e+00 8.878680000e-01
962000.0 1.053460000e+00 8.950680000e-01
971500.0 1.057415000e+00 9.052250000e-01
981000.0 1.058725000e+00 9.129670000e-01
990500.0 1.061548000e+00 9.215980000e-01
1000000.0 1.064249000e+00 9.296150000e-01
1090000.0 1.087539000e+00 1.006224000e+00
1180000.0 1.121246000e+00 1.081616000e+00
1270000.0 1.167400000e+00 1.153211000e+00
1360000.0 1.218210000e+00 1.216323000e+00
1450000.0 1.283010000e+00 1.270352000e+00
1540000.0 1.355124000e+00 1.310384000e+00
1630000.0 1.434112000e+00 1.342694000e+00
1720000.0 1.519204000e+00 1.349558000e+00
1810000.0 1.608229000e+00 1.343386000e+00
1900000.0 1.695067000e+00 1.315497000e+00
1990000.0 1.775189000e+00 1.268741000e+00
2080000.0 1.843390000e+00 1.204190000e+00
2170000.0 1.894367000e+00 1.126975000e+00
2260000.0 1.932227000e+00 1.042517000e+00
2350000.0 1.949897000e+00 9.527740000e-01
2440000.0 1.953894000e+00 8.650650000e-01
2530000.0 1.943793000e+00 7.809880000e-01
2620000.0 1.926803000e+00 7.045410000e-01
2710000.0 1.898213000e+00 6.348810000e-01
2800000.0 1.864966000e+00 5.710000000e-01
2890000.0 1.824352000e+00 5.468990000e-01
2980000.0 1.791765000e+00 4.676830000e-01
3070000.0 1.750073000e+00 4.236820000e-01
3160000.0 1.714875000e+00 3.860550000e-01
3250000.0 1.678622000e+00 3.502150000e-01
3340000.0 1.643561000e+00 3.191160000e-01
3430000.0 1.610680000e+00 2.941510000e-01
3520000.0 1.577510000e+00 2.699730000e-01
3610000.0 1.549010000e+00 2.471130000e-01
3700000.0 1.521427000e+00 2.293100000e-01
3790000.0 1.496431000e+00 2.072980000e-01
3880000.0 1.473209000e+00 1.893320000e-01
3970000.0 1.448311000e+00 1.723040000e-01
4060000.0 1.429397000e+00 1.560250000e-01
4150000.0 1.410247000e+00 1.388950000e-01
4240000.0 1.392816000e+00 1.240510000e-01
4330000.0 1.377308000e+00 1.107430000e-01
4420000.0 1.362086000e+00 9.653100000e-02
4510000.0 1.348619000e+00 8.173300000e-02
4600000.0 1.336219000e+00 6.814700000e-02
4690000.0 1.325698000e+00 5.394300000e-02
4780000.0 1.315372000e+00 4.167500000e-02
4870000.0 1.307018000e+00 2.785000000e-02
4960000.0 1.298249000e+00 1.461900000e-02
5050000.0 1.283802000e+00 2.970000000e-03
5140000.0 1.278152000e+00 -9.874000000e-03
5230000.0 1.272216000e+00 -2.269000000e-02
5320000.0 1.268594000e+00 -3.352000000e-02
5410000.0 1.264497000e+00 -4.763000000e-02
5500000.0 1.259761000e+00 -5.847400000e-02
5590000.0 1.254673000e+00 -7.089100000e-02
5680000.0 1.251515000e+00 -8.133600000e-02
5770000.0 1.248967000e+00 -9.227600000e-02
5860000.0 1.243469000e+00 -1.029340000e-01
5950000.0 1.242432000e+00 -1.138640000e-01
6040000.0 1.238657000e+00 -1.245610000e-01
6130000.0 1.236843000e+00 -1.346230000e-01
6220000.0 1.233517000e+00 -1.431270000e-01
6310000.0 1.232686000e+00 -1.536190000e-01
6400000.0 1.230365000e+00 -1.609020000e-01
6490000.0 1.227483000e+00 -1.697410000e-01
6580000.0 1.225769000e+00 -1.766230000e-01
6670000.0 1.223754000e+00 -1.845100000e-01
6760000.0 1.222508000e+00 -1.894430000e-01
6850000.0 1.221937000e+00 -1.963030000e-01
6940000.0 1.221452000e+00 -1.997350000e-01
7030000.0 1.220322000e+00 -2.036070000e-01
7120000.0 1.219189000e+00 -2.072110000e-01
7210000.0 1.220668000e+00 -2.090670000e-01
7300000.0 1.219044000e+00 -2.115110000e-01
7390000.0 1.219161000e+00 -2.132150000e-01
7480000.0 1.218325000e+00 -2.129890000e-01
7570000.0 -2.625930000e-01 -1.257312000e+00
7660000.0 -2.618900000e-01 -1.257150000e+00
7750000.0 -2.616110000e-01 -1.258003000e+00
7840000.0 -2.615830000e-01 -1.259007000e+00
7930000.0 -2.608350000e-01 -1.258773000e+00
8020000.0 -2.594430000e-01 -1.259879000e+00
8110000.0 -2.588120000e-01 -1.259171000e+00
8200000.0 -2.578140000e-01 -1.260278000e+00
8290000.0 -2.589150000e-01 -1.260597000e+00
8380000.0 -2.581240000e-01 -1.259171000e+00
8470000.0 -2.581090000e-01 -1.260985000e+00
8560000.0 -2.563890000e-01 -1.261840000e+00
8650000.0 -2.563950000e-01 -1.262778000e+00
8740000.0 -2.559640000e-01 -1.262749000e+00
8830000.0 -2.550490000e-01 -1.263853000e+00
8920000.0 -2.552510000e-01 -1.264945000e+00
9010000.0 -2.543290000e-01 -1.263332000e+00
9100000.0 -2.543090000e-01 -1.265697000e+00
9190000.0 -2.544120000e-01 -1.266447000e+00
9280000.0 -2.545230000e-01 -1.266937000e+00
9370000.0 -2.529380000e-01 -1.267495000e+00
9460000.0 -2.518700000e-01 -1.267668000e+00
9550000.0 -2.519140000e-01 -1.269575000e+00
9640000.0 -2.513480000e-01 -1.269780000e+00
9730000.0 -2.517690000e-01 -1.270331000e+00
9820000.0 -2.511880000e-01 -1.270530000e+00
9910000.0 -2.495630000e-01 -1.270763000e+00
10000000.0 -2.509320000e-01 -1.273046000e+00
10900000.0 -2.501710000e-01 -1.279949000e+00
11800000.0 -2.474680000e-01 -1.290253000e+00
12700000.0 -2.432790000e-01 -1.299703000e+00
13600000.0 -2.395390000e-01 -1.308751000e+00
14500000.0 -2.361290000e-01 -1.318755000e+00
15400000.0 -2.334290000e-01 -1.331211000e+00
16300000.0 -2.308480000e-01 -1.342359000e+00
17200000.0 -2.277090000e-01 -1.354054000e+00
18100000.0 -2.235550000e-01 -1.366134000e+00
19000000.0 -2.171870000e-01 -1.378387000e+00
19900000.0 -2.139670000e-01 -1.390798000e+00
20800000.0 -2.082910000e-01 -1.403092000e+00
21700000.0 -2.042760000e-01 -1.415542000e+00
22600000.0 -1.978120000e-01 -1.428917000e+00
23500000.0 -1.911650000e-01 -1.442815000e+00
24400000.0 -1.859730000e-01 -1.456332000e+00
25300000.0 -1.780650000e-01 -1.470987000e+00
26200000.0 -1.714500000e-01 -1.484465000e+00
27100000.0 -1.647130000e-01 -1.498168000e+00
28000000.0 -1.561740000e-01 -1.512388000e+00
28900000.0 -1.460670000e-01 -1.528850000e+00
29800000.0 -1.368410000e-01 -1.541177000e+00
30700000.0 -1.270240000e-01 -1.557544000e+00
31600000.0 -1.170720000e-01 -1.571777000e+00
32500000.0 -1.062510000e-01 -1.587608000e+00
33400000.0 -9.474400000e-02 -1.603300000e+00
34300000.0 -8.451700000e-02 -1.618870000e+00
35200000.0 -7.262900000e-02 -1.634008000e+00
36100000.0 -5.886000000e-02 -1.648409000e+00
37000000.0 -4.449100000e-02 -1.665004000e+00
37900000.0 -2.992300000e-02 -1.682631000e+00
38800000.0 -1.757700000e-02 -1.695399000e+00
39700000.0 -6.890000000e-04 -1.712221000e+00
40600000.0 1.598400000e-02 -1.726810000e+00
41500000.0 3.247600000e-02 -1.745352000e+00
42400000.0 4.980400000e-02 -1.758895000e+00
43300000.0 6.778000000e-02 -1.775593000e+00
44200000.0 8.672800000e-02 -1.790468000e+00
45100000.0 1.079260000e-01 -1.805110000e+00
46000000.0 1.283360000e-01 -1.820926000e+00
46900000.0 1.501360000e-01 -1.834468000e+00
47800000.0 1.730800000e-01 -1.847988000e+00
48700000.0 1.965570000e-01 -1.863066000e+00
49600000.0 2.203410000e-01 -1.876513000e+00
50500000.0 2.462590000e-01 -1.888576000e+00
51400000.0 2.724960000e-01 -1.900197000e+00
52300000.0 3.002520000e-01 -1.911492000e+00
53200000.0 3.284030000e-01 -1.921289000e+00
54100000.0 3.603640000e-01 -1.932573000e+00
55000000.0 3.879410000e-01 -1.940840000e+00
55900000.0 4.223430000e-01 -1.949665000e+00
56800000.0 4.529910000e-01 -1.953622000e+00
57700000.0 4.867290000e-01 -1.961693000e+00
58600000.0 5.207930000e-01 -1.965710000e+00
59500000.0 5.542620000e-01 -1.969518000e+00
60400000.0 5.881520000e-01 -1.971805000e+00
61300000.0 6.273280000e-01 -1.972079000e+00
62200000.0 6.627230000e-01 -1.970410000e+00
63100000.0 6.982590000e-01 -1.968114000e+00
64000000.0 7.371940000e-01 -1.964210000e+00
64900000.0 7.737250000e-01 -1.955921000e+00
65800000.0 8.159370000e-01 -1.949101000e+00
66700000.0 8.488900000e-01 -1.942879000e+00
67600000.0 8.854600000e-01 -1.931906000e+00
68500000.0 9.196330000e-01 -1.917655000e+00
69400000.0 9.573420000e-01 -1.905083000e+00
70300000.0 9.952240000e-01 -1.883938000e+00
71200000.0 1.030726000e+00 -1.869129000e+00
72100000.0 1.065533000e+00 -1.849437000e+00
73000000.0 1.098370000e+00 -1.827466000e+00
73900000.0 1.131863000e+00 -1.807259000e+00
74800000.0 1.160021000e+00 -1.781603000e+00
75700000.0 1.189782000e+00 -1.758808000e+00
76600000.0 1.217493000e+00 -1.732570000e+00
77500000.0 1.245748000e+00 -1.703266000e+00
78400000.0 1.275220000e+00 -1.674760000e+00
79300000.0 1.299556000e+00 -1.643531000e+00
80200000.0 1.324651000e+00 -1.613945000e+00
81100000.0 1.345373000e+00 -1.581829000e+00
82000000.0 1.363600000e+00 -1.549800000e+00
82900000.0 1.380847000e+00 -1.519908000e+00
83800000.0 1.397210000e+00 -1.488776000e+00
84700000.0 1.411961000e+00 -1.456494000e+00
85600000.0 1.423210000e+00 -1.423337000e+00
86500000.0 1.436842000e+00 -1.390258000e+00
87400000.0 1.447571000e+00 -1.357258000e+00
88300000.0 1.456663000e+00 -1.324315000e+00
89200000.0 1.464526000e+00 -1.290107000e+00
90100000.0 1.468979000e+00 -1.260067000e+00
91000000.0 1.472834000e+00 -1.230619000e+00
91900000.0 1.477473000e+00 -1.198046000e+00
92800000.0 1.480021000e+00 -1.167625000e+00
93700000.0 1.480746000e+00 -1.138794000e+00
94600000.0 1.480246000e+00 -1.107370000e+00
95500000.0 1.480371000e+00 -1.078603000e+00
96400000.0 1.478391000e+00 -1.049774000e+00
97300000.0 1.477076000e+00 -1.021896000e+00
98200000.0 1.471707000e+00 -9.925120000e-01
99100000.0 1.469370000e+00 -9.662410000e-01
100000000.0 1.463744000e+00 -9.397600000e-01
109000000.0 1.394270000e+00 -7.099440000e-01
118000000.0 1.292621000e+00 -5.480280000e-01
127000000.0 1.190006000e+00 -4.326610000e-01
136000000.0 1.088736000e+00 -3.567450000e-01
145000000.0 9.989410000e-01 -2.986670000e-01
154000000.0 9.523820000e-01 -2.790920000e-01
163000000.0 9.470290000e-01 -2.947140000e-01
172000000.0 9.416150000e-01 -3.100070000e-01
181000000.0 9.372360000e-01 -3.231370000e-01
190000000.0 9.320100000e-01 -3.384720000e-01
199000000.0 9.247130000e-01 -3.527860000e-01
208000000.0 9.204030000e-01 -3.678910000e-01
217000000.0 9.146110000e-01 -3.826050000e-01
226000000.0 8.991380000e-01 -4.133750000e-01
235000000.0 9.007200000e-01 -4.107870000e-01
244000000.0 8.938890000e-01 -4.242460000e-01
253000000.0 8.877560000e-01 -4.350980000e-01
262000000.0 8.728790000e-01 -4.621200000e-01
271000000.0 8.742930000e-01 -4.579960000e-01
280000000.0 8.755850000e-01 -4.534560000e-01
289000000.0 8.592770000e-01 -4.805960000e-01
298000000.0 8.499780000e-01 -4.954120000e-01
307000000.0 8.421570000e-01 -5.086910000e-01
316000000.0 8.354890000e-01 -5.209240000e-01
325000000.0 8.260370000e-01 -5.344770000e-01
334000000.0 8.206540000e-01 -5.498740000e-01
343000000.0 8.089980000e-01 -5.634960000e-01
352000000.0 8.008570000e-01 -5.806910000e-01
361000000.0 7.886240000e-01 -5.900640000e-01
370000000.0 7.813380000e-01 -6.016720000e-01
379000000.0 7.703140000e-01 -6.133530000e-01
388000000.0 7.609900000e-01 -6.238270000e-01
397000000.0 7.511940000e-01 -6.340130000e-01
406000000.0 7.126500000e-01 -6.638330000e-01
415000000.0 7.298910000e-01 -6.553600000e-01
424000000.0 7.298150000e-01 -6.540010000e-01
433000000.0 7.068080000e-01 -6.782610000e-01
442000000.0 6.919450000e-01 -6.873640000e-01
451000000.0 6.800910000e-01 -6.966390000e-01
460000000.0 6.726560000e-01 -7.096350000e-01
469000000.0 6.655570000e-01 -7.197440000e-01
478000000.0 6.563870000e-01 -7.287350000e-01
487000000.0 6.483940000e-01 -7.404380000e-01
496000000.0 6.380870000e-01 -7.504440000e-01
505000000.0 6.290620000e-01 -7.591190000e-01
514000000.0 6.175060000e-01 -7.699870000e-01
523000000.0 6.033760000e-01 -7.834320000e-01
532000000.0 5.913660000e-01 -7.928210000e-01
541000000.0 5.799750000e-01 -8.004380000e-01
550000000.0 5.659910000e-01 -8.084790000e-01
559000000.0 5.544640000e-01 -8.188520000e-01
568000000.0 5.396550000e-01 -8.249390000e-01
577000000.0 5.297320000e-01 -8.295840000e-01
586000000.0 5.177560000e-01 -8.330940000e-01
595000000.0 5.042490000e-01 -8.375610000e-01
604000000.0 4.933170000e-01 -8.483270000e-01
613000000.0 4.776000000e-01 -8.573430000e-01
622000000.0 4.640500000e-01 -8.714890000e-01
631000000.0 4.475040000e-01 -8.793740000e-01
640000000.0 4.374200000e-01 -8.920940000e-01
649000000.0 4.220760000e-01 -9.008490000e-01
658000000.0 4.098970000e-01 -9.060880000e-01
667000000.0 4.017500000e-01 -9.123070000e-01
676000000.0 3.891190000e-01 -9.159610000e-01
685000000.0 3.814010000e-01 -9.163810000e-01
694000000.0 3.664350000e-01 -9.219490000e-01
703000000.0 3.524360000e-01 -9.231040000e-01
712000000.0 3.430280000e-01 -9.299510000e-01
721000000.0 3.231530000e-01 -9.310720000e-01
730000000.0 3.074680000e-01 -9.335150000e-01
739000000.0 2.953210000e-01 -9.325680000e-01
748000000.0 2.736190000e-01 -9.319840000e-01
757000000.0 2.610550000e-01 -9.369640000e-01
766000000.0 2.461790000e-01 -9.426340000e-01
775000000.0 2.391210000e-01 -9.450430000e-01
784000000.0 2.285750000e-01 -9.504180000e-01
793000000.0 2.253300000e-01 -9.518880000e-01
802000000.0 2.140680000e-01 -9.542340000e-01
811000000.0 2.007100000e-01 -9.584850000e-01
820000000.0 1.891490000e-01 -9.608630000e-01
829000000.0 1.729100000e-01 -9.637820000e-01
838000000.0 1.536350000e-01 -9.648710000e-01
847000000.0 1.369820000e-01 -9.687130000e-01
856000000.0 1.234700000e-01 -9.679400000e-01
865000000.0 1.101480000e-01 -9.684700000e-01
874000000.0 9.926300000e-02 -9.669710000e-01
883000000.0 9.420400000e-02 -9.661840000e-01
892000000.0 8.914400000e-02 -9.639840000e-01
901000000.0 8.218900000e-02 -9.615670000e-01
910000000.0 7.401400000e-02 -9.639750000e-01
919000000.0 6.012600000e-02 -9.644230000e-01
928000000.0 4.339900000e-02 -9.652720000e-01
937000000.0 3.195000000e-02 -9.631500000e-01
946000000.0 1.688000000e-02 -9.647570000e-01
955000000.0 2.290000000e-04 -9.639000000e-01
964000000.0 -1.101400000e-02 -9.634460000e-01
973000000.0 -1.931300000e-02 -9.630960000e-01
982000000.0 -3.030000000e-02 -9.627090000e-01
991000000.0 -4.652000000e-02 -9.629260000e-01
1000000000.0 -5.722400000e-02 -9.619700000e-01
1004500000.0 -5.188000000e-02 -9.616290000e-01
1009000000.0 -5.841800000e-02 -9.623890000e-01
1013500000.0 -6.505500000e-02 -9.600380000e-01
1018000000.0 -7.145800000e-02 -9.610320000e-01
1022500000.0 -7.975700000e-02 -9.607880000e-01
1027000000.0 -9.151900000e-02 -9.608170000e-01
1031500000.0 -9.981400000e-02 -9.596170000e-01
1036000000.0 -1.101120000e-01 -9.590470000e-01
1040500000.0 -1.158130000e-01 -9.588940000e-01
1045000000.0 -1.150520000e-01 -9.601170000e-01
1049500000.0 -1.179160000e-01 -9.587290000e-01
1054000000.0 -1.176110000e-01 -9.580860000e-01
1058500000.0 -1.191690000e-01 -9.608510000e-01
1063000000.0 -1.253280000e-01 -9.583590000e-01
1067500000.0 -1.357460000e-01 -9.562570000e-01
1072000000.0 -1.456870000e-01 -9.568530000e-01
1076500000.0 -1.573510000e-01 -9.552900000e-01
1081000000.0 -1.689590000e-01 -9.535410000e-01
1085500000.0 -1.710440000e-01 -9.523160000e-01
1090000000.0 -1.712370000e-01 -9.513630000e-01
1094500000.0 -1.746660000e-01 -9.530550000e-01
1099000000.0 -1.743420000e-01 -9.511320000e-01
1103500000.0 -1.717350000e-01 -9.525620000e-01
1108000000.0 -1.719300000e-01 -9.518940000e-01
1112500000.0 -1.826900000e-01 -9.520810000e-01
1117000000.0 -1.902730000e-01 -9.470520000e-01
1121500000.0 -1.934850000e-01 -9.492880000e-01
1126000000.0 -2.096510000e-01 -9.459570000e-01
1130500000.0 -2.489210000e-01 -9.272110000e-01
1135000000.0 -2.210530000e-01 -9.411330000e-01
1139500000.0 -2.254250000e-01 -9.406270000e-01
1144000000.0 -1.917270000e-01 -9.574280000e-01
1148500000.0 -1.985800000e-01 -9.535660000e-01
1153000000.0 -1.929610000e-01 -9.556630000e-01
1157500000.0 -2.795320000e-01 -9.012690000e-01
1162000000.0 -2.359500000e-01 -9.358080000e-01
1166500000.0 -2.507270000e-01 -9.338430000e-01
1171000000.0 -2.536110000e-01 -9.312750000e-01
1175500000.0 -2.615240000e-01 -9.310730000e-01
1180000000.0 -2.701970000e-01 -9.283320000e-01
1184500000.0 -2.794300000e-01 -9.224590000e-01
1189000000.0 -2.849020000e-01 -9.248390000e-01
1193500000.0 -2.962110000e-01 -9.223710000e-01
1198000000.0 -2.957480000e-01 -9.190210000e-01
1202500000.0 -2.960290000e-01 -9.167100000e-01
1207000000.0 -2.958110000e-01 -9.188500000e-01
1211500000.0 -2.937700000e-01 -9.215060000e-01
1216000000.0 -2.984990000e-01 -9.154530000e-01
1220500000.0 -3.004000000e-01 -9.200250000e-01
1225000000.0 -3.173230000e-01 -9.131050000e-01
1229500000.0 -3.262910000e-01 -9.157700000e-01
1234000000.0 -3.318780000e-01 -9.132920000e-01
1238500000.0 -3.385810000e-01 -9.040430000e-01
1243000000.0 -3.454040000e-01 -9.025830000e-01
1247500000.0 -3.504950000e-01 -9.048750000e-01
1252000000.0 -3.473900000e-01 -9.116790000e-01
1256500000.0 -3.498720000e-01 -9.001900000e-01
1261000000.0 -3.624840000e-01 -9.013670000e-01
1265500000.0 -3.478850000e-01 -9.075340000e-01
1270000000.0 -3.658350000e-01 -9.014310000e-01
1274500000.0 -3.718750000e-01 -8.923430000e-01
1279000000.0 -3.861840000e-01 -8.896640000e-01
1283500000.0 -3.934230000e-01 -8.884860000e-01
1288000000.0 -3.989110000e-01 -8.819410000e-01
1292500000.0 -4.052600000e-01 -8.744460000e-01
1297000000.0 -4.063450000e-01 -8.759970000e-01
1301500000.0 -4.210560000e-01 -8.899870000e-01
1306000000.0 -4.138450000e-01 -8.772980000e-01
1310500000.0 -4.187440000e-01 -8.758540000e-01
1315000000.0 -4.242730000e-01 -8.706810000e-01
1319500000.0 -4.286360000e-01 -8.636910000e-01
1324000000.0 -4.364310000e-01 -8.647220000e-01
1328500000.0 -4.458360000e-01 -8.678420000e-01
1333000000.0 -4.552040000e-01 -8.616470000e-01
1337500000.0 -4.778210000e-01 -8.473110000e-01
1342000000.0 -4.560350000e-01 -8.548880000e-01
1346500000.0 -4.709240000e-01 -8.402630000e-01
1351000000.0 -4.766300000e-01 -8.434560000e-01
1355500000.0 -4.722650000e-01 -8.404300000e-01
1360000000.0 -4.780280000e-01 -8.416890000e-01
1364500000.0 -4.824260000e-01 -8.502980000e-01
1369000000.0 -4.899680000e-01 -8.472810000e-01
1373500000.0 -4.897160000e-01 -8.446750000e-01
1378000000.0 -4.933700000e-01 -8.449750000e-01
1382500000.0 -5.040910000e-01 -8.351270000e-01
1387000000.0 -5.157680000e-01 -8.376310000e-01
1391500000.0 -5.190050000e-01 -8.300970000e-01
1396000000.0 -5.199350000e-01 -8.318880000e-01
1400500000.0 -5.238780000e-01 -8.346730000e-01
1405000000.0 -5.289900000e-01 -8.299980000e-01
1409500000.0 -5.217150000e-01 -8.320890000e-01
1414000000.0 -5.222890000e-01 -8.356520000e-01
1418500000.0 -5.299140000e-01 -8.291820000e-01
1423000000.0 -5.318350000e-01 -8.344870000e-01
1427500000.0 -5.310720000e-01 -8.232050000e-01
1432000000.0 -5.440050000e-01 -8.267310000e-01
1436500000.0 -5.559310000e-01 -8.132760000e-01
1441000000.0 -5.609160000e-01 -8.058810000e-01
1445500000.0 -5.657010000e-01 -8.039060000e-01
1450000000.0 -5.710480000e-01 -8.040960000e-01
