! piloto_corto / corto_cobre / r03
# HZ S RI R 50
50000.0 1.005741000e+00 -7.401600000e-02
59500.0 1.005066000e+00 -5.947100000e-02
69000.0 1.002443000e+00 -4.589400000e-02
78500.0 1.001597000e+00 -3.429200000e-02
88000.0 -4.334100000e-02 -3.993000000e-03
97500.0 -9.295630000e-01 6.780000000e-04
107000.0 -9.843860000e-01 -7.410000000e-04
116500.0 -9.935610000e-01 -4.154000000e-03
126000.0 -9.958120000e-01 -7.430000000e-03
135500.0 -9.967170000e-01 -1.362800000e-02
145000.0 -9.972290000e-01 -1.947200000e-02
154500.0 -9.967830000e-01 -4.315000000e-02
164000.0 -1.004749000e+00 -3.132400000e-02
173500.0 -9.771640000e-01 -3.898100000e-02
183000.0 -9.625690000e-01 -1.365000000e-02
192500.0 -9.965360000e-01 -5.489100000e-02
202000.0 -9.919080000e-01 -6.358200000e-02
211500.0 -9.942520000e-01 -7.174600000e-02
221000.0 -9.956660000e-01 -8.016800000e-02
230500.0 -9.963260000e-01 -8.819700000e-02
240000.0 -9.958150000e-01 -9.764400000e-02
249500.0 -9.923250000e-01 -1.055240000e-01
259000.0 -9.769520000e-01 -1.125630000e-01
268500.0 -9.858690000e-01 -1.220180000e-01
278000.0 -9.884300000e-01 -1.320620000e-01
287500.0 -9.897510000e-01 -1.403130000e-01
297000.0 -9.917940000e-01 -1.493590000e-01
306500.0 -9.937930000e-01 -1.583090000e-01
316000.0 -9.958080000e-01 -1.683080000e-01
325500.0 -9.965820000e-01 -1.773810000e-01
335000.0 -9.951210000e-01 -1.864670000e-01
344500.0 -9.928000000e-01 -1.952470000e-01
354000.0 -9.907900000e-01 -2.033560000e-01
363500.0 -9.468940000e-01 -2.029240000e-01
373000.0 -9.581730000e-01 -2.135690000e-01
382500.0 -9.830090000e-01 -2.281870000e-01
392000.0 -9.880720000e-01 -2.379420000e-01
401500.0 -9.945260000e-01 -2.473740000e-01
411000.0 -9.990740000e-01 -2.579630000e-01
420500.0 -1.001629000e+00 -2.679410000e-01
430000.0 -1.001863000e+00 -2.764140000e-01
439500.0 -1.001376000e+00 -2.863060000e-01
449000.0 -9.985950000e-01 -2.934200000e-01
458500.0 -9.944480000e-01 -3.005710000e-01
468000.0 -9.826460000e-01 -3.066500000e-01
477500.0 -9.913630000e-01 -3.182310000e-01
487000.0 -9.964920000e-01 -3.284640000e-01
496500.0 -1.000371000e+00 -3.390250000e-01
506000.0 -1.002104000e+00 -3.494240000e-01
515500.0 -1.001905000e+00 -3.570030000e-01
525000.0 -1.002833000e+00 -3.667600000e-01
534500.0 -1.002554000e+00 -3.751010000e-01
544000.0 -1.003289000e+00 -3.837400000e-01
553500.0 -1.002840000e+00 -3.935360000e-01
563000.0 -1.003426000e+00 -4.012340000e-01
572500.0 -1.002625000e+00 -4.106990000e-01
582000.0 -1.003598000e+00 -4.198110000e-01
591500.0 -1.003219000e+00 -4.282190000e-01
601000.0 -1.004761000e+00 -4.373530000e-01
610500.0 -1.004509000e+00 -4.461890000e-01
620000.0 -1.004671000e+00 -4.537530000e-01
629500.0 -1.004999000e+00 -4.636180000e-01
639000.0 -1.006421000e+00 -4.730180000e-01
648500.0 -1.005199000e+00 -4.805980000e-01
658000.0 -1.004093000e+00 -4.894010000e-01
667500.0 -9.805060000e-01 -4.858080000e-01
677000.0 -9.797240000e-01 -4.926460000e-01
686500.0 -9.932290000e-01 -5.085380000e-01
696000.0 -1.002587000e+00 -5.207160000e-01
705500.0 -1.005012000e+00 -5.318400000e-01
715000.0 -1.007601000e+00 -5.394810000e-01
724500.0 -1.009639000e+00 -5.499100000e-01
734000.0 -1.009373000e+00 -5.583130000e-01
743500.0 -1.010051000e+00 -5.669050000e-01
753000.0 -1.011698000e+00 -5.761720000e-01
762500.0 -1.012304000e+00 -5.844720000e-01
772000.0 -1.008740000e+00 -5.902880000e-01
781500.0 -1.012004000e+00 -6.007510000e-01
791000.0 -1.014078000e+00 -6.091000000e-01
800500.0 -1.015797000e+00 -6.181320000e-01
810000.0 -1.017005000e+00 -6.274250000e-01
819500.0 -1.018453000e+00 -6.359050000e-01
829000.0 -1.019062000e+00 -6.448910000e-01
838500.0 -1.020301000e+00 -6.524910000e-01
848000.0 -1.021158000e+00 -6.619770000e-01
857500.0 -1.021466000e+00 -6.693480000e-01
867000.0 -1.023365000e+00 -6.776170000e-01
876500.0 -1.024392000e+00 -6.849610000e-01
886000.0 -1.025719000e+00 -6.926180000e-01
895500.0 -1.026655000e+00 -7.025300000e-01
905000.0 -1.029714000e+00 -7.110650000e-01
914500.0 -1.029458000e+00 -7.192870000e-01
924000.0 -1.032153000e+00 -7.281100000e-01
933500.0 -1.034329000e+00 -7.350400000e-01
943000.0 -1.036990000e+00 -7.429290000e-01
952500.0 -1.038489000e+00 -7.523300000e-01
962000.0 -1.038197000e+00 -7.606330000e-01
971500.0 -1.040357000e+00 -7.678130000e-01
981000.0 -1.038096000e+00 -7.728630000e-01
990500.0 -1.042563000e+00 -7.820370000e-01
1000000.0 -1.046162000e+00 -7.912580000e-01
1090000.0 -1.070352000e+00 -8.682010000e-01
1180000.0 -1.103001000e+00 -9.395190000e-01
1270000.0 -1.141399000e+00 -1.008847000e+00
1360000.0 -1.170326000e+00 -1.064380000e+00
1450000.0 -1.247363000e+00 -1.124916000e+00
1540000.0 -1.316512000e+00 -1.165484000e+00
1630000.0 -1.394124000e+00 -1.194056000e+00
1720000.0 -1.473680000e+00 -1.208726000e+00
1810000.0 -1.559128000e+00 -1.204699000e+00
1900000.0 -1.645248000e+00 -1.175939000e+00
1990000.0 -1.721935000e+00 -1.131723000e+00
2080000.0 -1.790751000e+00 -1.068915000e+00
2170000.0 -1.845912000e+00 -9.898610000e-01
2260000.0 -1.878632000e+00 -9.029740000e-01
2350000.0 -1.893672000e+00 -8.152510000e-01
2440000.0 -1.893978000e+00 -7.252230000e-01
2530000.0 -1.882461000e+00 -6.428930000e-01
2620000.0 -1.860070000e+00 -5.628110000e-01
2710000.0 -1.824254000e+00 -4.960150000e-01
2800000.0 -1.791191000e+00 -4.342020000e-01
2890000.0 -1.749832000e+00 -3.824930000e-01
2980000.0 -1.707037000e+00 -3.342970000e-01
3070000.0 -1.666870000e+00 -2.960350000e-01
3160000.0 -1.627967000e+00 -2.586870000e-01
3250000.0 -1.589902000e+00 -2.308880000e-01
3340000.0 -1.551779000e+00 -2.023500000e-01
3430000.0 -1.517868000e+00 -1.829010000e-01
3520000.0 -1.486332000e+00 -1.598210000e-01
3610000.0 -1.454021000e+00 -1.410740000e-01
3700000.0 -1.425469000e+00 -1.222840000e-01
3790000.0 -1.400916000e+00 -1.028940000e-01
3880000.0 -1.375457000e+00 -9.012300000e-02
3970000.0 -1.352237000e+00 -7.547900000e-02
4060000.0 -1.331056000e+00 -6.197100000e-02
4150000.0 -1.312409000e+00 -4.822900000e-02
4240000.0 -1.293159000e+00 -3.505400000e-02
4330000.0 -1.275657000e+00 -2.235900000e-02
4420000.0 -1.262521000e+00 -9.573000000e-03
4510000.0 -1.246977000e+00 8.600000000e-04
4600000.0 -1.234419000e+00 1.233000000e-02
4690000.0 -1.222715000e+00 2.400100000e-02
4780000.0 -1.212303000e+00 3.628500000e-02
4870000.0 -1.204523000e+00 4.684700000e-02
4960000.0 -1.194839000e+00 5.839400000e-02
5050000.0 -1.179134000e+00 6.933400000e-02
5140000.0 -1.173129000e+00 8.027600000e-02
5230000.0 -1.168611000e+00 8.946000000e-02
5320000.0 -1.162347000e+00 9.984000000e-02
5410000.0 -1.157618000e+00 1.111010000e-01
5500000.0 -1.152193000e+00 1.217140000e-01
5590000.0 -1.147308000e+00 1.319010000e-01
5680000.0 -1.142933000e+00 1.411620000e-01
5770000.0 -1.139468000e+00 1.506270000e-01
5860000.0 -1.135992000e+00 1.605790000e-01
5950000.0 -1.132692000e+00 1.685510000e-01
6040000.0 -1.127653000e+00 1.778680000e-01
6130000.0 -1.125699000e+00 1.854010000e-01
6220000.0 -1.122064000e+00 1.934450000e-01
6310000.0 -1.119155000e+00 2.022280000e-01
6400000.0 -1.116421000e+00 2.094440000e-01
6490000.0 -1.114445000e+00 2.166930000e-01
6580000.0 -1.111050000e+00 2.231260000e-01
6670000.0 -1.109405000e+00 2.287880000e-01
6760000.0 -1.108168000e+00 2.326510000e-01
6850000.0 -1.105808000e+00 2.375310000e-01
6940000.0 -1.105849000e+00 2.420760000e-01
7030000.0 -1.103838000e+00 2.452190000e-01
7120000.0 -1.104385000e+00 2.487730000e-01
7210000.0 -1.103585000e+00 2.505870000e-01
7300000.0 -1.102541000e+00 2.529760000e-01
7390000.0 -1.101931000e+00 2.526610000e-01
7480000.0 -1.102881000e+00 2.520720000e-01
7570000.0 2.052820000e-01 1.074236000e+00
7660000.0 2.060610000e-01 1.073395000e+00
7750000.0 2.043030000e-01 1.074286000e+00
7840000.0 2.023600000e-01 1.074045000e+00
7930000.0 2.018750000e-01 1.075268000e+00
8020000.0 2.010670000e-01 1.075372000e+00
8110000.0 2.003170000e-01 1.074858000e+00
8200000.0 1.999510000e-01 1.075493000e+00
8290000.0 1.982840000e-01 1.076472000e+00
8380000.0 1.988630000e-01 1.075775000e+00
8470000.0 1.975800000e-01 1.077013000e+00
8560000.0 1.967100000e-01 1.078577000e+00
8650000.0 1.975700000e-01 1.077853000e+00
8740000.0 1.960280000e-01 1.077673000e+00
8830000.0 1.954010000e-01 1.079645000e+00
8920000.0 1.941490000e-01 1.079505000e+00
9010000.0 1.935160000e-01 1.079961000e+00
9100000.0 1.931780000e-01 1.081289000e+00
9190000.0 1.928360000e-01 1.080749000e+00
9280000.0 1.921250000e-01 1.081092000e+00
9370000.0 1.909500000e-01 1.081427000e+00
9460000.0 1.895040000e-01 1.082569000e+00
9550000.0 1.881880000e-01 1.083235000e+00
9640000.0 1.892600000e-01 1.083744000e+00
9730000.0 1.881260000e-01 1.084257000e+00
9820000.0 1.890570000e-01 1.084684000e+00
9910000.0 1.871680000e-01 1.085565000e+00
10000000.0 1.875990000e-01 1.086839000e+00
10900000.0 1.800040000e-01 1.092714000e+00
11800000.0 1.755090000e-01 1.099888000e+00
12700000.0 1.701150000e-01 1.108215000e+00
13600000.0 1.642200000e-01 1.115905000e+00
14500000.0 1.586490000e-01 1.123724000e+00
15400000.0 1.527570000e-01 1.133338000e+00
16300000.0 1.476010000e-01 1.142362000e+00
17200000.0 1.397100000e-01 1.151877000e+00
18100000.0 1.351740000e-01 1.161130000e+00
19000000.0 1.285720000e-01 1.170232000e+00
19900000.0 1.218800000e-01 1.179885000e+00
20800000.0 1.139650000e-01 1.190290000e+00
21700000.0 1.064500000e-01 1.199490000e+00
22600000.0 9.855200000e-02 1.210377000e+00
23500000.0 8.985400000e-02 1.219519000e+00
24400000.0 8.244100000e-02 1.228581000e+00
25300000.0 7.235900000e-02 1.240028000e+00
26200000.0 6.365000000e-02 1.249079000e+00
27100000.0 5.367600000e-02 1.258494000e+00
28000000.0 4.432900000e-02 1.269084000e+00
28900000.0 3.124600000e-02 1.282263000e+00
29800000.0 2.248100000e-02 1.290329000e+00
30700000.0 1.102600000e-02 1.300330000e+00
31600000.0 -1.200000000e-05 1.309694000e+00
32500000.0 -1.269100000e-02 1.321442000e+00
33400000.0 -2.512000000e-02 1.332070000e+00
34300000.0 -3.848000000e-02 1.341085000e+00
35200000.0 -5.193000000e-02 1.351383000e+00
36100000.0 -6.627300000e-02 1.361719000e+00
37000000.0 -8.002200000e-02 1.371491000e+00
37900000.0 -9.490600000e-02 1.380700000e+00
38800000.0 -1.087190000e-01 1.390043000e+00
39700000.0 -1.262820000e-01 1.398858000e+00
40600000.0 -1.413680000e-01 1.407346000e+00
41500000.0 -1.583370000e-01 1.417035000e+00
42400000.0 -1.758690000e-01 1.424758000e+00
43300000.0 -1.928670000e-01 1.433586000e+00
44200000.0 -2.112570000e-01 1.441235000e+00
45100000.0 -2.298420000e-01 1.448134000e+00
46000000.0 -2.484460000e-01 1.455438000e+00
46900000.0 -2.674440000e-01 1.462872000e+00
47800000.0 -2.871010000e-01 1.468258000e+00
48700000.0 -3.076500000e-01 1.473689000e+00
49600000.0 -3.285280000e-01 1.479095000e+00
50500000.0 -3.498330000e-01 1.483956000e+00
51400000.0 -3.705510000e-01 1.487297000e+00
52300000.0 -3.915170000e-01 1.491849000e+00
53200000.0 -4.128500000e-01 1.495503000e+00
54100000.0 -4.367410000e-01 1.496629000e+00
55000000.0 -4.577880000e-01 1.498780000e+00
55900000.0 -4.805310000e-01 1.500808000e+00
56800000.0 -5.028390000e-01 1.500939000e+00
57700000.0 -5.255260000e-01 1.501080000e+00
58600000.0 -5.490780000e-01 1.500489000e+00
59500000.0 -5.721480000e-01 1.499575000e+00
60400000.0 -5.955960000e-01 1.496062000e+00
61300000.0 -6.181840000e-01 1.494646000e+00
62200000.0 -6.421010000e-01 1.491028000e+00
63100000.0 -6.647280000e-01 1.486890000e+00
64000000.0 -6.888990000e-01 1.482064000e+00
64900000.0 -7.112870000e-01 1.476586000e+00
65800000.0 -7.350230000e-01 1.472086000e+00
66700000.0 -7.586350000e-01 1.463491000e+00
67600000.0 -7.809270000e-01 1.454565000e+00
68500000.0 -8.037020000e-01 1.447402000e+00
69400000.0 -8.271350000e-01 1.438420000e+00
70300000.0 -8.494960000e-01 1.428665000e+00
71200000.0 -8.708760000e-01 1.417909000e+00
72100000.0 -8.930760000e-01 1.406803000e+00
73000000.0 -9.131030000e-01 1.395061000e+00
73900000.0 -9.352950000e-01 1.382579000e+00
74800000.0 -9.563090000e-01 1.369058000e+00
75700000.0 -9.759430000e-01 1.356279000e+00
76600000.0 -9.951160000e-01 1.342619000e+00
77500000.0 -1.015776000e+00 1.325865000e+00
78400000.0 -1.034595000e+00 1.311349000e+00
79300000.0 -1.054011000e+00 1.295875000e+00
80200000.0 -1.071376000e+00 1.279919000e+00
81100000.0 -1.088679000e+00 1.262908000e+00
82000000.0 -1.106582000e+00 1.245160000e+00
82900000.0 -1.123159000e+00 1.227503000e+00
83800000.0 -1.139170000e+00 1.210661000e+00
84700000.0 -1.153820000e+00 1.192275000e+00
85600000.0 -1.169170000e+00 1.174437000e+00
86500000.0 -1.183023000e+00 1.155526000e+00
87400000.0 -1.197466000e+00 1.133242000e+00
88300000.0 -1.208450000e+00 1.115187000e+00
89200000.0 -1.221947000e+00 1.093707000e+00
90100000.0 -1.233220000e+00 1.075266000e+00
91000000.0 -1.244993000e+00 1.052558000e+00
91900000.0 -1.253250000e+00 1.032415000e+00
92800000.0 -1.263995000e+00 1.010772000e+00
93700000.0 -1.272358000e+00 9.916950000e-01
94600000.0 -1.281159000e+00 9.689910000e-01
95500000.0 -1.287767000e+00 9.488310000e-01
96400000.0 -1.294722000e+00 9.260450000e-01
97300000.0 -1.299330000e+00 9.065980000e-01
98200000.0 -1.306479000e+00 8.837530000e-01
99100000.0 -1.313206000e+00 8.640130000e-01
100000000.0 -1.314059000e+00 8.418560000e-01
109000000.0 -1.312618000e+00 6.329710000e-01
118000000.0 -1.271453000e+00 4.630630000e-01
127000000.0 -1.203094000e+00 3.284210000e-01
136000000.0 -1.103045000e+00 2.266590000e-01
145000000.0 -1.023010000e+00 1.556200000e-01
154000000.0 -9.819180000e-01 1.282360000e-01
163000000.0 -9.844810000e-01 1.332060000e-01
172000000.0 -9.830450000e-01 1.399090000e-01
181000000.0 -9.827360000e-01 1.451960000e-01
190000000.0 -9.913250000e-01 1.525190000e-01
199000000.0 -9.922060000e-01 1.589100000e-01
208000000.0 -9.921750000e-01 1.647670000e-01
217000000.0 -9.918000000e-01 1.735920000e-01
226000000.0 -9.898160000e-01 1.791460000e-01
235000000.0 -9.887060000e-01 1.885750000e-01
244000000.0 -9.870960000e-01 1.964720000e-01
253000000.0 -9.848380000e-01 2.033870000e-01
262000000.0 -9.811660000e-01 2.131040000e-01
271000000.0 -9.781910000e-01 2.205040000e-01
280000000.0 -9.745270000e-01 2.285490000e-01
289000000.0 -9.696220000e-01 2.380370000e-01
298000000.0 -9.639250000e-01 2.476160000e-01
307000000.0 -9.631330000e-01 2.558420000e-01
316000000.0 -9.633560000e-01 2.625240000e-01
325000000.0 -9.633530000e-01 2.702590000e-01
334000000.0 -9.640080000e-01 2.799410000e-01
343000000.0 -9.662650000e-01 2.854310000e-01
352000000.0 -9.638740000e-01 2.943120000e-01
361000000.0 -9.625010000e-01 3.000040000e-01
370000000.0 -9.603810000e-01 3.076130000e-01
379000000.0 -9.586190000e-01 3.139660000e-01
388000000.0 -9.553050000e-01 3.221520000e-01
397000000.0 -9.519600000e-01 3.292500000e-01
406000000.0 -9.670030000e-01 3.074710000e-01
415000000.0 -9.421600000e-01 3.451000000e-01
424000000.0 -9.400090000e-01 3.486740000e-01
433000000.0 -9.341830000e-01 3.570310000e-01
442000000.0 -9.281190000e-01 3.646890000e-01
451000000.0 -9.218620000e-01 3.714620000e-01
460000000.0 -9.233730000e-01 3.810510000e-01
469000000.0 -9.216360000e-01 3.895930000e-01
478000000.0 -9.197870000e-01 3.987790000e-01
487000000.0 -9.191700000e-01 4.050590000e-01
496000000.0 -9.175540000e-01 4.139320000e-01
505000000.0 -9.141820000e-01 4.208660000e-01
514000000.0 -9.126560000e-01 4.285960000e-01
523000000.0 -9.086440000e-01 4.363720000e-01
532000000.0 -9.043610000e-01 4.418550000e-01
541000000.0 -9.024180000e-01 4.510640000e-01
550000000.0 -8.982080000e-01 4.530820000e-01
559000000.0 -8.876700000e-01 4.621040000e-01
568000000.0 -8.848760000e-01 4.678070000e-01
577000000.0 -8.811470000e-01 4.758100000e-01
586000000.0 -8.732600000e-01 4.771710000e-01
595000000.0 -8.679700000e-01 4.843490000e-01
604000000.0 -8.612720000e-01 4.899800000e-01
613000000.0 -8.588800000e-01 4.985410000e-01
622000000.0 -8.574520000e-01 5.062360000e-01
631000000.0 -8.543620000e-01 5.152350000e-01
640000000.0 -8.498780000e-01 5.238060000e-01
649000000.0 -8.430560000e-01 5.311430000e-01
658000000.0 -8.423400000e-01 5.388940000e-01
667000000.0 -8.330220000e-01 5.458560000e-01
676000000.0 -8.311800000e-01 5.523400000e-01
685000000.0 -8.270690000e-01 5.578690000e-01
694000000.0 -8.175160000e-01 5.651790000e-01
703000000.0 -8.154970000e-01 5.699440000e-01
712000000.0 -8.076270000e-01 5.758170000e-01
721000000.0 -8.080030000e-01 5.804890000e-01
730000000.0 -8.038420000e-01 5.821770000e-01
739000000.0 -7.955040000e-01 5.899900000e-01
748000000.0 -7.909920000e-01 5.921550000e-01
757000000.0 -7.879050000e-01 5.978050000e-01
766000000.0 -7.812290000e-01 6.075580000e-01
775000000.0 -7.790370000e-01 6.107880000e-01
784000000.0 -7.699870000e-01 6.211240000e-01
793000000.0 -7.699970000e-01 6.250010000e-01
802000000.0 -7.640490000e-01 6.315030000e-01
811000000.0 -7.573540000e-01 6.392360000e-01
820000000.0 -7.542060000e-01 6.395300000e-01
829000000.0 -7.515230000e-01 6.472010000e-01
838000000.0 -7.437880000e-01 6.554180000e-01
847000000.0 -7.362060000e-01 6.624730000e-01
856000000.0 -7.319360000e-01 6.680260000e-01
865000000.0 -7.269730000e-01 6.724930000e-01
874000000.0 -7.223400000e-01 6.785120000e-01
883000000.0 -7.190360000e-01 6.815920000e-01
892000000.0 -7.126500000e-01 6.872240000e-01
901000000.0 -7.039510000e-01 6.898530000e-01
910000000.0 -6.993120000e-01 7.001520000e-01
919000000.0 -6.969470000e-01 7.042910000e-01
928000000.0 -6.928480000e-01 7.116280000e-01
937000000.0 -6.869850000e-01 7.184620000e-01
946000000.0 -6.838990000e-01 7.201450000e-01
955000000.0 -6.768960000e-01 7.291780000e-01
964000000.0 -6.698530000e-01 7.359560000e-01
973000000.0 -6.694670000e-01 7.404500000e-01
982000000.0 -6.570630000e-01 7.487510000e-01
991000000.0 -6.501060000e-01 7.529560000e-01
1000000000.0 -6.471610000e-01 7.581220000e-01
1004500000.0 -6.336720000e-01 7.548330000e-01
1009000000.0 -6.336100000e-01 7.566430000e-01
1013500000.0 -6.283040000e-01 7.589600000e-01
1018000000.0 -6.244750000e-01 7.650480000e-01
1022500000.0 -6.247500000e-01 7.659680000e-01
1027000000.0 -6.159810000e-01 7.687140000e-01
1031500000.0 -6.144600000e-01 7.692770000e-01
1036000000.0 -6.127430000e-01 7.719630000e-01
1040500000.0 -6.084680000e-01 7.725990000e-01
1045000000.0 -6.027670000e-01 7.752020000e-01
1049500000.0 -5.976640000e-01 7.776480000e-01
1054000000.0 -5.980810000e-01 7.810960000e-01
1058500000.0 -5.952490000e-01 7.849490000e-01
1063000000.0 -5.912190000e-01 7.869320000e-01
1067500000.0 -5.908560000e-01 7.909010000e-01
1072000000.0 -5.882570000e-01 7.939710000e-01
1076500000.0 -5.819180000e-01 7.999140000e-01
1081000000.0 -5.824300000e-01 8.011760000e-01
1085500000.0 -5.792190000e-01 8.029170000e-01
1090000000.0 -5.748340000e-01 8.084950000e-01
1094500000.0 -5.729430000e-01 8.082300000e-01
1099000000.0 -5.668330000e-01 8.135630000e-01
1103500000.0 -5.628960000e-01 8.145460000e-01
1108000000.0 -5.620780000e-01 8.204030000e-01
1112500000.0 -5.633740000e-01 8.179040000e-01
1117000000.0 -5.565500000e-01 8.222360000e-01
1121500000.0 -5.529740000e-01 8.256930000e-01
1126000000.0 -5.492450000e-01 8.289590000e-01
1130500000.0 -5.481970000e-01 8.291520000e-01
1135000000.0 -5.359740000e-01 8.349940000e-01
1139500000.0 -5.342160000e-01 8.389410000e-01
1144000000.0 -5.310190000e-01 8.386960000e-01
1148500000.0 -5.274740000e-01 8.387210000e-01
1153000000.0 -5.238170000e-01 8.364460000e-01
1157500000.0 -5.172500000e-01 8.420670000e-01
1162000000.0 -5.029320000e-01 8.478940000e-01
1166500000.0 -4.989720000e-01 8.518530000e-01
1171000000.0 -5.056350000e-01 8.465710000e-01
1175500000.0 -5.063320000e-01 8.485340000e-01
1180000000.0 -4.987230000e-01 8.521830000e-01
1184500000.0 -4.945660000e-01 8.506180000e-01
1189000000.0 -4.894680000e-01 8.529540000e-01
1193500000.0 -4.838750000e-01 8.549390000e-01
1198000000.0 -4.832930000e-01 8.544460000e-01
1202500000.0 -4.798900000e-01 8.522140000e-01
1207000000.0 -4.727820000e-01 8.580300000e-01
1211500000.0 -4.676020000e-01 8.629060000e-01
1216000000.0 -4.613110000e-01 8.644970000e-01
1220500000.0 -4.642100000e-01 8.647840000e-01
1225000000.0 -4.586780000e-01 8.720920000e-01
1229500000.0 -4.525200000e-01 8.745740000e-01
1234000000.0 -4.496880000e-01 8.769020000e-01
1238500000.0 -4.475430000e-01 8.760430000e-01
1243000000.0 -4.433170000e-01 8.795610000e-01
1247500000.0 -4.300650000e-01 8.788730000e-01
1252000000.0 -4.308810000e-01 8.745910000e-01
1256500000.0 -4.294440000e-01 8.753990000e-01
1261000000.0 -4.294650000e-01 8.796510000e-01
1265500000.0 -4.248980000e-01 8.818360000e-01
1270000000.0 -4.137400000e-01 8.840690000e-01
1274500000.0 -4.105160000e-01 8.878800000e-01
1279000000.0 -4.152910000e-01 8.870780000e-01
1283500000.0 -3.997710000e-01 8.856560000e-01
1288000000.0 -3.959410000e-01 8.826260000e-01
1292500000.0 -3.995560000e-01 8.833650000e-01
1297000000.0 -3.947500000e-01 8.878290000e-01
1301500000.0 -3.908220000e-01 8.974110000e-01
1306000000.0 -3.858890000e-01 8.974680000e-01
1310500000.0 -3.828730000e-01 9.041640000e-01
1315000000.0 -3.769120000e-01 9.014080000e-01
1319500000.0 -3.790930000e-01 8.988200000e-01
1324000000.0 -3.693520000e-01 9.057470000e-01
1328500000.0 -3.674380000e-01 9.022170000e-01
1333000000.0 -3.638960000e-01 9.049140000e-01
1337500000.0 -3.429880000e-01 9.123370000e-01
1342000000.0 -3.496390000e-01 9.050170000e-01
1346500000.0 -3.427720000e-01 9.061900000e-01
1351000000.0 -3.389740000e-01 9.063740000e-01
1355500000.0 -3.242820000e-01 9.127490000e-01
1360000000.0 -3.334410000e-01 9.065000000e-01
1364500000.0 -3.415600000e-01 9.094750000e-01
1369000000.0 -3.215780000e-01 9.170350000e-01
1373500000.0 -3.081650000e-01 9.212400000e-01
1378000000.0 -3.157780000e-01 9.187400000e-01
1382500000.0 -3.264990000e-01 9.148100000e-01
1387000000.0 -3.054030000e-01 9.248070000e-01
1391500000.0 -3.008330000e-01 9.247150000e-01
1396000000.0 -2.926790000e-01 9.292330000e-01
1400500000.0 -2.974200000e-01 9.274120000e-01
1405000000.0 -2.944920000e-01 9.333320000e-01
1409500000.0 -2.848860000e-01 9.345810000e-01
1414000000.0 -2.782080000e-01 9.373010000e-01
1418500000.0 -2.731990000e-01 9.351950000e-01
1423000000.0 -2.733340000e-01 9.444990000e-01
1427500000.0 -2.674430000e-01 9.425960000e-01
1432000000.0 -2.659550000e-01 9.398180000e-01
1436500000.0 -2.608170000e-01 9.429710000e-01
1441000000.0 -2.564310000e-01 9.412960000e-01
1445500000.0 -2.605320000e-01 9.437760000e-01
1450000000.0 -2.453810000e-01 9.497360000e-01
