! piloto_corto / corto_aluminio / r02
# HZ S RI R 50
50000.0 1.007540000e+00 -7.133800000e-02
59500.0 1.008900000e+00 -5.856700000e-02
69000.0 1.005027000e+00 -4.688000000e-02
78500.0 1.002512000e+00 -3.163000000e-02
88000.0 1.001027000e+00 -1.917500000e-02
97500.0 9.999810000e-01 -6.984000000e-03
107000.0 9.999130000e-01 5.508000000e-03
116500.0 1.000537000e+00 1.689200000e-02
126000.0 1.001745000e+00 2.801200000e-02
135500.0 1.000661000e+00 4.160500000e-02
145000.0 1.000676000e+00 5.366800000e-02
154500.0 1.000891000e+00 6.443400000e-02
164000.0 1.001251000e+00 7.736800000e-02
173500.0 1.001957000e+00 8.895500000e-02
183000.0 1.001760000e+00 1.011990000e-01
192500.0 1.001959000e+00 1.128350000e-01
202000.0 1.003604000e+00 1.237880000e-01
211500.0 1.002689000e+00 1.354470000e-01
221000.0 1.003126000e+00 1.469660000e-01
230500.0 1.003081000e+00 1.569990000e-01
240000.0 1.004270000e+00 1.690080000e-01
249500.0 1.004119000e+00 1.800630000e-01
259000.0 1.004601000e+00 1.920560000e-01
268500.0 1.004588000e+00 2.031040000e-01
278000.0 1.004513000e+00 2.132560000e-01
287500.0 1.004446000e+00 2.237700000e-01
297000.0 1.004828000e+00 2.355510000e-01
306500.0 1.005381000e+00 2.461710000e-01
316000.0 1.004753000e+00 2.569360000e-01
325500.0 1.005663000e+00 2.679100000e-01
335000.0 1.005748000e+00 2.783940000e-01
344500.0 1.005061000e+00 2.886030000e-01
354000.0 1.006328000e+00 2.994630000e-01
363500.0 1.005974000e+00 3.099210000e-01
373000.0 1.006553000e+00 3.206900000e-01
382500.0 1.006968000e+00 3.309770000e-01
392000.0 1.006962000e+00 3.411750000e-01
401500.0 1.007142000e+00 3.521370000e-01
411000.0 1.007361000e+00 3.623670000e-01
420500.0 1.008501000e+00 3.720600000e-01
430000.0 1.008021000e+00 3.815630000e-01
439500.0 1.007824000e+00 3.927040000e-01
449000.0 1.008073000e+00 4.020550000e-01
458500.0 1.008584000e+00 4.118620000e-01
468000.0 1.009340000e+00 4.218770000e-01
477500.0 1.008618000e+00 4.318720000e-01
487000.0 1.009457000e+00 4.421730000e-01
496500.0 1.009474000e+00 4.525400000e-01
506000.0 1.009756000e+00 4.623650000e-01
515500.0 1.010649000e+00 4.719150000e-01
525000.0 1.010633000e+00 4.817940000e-01
534500.0 1.010692000e+00 4.911930000e-01
544000.0 1.011862000e+00 5.017240000e-01
553500.0 1.011699000e+00 5.109980000e-01
563000.0 1.012511000e+00 5.202010000e-01
572500.0 1.013653000e+00 5.298430000e-01
582000.0 1.012689000e+00 5.408440000e-01
591500.0 1.012592000e+00 5.488370000e-01
601000.0 1.012998000e+00 5.599870000e-01
610500.0 1.015525000e+00 5.692120000e-01
620000.0 1.014681000e+00 5.790610000e-01
629500.0 1.015975000e+00 5.875210000e-01
639000.0 1.015824000e+00 5.972320000e-01
648500.0 1.015661000e+00 6.070870000e-01
658000.0 1.017984000e+00 6.161440000e-01
667500.0 1.017801000e+00 6.256710000e-01
677000.0 1.018615000e+00 6.346690000e-01
686500.0 1.019770000e+00 6.431910000e-01
696000.0 1.020257000e+00 6.532680000e-01
705500.0 1.020504000e+00 6.626650000e-01
715000.0 1.021158000e+00 6.718620000e-01
724500.0 1.022776000e+00 6.810770000e-01
734000.0 1.023870000e+00 6.902100000e-01
743500.0 1.024229000e+00 6.993180000e-01
753000.0 1.025034000e+00 7.089350000e-01
762500.0 1.026499000e+00 7.182300000e-01
772000.0 1.026866000e+00 7.277470000e-01
781500.0 1.028885000e+00 7.366360000e-01
791000.0 1.030334000e+00 7.451690000e-01
800500.0 1.031498000e+00 7.547320000e-01
810000.0 1.033720000e+00 7.634420000e-01
819500.0 1.033259000e+00 7.734700000e-01
829000.0 1.035889000e+00 7.813350000e-01
838500.0 1.036465000e+00 7.915730000e-01
848000.0 1.038416000e+00 7.987010000e-01
857500.0 1.039400000e+00 8.096210000e-01
867000.0 1.041727000e+00 8.167530000e-01
876500.0 1.042115000e+00 8.265760000e-01
886000.0 1.046138000e+00 8.348690000e-01
895500.0 1.047152000e+00 8.449920000e-01
905000.0 1.049032000e+00 8.523720000e-01
914500.0 1.063786000e+00 8.401630000e-01
924000.0 1.051554000e+00 8.699440000e-01
933500.0 1.067009000e+00 8.589970000e-01
943000.0 1.044170000e+00 9.085000000e-01
952500.0 1.071649000e+00 8.764670000e-01
962000.0 1.062739000e+00 9.061160000e-01
971500.0 1.077446000e+00 8.930870000e-01
981000.0 1.065887000e+00 9.226380000e-01
990500.0 1.082237000e+00 9.111460000e-01
1000000.0 1.071121000e+00 9.394460000e-01
1090000.0 1.096778000e+00 1.016643000e+00
1180000.0 1.133024000e+00 1.093844000e+00
1270000.0 1.179115000e+00 1.164225000e+00
1360000.0 1.235729000e+00 1.224232000e+00
1450000.0 1.303313000e+00 1.277885000e+00
1540000.0 1.377320000e+00 1.318474000e+00
1630000.0 1.459142000e+00 1.343390000e+00
1720000.0 1.549067000e+00 1.351406000e+00
1810000.0 1.635278000e+00 1.335557000e+00
1900000.0 1.721455000e+00 1.305712000e+00
1990000.0 1.801401000e+00 1.255510000e+00
2080000.0 1.866305000e+00 1.186349000e+00
2170000.0 1.913008000e+00 1.108246000e+00
2260000.0 1.947015000e+00 1.020187000e+00
2350000.0 1.961435000e+00 9.281570000e-01
2440000.0 1.961168000e+00 8.415320000e-01
2530000.0 1.946861000e+00 7.578160000e-01
2620000.0 1.923003000e+00 6.803470000e-01
2710000.0 1.895368000e+00 6.127020000e-01
2800000.0 1.858023000e+00 5.534200000e-01
2890000.0 1.816533000e+00 5.653800000e-01
2980000.0 1.781312000e+00 4.518480000e-01
3070000.0 1.742537000e+00 4.090060000e-01
3160000.0 1.705383000e+00 3.743620000e-01
3250000.0 1.669342000e+00 3.429640000e-01
3340000.0 1.633242000e+00 3.121470000e-01
3430000.0 1.602022000e+00 2.874430000e-01
3520000.0 1.571479000e+00 2.641760000e-01
3610000.0 1.542118000e+00 2.421850000e-01
3700000.0 1.515739000e+00 2.228930000e-01
3790000.0 1.490394000e+00 2.037050000e-01
3880000.0 1.466776000e+00 1.870850000e-01
3970000.0 1.444943000e+00 1.701990000e-01
4060000.0 1.423541000e+00 1.517560000e-01
4150000.0 1.406354000e+00 1.363150000e-01
4240000.0 1.387804000e+00 1.213700000e-01
4330000.0 1.372787000e+00 1.074780000e-01
4420000.0 1.355782000e+00 9.296700000e-02
4510000.0 1.344758000e+00 7.988700000e-02
4600000.0 1.332899000e+00 6.516300000e-02
4690000.0 1.321854000e+00 5.246400000e-02
4780000.0 1.312215000e+00 4.018900000e-02
4870000.0 1.304890000e+00 2.494400000e-02
4960000.0 1.295460000e+00 1.358300000e-02
5050000.0 1.281068000e+00 1.530000000e-03
5140000.0 1.275000000e+00 -1.188500000e-02
5230000.0 1.270865000e+00 -2.420600000e-02
5320000.0 1.265971000e+00 -3.529600000e-02
5410000.0 1.262386000e+00 -4.934100000e-02
5500000.0 1.257922000e+00 -6.088000000e-02
5590000.0 1.253454000e+00 -7.349300000e-02
5680000.0 1.250385000e+00 -8.342900000e-02
5770000.0 1.246079000e+00 -9.496800000e-02
5860000.0 1.242487000e+00 -1.057470000e-01
5950000.0 1.240950000e+00 -1.161380000e-01
6040000.0 1.236608000e+00 -1.258980000e-01
6130000.0 1.234538000e+00 -1.359690000e-01
6220000.0 1.231179000e+00 -1.451160000e-01
6310000.0 1.229723000e+00 -1.551810000e-01
6400000.0 1.227266000e+00 -1.649530000e-01
6490000.0 1.226324000e+00 -1.712710000e-01
6580000.0 1.225215000e+00 -1.785410000e-01
6670000.0 1.222749000e+00 -1.863550000e-01
6760000.0 1.221678000e+00 -1.917300000e-01
6850000.0 1.220623000e+00 -1.979200000e-01
6940000.0 1.219428000e+00 -2.037440000e-01
7030000.0 1.220101000e+00 -2.067250000e-01
7120000.0 1.217466000e+00 -2.109100000e-01
7210000.0 1.217512000e+00 -2.129890000e-01
7300000.0 1.216996000e+00 -2.158890000e-01
7390000.0 1.216834000e+00 -2.163790000e-01
7480000.0 1.216644000e+00 -2.158300000e-01
7570000.0 -2.671750000e-01 -1.255669000e+00
7660000.0 -2.654450000e-01 -1.256659000e+00
7750000.0 -2.652530000e-01 -1.256529000e+00
7840000.0 -2.644000000e-01 -1.256639000e+00
7930000.0 -2.643320000e-01 -1.257653000e+00
8020000.0 -2.640560000e-01 -1.258222000e+00
8110000.0 -2.647990000e-01 -1.258294000e+00
8200000.0 -2.637430000e-01 -1.258317000e+00
8290000.0 -2.635630000e-01 -1.257972000e+00
8380000.0 -2.618250000e-01 -1.258621000e+00
8470000.0 -2.628140000e-01 -1.259324000e+00
8560000.0 -2.608730000e-01 -1.259625000e+00
8650000.0 -2.602290000e-01 -1.260281000e+00
8740000.0 -2.596350000e-01 -1.261811000e+00
8830000.0 -2.596230000e-01 -1.262593000e+00
8920000.0 -2.584870000e-01 -1.262333000e+00
9010000.0 -2.587810000e-01 -1.263616000e+00
9100000.0 -2.588830000e-01 -1.264983000e+00
9190000.0 -2.582850000e-01 -1.265492000e+00
9280000.0 -2.576310000e-01 -1.265987000e+00
9370000.0 -2.574670000e-01 -1.265131000e+00
9460000.0 -2.569820000e-01 -1.267207000e+00
9550000.0 -2.569610000e-01 -1.266481000e+00
9640000.0 -2.559680000e-01 -1.267717000e+00
9730000.0 -2.556840000e-01 -1.269896000e+00
9820000.0 -2.561110000e-01 -1.269532000e+00
9910000.0 -2.548520000e-01 -1.270802000e+00
10000000.0 -2.558140000e-01 -1.271352000e+00
10900000.0 1.423850000e-01 8.903010000e-01
11800000.0 1.446300000e-01 9.283220000e-01
12700000.0 1.623220000e-01 1.069739000e+00
13600000.0 1.540050000e-01 1.055527000e+00
14500000.0 -2.613790000e-01 -1.315164000e+00
15400000.0 -2.587720000e-01 -1.327078000e+00
16300000.0 -2.710370000e-01 -1.333835000e+00
17200000.0 9.062700000e-02 8.090230000e-01
18100000.0 1.305800000e-01 1.133780000e+00
19000000.0 1.271180000e-01 1.161852000e+00
19900000.0 1.199890000e-01 1.173634000e+00
20800000.0 1.138050000e-01 1.183554000e+00
21700000.0 1.061910000e-01 1.185908000e+00
22600000.0 9.601200000e-02 1.184667000e+00
23500000.0 8.816300000e-02 1.193553000e+00
24400000.0 8.057200000e-02 1.207372000e+00
25300000.0 7.127900000e-02 1.219613000e+00
26200000.0 6.225900000e-02 1.229523000e+00
27100000.0 5.210200000e-02 1.237743000e+00
28000000.0 4.266600000e-02 1.241082000e+00
28900000.0 3.110600000e-02 1.225438000e+00
29800000.0 -4.979500000e-02 2.059660000e-01
30700000.0 -2.327030000e-01 -1.434148000e+00
31600000.0 -1.750560000e-01 -1.565696000e+00
32500000.0 -1.576170000e-01 -1.583355000e+00
33400000.0 -1.122370000e-01 -1.603804000e+00
34300000.0 -1.906850000e-01 -1.603981000e+00
35200000.0 -9.979600000e-02 -1.633963000e+00
36100000.0 -1.694500000e-01 -1.638305000e+00
37000000.0 -7.540300000e-02 3.371550000e-01
37900000.0 -6.899400000e-02 1.301204000e+00
38800000.0 -1.324930000e-01 1.354909000e+00
39700000.0 -9.898000000e-02 1.376078000e+00
40600000.0 -1.370500000e-01 1.361701000e+00
41500000.0 -7.050600000e-02 -1.742094000e+00
42400000.0 -3.141500000e-02 -1.760416000e+00
43300000.0 -1.955000000e-03 -1.774246000e+00
44200000.0 1.734800000e-02 -1.791942000e+00
45100000.0 2.681900000e-02 -1.807652000e+00
46000000.0 2.178400000e-02 -1.824828000e+00
46900000.0 -1.210530000e-01 2.910330000e-01
47800000.0 -2.270860000e-01 1.109502000e+00
48700000.0 -2.880190000e-01 1.380324000e+00
49600000.0 -3.126160000e-01 1.405095000e+00
50500000.0 -2.796860000e-01 1.161779000e+00
51400000.0 1.508390000e-01 -1.912626000e+00
52300000.0 1.996970000e-01 -1.924510000e+00
53200000.0 2.318520000e-01 -1.935876000e+00
54100000.0 2.607850000e-01 -1.947629000e+00
55000000.0 2.781100000e-01 -1.960207000e+00
55900000.0 2.915870000e-01 -1.970089000e+00
56800000.0 3.191980000e-01 -1.979441000e+00
57700000.0 3.604390000e-01 -1.986111000e+00
58600000.0 4.115270000e-01 -1.991619000e+00
59500000.0 4.535390000e-01 -1.994442000e+00
60400000.0 4.920360000e-01 -1.997262000e+00
61300000.0 5.243900000e-01 -2.001334000e+00
62200000.0 5.614330000e-01 -2.002071000e+00
63100000.0 5.994970000e-01 -2.000820000e+00
64000000.0 6.382690000e-01 -1.997975000e+00
64900000.0 6.845760000e-01 -1.991431000e+00
65800000.0 7.340330000e-01 -1.981173000e+00
66700000.0 7.797480000e-01 -1.971529000e+00
67600000.0 8.177050000e-01 -1.959849000e+00
68500000.0 8.478670000e-01 -1.954037000e+00
69400000.0 8.766050000e-01 -1.944946000e+00
70300000.0 9.039810000e-01 -1.933713000e+00
71200000.0 9.411480000e-01 -1.915697000e+00
72100000.0 9.779540000e-01 -1.898489000e+00
73000000.0 1.011658000e+00 -1.883153000e+00
73900000.0 1.031315000e+00 -1.869214000e+00
74800000.0 1.043643000e+00 -1.858362000e+00
75700000.0 1.034713000e+00 -1.863452000e+00
76600000.0 8.755520000e-01 -1.939028000e+00
77500000.0 5.164470000e-01 -1.449994000e+00
78400000.0 9.406440000e-01 -1.896223000e+00
79300000.0 1.135685000e+00 -1.771847000e+00
80200000.0 1.185934000e+00 -1.723930000e+00
81100000.0 1.222428000e+00 -1.689488000e+00
82000000.0 1.241633000e+00 -1.661934000e+00
82900000.0 1.253084000e+00 -1.639694000e+00
83800000.0 1.263236000e+00 -1.614046000e+00
84700000.0 1.285590000e+00 -1.579902000e+00
85600000.0 1.314661000e+00 -1.536389000e+00
86500000.0 1.344162000e+00 -1.489704000e+00
87400000.0 1.367778000e+00 -1.444685000e+00
88300000.0 1.391822000e+00 -1.400321000e+00
89200000.0 1.405385000e+00 -1.363528000e+00
90100000.0 1.407828000e+00 -1.338069000e+00
91000000.0 1.408046000e+00 -1.315044000e+00
91900000.0 1.400238000e+00 -1.299504000e+00
92800000.0 1.396520000e+00 -1.278768000e+00
93700000.0 1.393375000e+00 -1.256795000e+00
94600000.0 1.387289000e+00 -1.236799000e+00
95500000.0 1.376141000e+00 -1.227802000e+00
96400000.0 1.357613000e+00 -1.221581000e+00
97300000.0 1.349044000e+00 -1.205646000e+00
98200000.0 1.353506000e+00 -1.173444000e+00
99100000.0 1.361837000e+00 -1.128991000e+00
100000000.0 1.374785000e+00 -1.084743000e+00
109000000.0 -1.252452000e+00 6.004200000e-01
118000000.0 -1.210357000e+00 4.365420000e-01
127000000.0 -1.140389000e+00 3.105230000e-01
136000000.0 -1.040871000e+00 2.136240000e-01
145000000.0 -9.520260000e-01 1.456180000e-01
154000000.0 -8.942010000e-01 1.164100000e-01
163000000.0 -9.049470000e-01 1.222720000e-01
172000000.0 -9.115860000e-01 1.275380000e-01
181000000.0 -9.073960000e-01 1.324000000e-01
190000000.0 -9.087130000e-01 1.390430000e-01
199000000.0 -9.083390000e-01 1.463590000e-01
208000000.0 -9.033170000e-01 1.515790000e-01
217000000.0 -7.694660000e-01 1.245810000e-01
226000000.0 2.291860000e-01 -5.333950000e-01
235000000.0 2.160910000e-01 -4.694810000e-01
244000000.0 1.634320000e-01 -3.603250000e-01
253000000.0 9.021200000e-02 -3.062620000e-01
262000000.0 4.928300000e-02 -3.387110000e-01
271000000.0 1.048600000e-02 -3.622760000e-01
280000000.0 -5.857000000e-03 -3.657130000e-01
289000000.0 1.239430000e-01 -4.856860000e-01
298000000.0 4.253820000e-01 -8.412390000e-01
307000000.0 3.729420000e-01 -8.590660000e-01
316000000.0 1.591400000e-01 -7.792620000e-01
325000000.0 -1.376270000e-01 -4.453120000e-01
334000000.0 -3.563620000e-01 -2.012970000e-01
343000000.0 -5.335620000e-01 6.676000000e-03
352000000.0 -6.312320000e-01 1.016010000e-01
361000000.0 -6.345490000e-01 1.399510000e-01
370000000.0 -6.100390000e-01 1.008930000e-01
379000000.0 -4.833420000e-01 1.163500000e-02
388000000.0 1.811220000e-01 -9.684870000e-01
397000000.0 4.439480000e-01 -8.886060000e-01
406000000.0 3.778890000e-01 -9.013560000e-01
415000000.0 4.077050000e-01 -9.041360000e-01
424000000.0 2.980300000e-02 -9.880410000e-01
433000000.0 -3.612700000e-01 -7.294840000e-01
442000000.0 -5.768930000e-01 7.539200000e-02
451000000.0 -7.303220000e-01 2.554910000e-01
460000000.0 -6.528860000e-01 1.895380000e-01
469000000.0 -5.807480000e-01 1.472450000e-01
478000000.0 1.681860000e-01 -9.728640000e-01
487000000.0 2.488650000e-01 -9.554370000e-01
496000000.0 2.632420000e-01 -9.550090000e-01
505000000.0 2.464700000e-01 -9.597360000e-01
514000000.0 1.994780000e-01 -9.721910000e-01
523000000.0 6.461600000e-02 -9.942990000e-01
532000000.0 -3.989310000e-01 -3.189540000e-01
541000000.0 -6.869170000e-01 2.824840000e-01
550000000.0 -7.687070000e-01 3.744210000e-01
559000000.0 -5.346040000e-01 -1.492300000e-02
568000000.0 -4.427960000e-01 -8.862800000e-01
577000000.0 1.298000000e-02 -9.904360000e-01
586000000.0 5.129100000e-02 -9.878770000e-01
595000000.0 4.930400000e-02 -9.819270000e-01
604000000.0 2.552600000e-02 -9.841270000e-01
613000000.0 -3.023900000e-02 -9.895050000e-01
622000000.0 -1.230120000e-01 -9.863120000e-01
631000000.0 -4.299530000e-01 -8.999400000e-01
640000000.0 -6.448100000e-01 -7.607000000e-01
649000000.0 -7.081640000e-01 -6.808070000e-01
658000000.0 -4.896280000e-01 -1.999410000e-01
667000000.0 -4.618770000e-01 -2.337840000e-01
676000000.0 -6.357960000e-01 -7.719540000e-01
685000000.0 -6.546410000e-01 -7.538580000e-01
694000000.0 -6.986840000e-01 -7.108760000e-01
703000000.0 -7.146680000e-01 -6.788780000e-01
712000000.0 -7.060050000e-01 -6.895710000e-01
721000000.0 -6.471140000e-01 -7.524180000e-01
730000000.0 -5.535820000e-01 -8.204830000e-01
739000000.0 -5.197670000e-01 -8.393480000e-01
748000000.0 -6.012310000e-01 -7.774280000e-01
757000000.0 -7.538430000e-01 -6.240400000e-01
766000000.0 -8.469630000e-01 -4.851240000e-01
775000000.0 -7.454010000e-01 -2.867840000e-01
784000000.0 -6.693190000e-01 -1.812890000e-01
793000000.0 -5.895780000e-01 -1.317190000e-01
802000000.0 -7.589630000e-01 -6.180420000e-01
811000000.0 -5.236040000e-01 -8.332550000e-01
820000000.0 -4.913490000e-01 -8.513740000e-01
829000000.0 -5.059390000e-01 -8.428480000e-01
838000000.0 -5.611060000e-01 -8.073540000e-01
847000000.0 -8.434440000e-01 -4.625680000e-01
856000000.0 -6.983940000e-01 -7.167400000e-02
865000000.0 -7.796230000e-01 -1.841200000e-02
874000000.0 -7.688300000e-01 3.810600000e-02
883000000.0 -7.558760000e-01 2.083700000e-02
892000000.0 -5.795280000e-01 1.646280000e-01
901000000.0 -5.921120000e-01 -6.586100000e-02
910000000.0 -8.512380000e-01 -4.935160000e-01
919000000.0 -8.745940000e-01 -4.486320000e-01
928000000.0 -7.673440000e-01 -2.602860000e-01
937000000.0 -6.752030000e-01 -1.118300000e-01
946000000.0 -7.016020000e-01 -9.116500000e-02
955000000.0 -9.040480000e-01 -1.758290000e-01
964000000.0 -9.002380000e-01 -1.325190000e-01
973000000.0 -8.551080000e-01 -9.179600000e-02
982000000.0 -8.341850000e-01 -8.202500000e-02
991000000.0 -8.044430000e-01 -9.237300000e-02
1000000000.0 -9.584450000e-01 -2.201550000e-01
1004500000.0 -5.540280000e-01 5.930250000e-01
1009000000.0 -7.431120000e-01 -6.408140000e-01
1013500000.0 -6.741350000e-01 -7.129300000e-01
1018000000.0 -6.578700000e-01 -7.240020000e-01
1022500000.0 -6.783590000e-01 -7.077530000e-01
1027000000.0 -7.399100000e-01 -6.454040000e-01
1031500000.0 -8.122140000e-01 -1.164440000e-01
1036000000.0 -5.926440000e-01 7.593660000e-01
1040500000.0 -5.984560000e-01 7.860370000e-01
1045000000.0 -5.911750000e-01 7.856310000e-01
1049500000.0 -5.916840000e-01 7.785460000e-01
1054000000.0 -5.640150000e-01 7.583220000e-01
1058500000.0 -7.866110000e-01 -5.871570000e-01
1063000000.0 -7.559610000e-01 -6.298530000e-01
1067500000.0 -7.706640000e-01 -6.150540000e-01
1072000000.0 -8.898110000e-01 -4.253820000e-01
1076500000.0 -6.066150000e-01 1.984280000e-01
1081000000.0 -5.454800000e-01 7.613660000e-01
1085500000.0 -5.721080000e-01 8.092060000e-01
1090000000.0 -5.665770000e-01 8.146030000e-01
1094500000.0 -5.580900000e-01 8.099400000e-01
1099000000.0 -5.261750000e-01 7.575070000e-01
1103500000.0 -4.692310000e-01 6.198740000e-01
1108000000.0 -8.198130000e-01 -3.498910000e-01
1112500000.0 -7.627200000e-01 -1.842240000e-01
1117000000.0 -5.692440000e-01 2.118810000e-01
1121500000.0 -4.858530000e-01 5.524490000e-01
1126000000.0 -4.927690000e-01 6.122780000e-01
1130500000.0 -5.013540000e-01 7.567860000e-01
1135000000.0 -5.226540000e-01 8.290220000e-01
1139500000.0 -4.857010000e-01 7.583940000e-01
1144000000.0 -9.389690000e-01 -1.307300000e-02
1148500000.0 -9.339720000e-01 -3.154450000e-01
1153000000.0 -8.703950000e-01 -4.520420000e-01
1157500000.0 -8.673690000e-01 -4.639980000e-01
1162000000.0 -8.903140000e-01 -4.197620000e-01
1166500000.0 -9.339850000e-01 -3.216110000e-01
1171000000.0 -9.011940000e-01 -1.839320000e-01
1175500000.0 -9.704570000e-01 -7.074300000e-02
1180000000.0 -6.573000000e-01 1.901700000e-01
1184500000.0 -4.471580000e-01 5.096630000e-01
1189000000.0 -4.257600000e-01 6.927970000e-01
1193500000.0 -9.675030000e-01 -4.009400000e-02
1198000000.0 -9.028730000e-01 -3.776480000e-01
1202500000.0 -8.793670000e-01 -4.341950000e-01
1207000000.0 -8.781310000e-01 -4.406380000e-01
1211500000.0 -8.869220000e-01 -4.208050000e-01
1216000000.0 -9.393610000e-01 -2.798810000e-01
1220500000.0 -9.867340000e-01 4.469100000e-02
1225000000.0 -4.322110000e-01 8.384240000e-01
1229500000.0 -4.330540000e-01 8.485550000e-01
1234000000.0 -4.392600000e-01 8.778410000e-01
1238500000.0 -3.772390000e-01 6.098530000e-01
1243000000.0 -9.261380000e-01 -3.437280000e-01
1247500000.0 -9.086110000e-01 -3.879420000e-01
1252000000.0 -9.069640000e-01 -3.950410000e-01
1256500000.0 -9.249460000e-01 -3.446150000e-01
1261000000.0 -9.559460000e-01 -7.934500000e-02
1265500000.0 -3.841510000e-01 6.083450000e-01
1270000000.0 -4.013940000e-01 8.749130000e-01
1274500000.0 -4.062730000e-01 8.985160000e-01
1279000000.0 -3.924130000e-01 8.924350000e-01
1283500000.0 -3.502810000e-01 7.208220000e-01
1288000000.0 -9.723450000e-01 -1.841860000e-01
1292500000.0 -9.747680000e-01 -1.855440000e-01
1297000000.0 -9.666280000e-01 -7.859900000e-02
1301500000.0 -3.215810000e-01 6.929020000e-01
1306000000.0 -3.367750000e-01 7.433320000e-01
1310500000.0 -3.291420000e-01 7.195760000e-01
1315000000.0 -9.710670000e-01 -1.812310000e-01
1319500000.0 -9.540370000e-01 -2.560240000e-01
1324000000.0 -9.469510000e-01 -2.715560000e-01
1328500000.0 -9.461990000e-01 -2.807000000e-01
1333000000.0 -9.579470000e-01 -2.198410000e-01
1337500000.0 -6.121890000e-01 1.168670000e-01
1342000000.0 -3.133340000e-01 7.435250000e-01
1346500000.0 -3.255900000e-01 6.198750000e-01
1351000000.0 -2.965320000e-01 7.237200000e-01
1355500000.0 -9.727240000e-01 -1.308390000e-01
1360000000.0 -9.525470000e-01 -2.498920000e-01
1364500000.0 -9.352330000e-01 -2.942260000e-01
1369000000.0 -9.269930000e-01 -3.350590000e-01
1373500000.0 -9.341620000e-01 -3.303880000e-01
1378000000.0 -9.369760000e-01 -3.176780000e-01
1382500000.0 -9.597200000e-01 -2.688830000e-01
1387000000.0 -9.732650000e-01 -1.858250000e-01
1391500000.0 -6.510960000e-01 2.385200000e-01
1396000000.0 -9.408580000e-01 2.764880000e-01
1400500000.0 -7.056600000e-01 3.072840000e-01
1405000000.0 -9.855840000e-01 7.185700000e-02
1409500000.0 -9.751350000e-01 -1.932620000e-01
1414000000.0 -9.652820000e-01 -2.602550000e-01
1418500000.0 -9.553070000e-01 -2.877460000e-01
1423000000.0 -9.565510000e-01 -2.905910000e-01
1427500000.0 -9.719520000e-01 -2.388250000e-01
1432000000.0 -9.851320000e-01 -1.623880000e-01
1436500000.0 -9.944390000e-01 -7.701900000e-02
1441000000.0 -1.000200000e+00 2.662200000e-02
1445500000.0 -9.979460000e-01 3.349700000e-02
1450000000.0 -9.955600000e-01 -7.198200000e-02
