! piloto_corto / corto_cobre / r09
# HZ S RI R 50
50000.0 1.005185000e+00 -7.235900000e-02
59500.0 1.003422000e+00 -5.934200000e-02
69000.0 1.003084000e+00 -4.428400000e-02
78500.0 1.002235000e+00 -3.301900000e-02
88000.0 1.001518000e+00 -1.981100000e-02
97500.0 1.001207000e+00 -7.996000000e-03
107000.0 1.000687000e+00 4.264000000e-03
116500.0 9.992990000e-01 1.702500000e-02
126000.0 9.987190000e-01 3.016300000e-02
135500.0 1.000212000e+00 3.996200000e-02
145000.0 1.000094000e+00 5.248600000e-02
154500.0 1.000968000e+00 6.376100000e-02
164000.0 1.001812000e+00 7.664500000e-02
173500.0 1.001576000e+00 8.762500000e-02
183000.0 1.001435000e+00 9.913500000e-02
192500.0 1.002458000e+00 1.112060000e-01
202000.0 1.003183000e+00 1.218330000e-01
211500.0 1.002986000e+00 1.339840000e-01
221000.0 1.003005000e+00 1.446530000e-01
230500.0 1.002568000e+00 1.566310000e-01
240000.0 1.002837000e+00 1.673270000e-01
249500.0 1.003427000e+00 1.788580000e-01
259000.0 1.003992000e+00 1.895540000e-01
268500.0 1.003454000e+00 2.009380000e-01
278000.0 1.004449000e+00 2.118190000e-01
287500.0 1.004950000e+00 2.230550000e-01
297000.0 1.004890000e+00 2.339240000e-01
306500.0 1.004437000e+00 2.443170000e-01
316000.0 1.004775000e+00 2.547190000e-01
325500.0 1.005992000e+00 2.657900000e-01
335000.0 1.005645000e+00 2.759700000e-01
344500.0 1.005684000e+00 2.866240000e-01
354000.0 1.005678000e+00 2.971890000e-01
363500.0 1.006074000e+00 3.076150000e-01
373000.0 7.645360000e-01 2.413340000e-01
382500.0 1.006101000e+00 3.274230000e-01
392000.0 7.634730000e-01 2.580160000e-01
401500.0 1.006795000e+00 3.483610000e-01
411000.0 1.005870000e+00 3.581470000e-01
420500.0 1.006631000e+00 3.681980000e-01
430000.0 -5.487820000e-01 -1.522710000e-01
439500.0 -8.042910000e-01 -2.342910000e-01
449000.0 -6.823910000e-01 -2.043470000e-01
458500.0 8.989480000e-01 3.635200000e-01
468000.0 3.593110000e-01 1.563930000e-01
477500.0 1.007970000e+00 4.282010000e-01
487000.0 1.008455000e+00 4.390470000e-01
496500.0 1.008846000e+00 4.483720000e-01
506000.0 1.009019000e+00 4.582550000e-01
515500.0 1.009465000e+00 4.671750000e-01
525000.0 1.010057000e+00 4.772760000e-01
534500.0 1.010496000e+00 4.870740000e-01
544000.0 1.010929000e+00 4.970950000e-01
553500.0 1.011277000e+00 5.075330000e-01
563000.0 1.010612000e+00 5.163890000e-01
572500.0 1.010994000e+00 5.257890000e-01
582000.0 1.012101000e+00 5.361240000e-01
591500.0 1.012932000e+00 5.465620000e-01
601000.0 1.013896000e+00 5.558370000e-01
610500.0 1.012900000e+00 5.640470000e-01
620000.0 1.013780000e+00 5.732990000e-01
629500.0 1.013858000e+00 5.828520000e-01
639000.0 1.014575000e+00 5.929590000e-01
648500.0 1.015231000e+00 6.026880000e-01
658000.0 1.015660000e+00 6.123530000e-01
667500.0 1.016212000e+00 6.203250000e-01
677000.0 1.017484000e+00 6.307990000e-01
686500.0 1.018531000e+00 6.397640000e-01
696000.0 1.019807000e+00 6.489310000e-01
705500.0 1.020092000e+00 6.574880000e-01
715000.0 1.020606000e+00 6.681650000e-01
724500.0 1.021130000e+00 6.773010000e-01
734000.0 1.022171000e+00 6.861040000e-01
743500.0 1.022927000e+00 6.959020000e-01
753000.0 1.023749000e+00 7.049640000e-01
762500.0 1.024507000e+00 7.139960000e-01
772000.0 1.026333000e+00 7.228380000e-01
781500.0 1.027042000e+00 7.311900000e-01
791000.0 1.028292000e+00 7.403590000e-01
800500.0 1.030410000e+00 7.503250000e-01
810000.0 1.030593000e+00 7.596800000e-01
819500.0 1.032898000e+00 7.672870000e-01
829000.0 1.033047000e+00 7.760990000e-01
838500.0 1.035951000e+00 7.848240000e-01
848000.0 1.035903000e+00 7.940830000e-01
857500.0 1.037751000e+00 8.036430000e-01
867000.0 1.039400000e+00 8.116840000e-01
876500.0 1.041451000e+00 8.207710000e-01
886000.0 1.041830000e+00 8.278280000e-01
895500.0 1.045459000e+00 8.383720000e-01
905000.0 1.046168000e+00 8.468490000e-01
914500.0 1.047935000e+00 8.558970000e-01
924000.0 1.050465000e+00 8.651490000e-01
933500.0 1.052758000e+00 8.730460000e-01
943000.0 1.054182000e+00 8.828310000e-01
952500.0 1.057300000e+00 8.910850000e-01
962000.0 1.059476000e+00 8.980040000e-01
971500.0 1.059787000e+00 9.067150000e-01
981000.0 1.061537000e+00 9.165480000e-01
990500.0 1.065085000e+00 9.245830000e-01
1000000.0 1.069267000e+00 9.340280000e-01
1090000.0 1.092294000e+00 1.011068000e+00
1180000.0 1.128517000e+00 1.085339000e+00
1270000.0 1.174547000e+00 1.156473000e+00
1360000.0 1.226034000e+00 1.221332000e+00
1450000.0 1.291380000e+00 1.272723000e+00
1540000.0 1.365806000e+00 1.315914000e+00
1630000.0 1.448458000e+00 1.342430000e+00
1720000.0 1.535004000e+00 1.349820000e+00
1810000.0 1.622399000e+00 1.338290000e+00
1900000.0 1.709791000e+00 1.308514000e+00
1990000.0 1.788024000e+00 1.263023000e+00
2080000.0 1.854063000e+00 1.195603000e+00
2170000.0 1.906501000e+00 1.116447000e+00
2260000.0 1.937836000e+00 1.030107000e+00
2350000.0 1.958821000e+00 9.397660000e-01
2440000.0 1.960899000e+00 8.525140000e-01
2530000.0 1.947913000e+00 7.684000000e-01
2620000.0 1.925776000e+00 6.944360000e-01
2710000.0 1.898164000e+00 6.240420000e-01
2800000.0 1.861272000e+00 5.606640000e-01
2890000.0 1.827219000e+00 5.040750000e-01
2980000.0 1.788366000e+00 4.560660000e-01
3070000.0 1.747731000e+00 4.143040000e-01
3160000.0 1.711015000e+00 3.758770000e-01
3250000.0 1.674647000e+00 3.427910000e-01
3340000.0 1.640849000e+00 3.137230000e-01
3430000.0 1.606973000e+00 2.892100000e-01
3520000.0 1.574525000e+00 2.645640000e-01
3610000.0 1.545630000e+00 2.426840000e-01
3700000.0 1.519317000e+00 2.202120000e-01
3790000.0 1.493843000e+00 2.020850000e-01
3880000.0 1.471202000e+00 1.846460000e-01
3970000.0 1.447820000e+00 1.671790000e-01
4060000.0 1.426547000e+00 1.776570000e-01
4150000.0 1.408528000e+00 1.360240000e-01
4240000.0 1.390018000e+00 1.468990000e-01
4330000.0 1.374755000e+00 8.225100000e-02
4420000.0 1.361294000e+00 1.168250000e-01
4510000.0 1.346490000e+00 5.277100000e-02
4600000.0 1.335994000e+00 8.708900000e-02
4690000.0 1.323146000e+00 2.653400000e-02
4780000.0 1.315510000e+00 5.932900000e-02
4870000.0 1.306445000e+00 2.537700000e-02
4960000.0 1.299050000e+00 3.465600000e-02
5050000.0 1.281955000e+00 -1.694000000e-03
5140000.0 1.276472000e+00 -1.473400000e-02
5230000.0 1.272216000e+00 -2.685100000e-02
5320000.0 1.267546000e+00 -3.857800000e-02
5410000.0 1.262051000e+00 -5.058800000e-02
5500000.0 1.257864000e+00 -6.337200000e-02
5590000.0 1.254608000e+00 -7.516100000e-02
5680000.0 1.251935000e+00 -8.686400000e-02
5770000.0 1.247494000e+00 -9.782400000e-02
5860000.0 1.242989000e+00 -1.083810000e-01
5950000.0 1.240292000e+00 -1.200790000e-01
6040000.0 1.237490000e+00 -1.295890000e-01
6130000.0 1.234815000e+00 -1.401880000e-01
6220000.0 1.231654000e+00 -1.512890000e-01
6310000.0 1.231839000e+00 -1.590750000e-01
6400000.0 1.229518000e+00 -1.681750000e-01
6490000.0 1.225929000e+00 -1.749860000e-01
6580000.0 1.225254000e+00 -1.814770000e-01
6670000.0 1.223381000e+00 -1.884750000e-01
6760000.0 1.220976000e+00 -1.951870000e-01
6850000.0 1.220163000e+00 -1.998180000e-01
6940000.0 1.218874000e+00 -2.065480000e-01
7030000.0 1.218560000e+00 -2.095270000e-01
7120000.0 1.217583000e+00 -2.138370000e-01
7210000.0 1.217401000e+00 -2.162080000e-01
7300000.0 1.217955000e+00 -2.182350000e-01
7390000.0 1.216780000e+00 -2.193570000e-01
7480000.0 1.217610000e+00 -2.182850000e-01
7570000.0 -2.695270000e-01 -1.256634000e+00
7660000.0 -2.684940000e-01 -1.255265000e+00
7750000.0 -2.682300000e-01 -1.254883000e+00
7840000.0 -2.683080000e-01 -1.256397000e+00
7930000.0 -2.687280000e-01 -1.256956000e+00
8020000.0 -2.686830000e-01 -1.258576000e+00
8110000.0 -2.667230000e-01 -1.258146000e+00
8200000.0 -2.668950000e-01 -1.257117000e+00
8290000.0 -2.654730000e-01 -1.257969000e+00
8380000.0 -2.645670000e-01 -1.258882000e+00
8470000.0 -2.646990000e-01 -1.260203000e+00
8560000.0 -2.642030000e-01 -1.259450000e+00
8650000.0 -2.653940000e-01 -1.260926000e+00
8740000.0 -2.651590000e-01 -1.261648000e+00
8830000.0 -2.648960000e-01 -1.261838000e+00
8920000.0 -2.654440000e-01 -1.262068000e+00
9010000.0 -2.650440000e-01 -1.263153000e+00
9100000.0 -2.636660000e-01 -1.263577000e+00
9190000.0 -2.636340000e-01 -1.263581000e+00
9280000.0 -2.617340000e-01 -1.265130000e+00
9370000.0 -2.606770000e-01 -1.265774000e+00
9460000.0 -2.605600000e-01 -1.266526000e+00
9550000.0 -2.611140000e-01 -1.268224000e+00
9640000.0 -2.597970000e-01 -1.268353000e+00
9730000.0 -2.623080000e-01 -1.269481000e+00
9820000.0 -2.609990000e-01 -1.269132000e+00
9910000.0 -2.608750000e-01 -1.269106000e+00
10000000.0 -2.588640000e-01 -1.271891000e+00
10900000.0 -2.531520000e-01 -1.279459000e+00
11800000.0 -2.508830000e-01 -1.288779000e+00
12700000.0 -2.476810000e-01 -1.297908000e+00
13600000.0 -2.459900000e-01 -1.309964000e+00
14500000.0 -2.424510000e-01 -1.318875000e+00
15400000.0 -2.396170000e-01 -1.331241000e+00
16300000.0 -2.378320000e-01 -1.341505000e+00
17200000.0 -2.312120000e-01 -1.353932000e+00
18100000.0 -2.289350000e-01 -1.365085000e+00
19000000.0 -2.247790000e-01 -1.377919000e+00
19900000.0 -2.208830000e-01 -1.389376000e+00
20800000.0 -2.160940000e-01 -1.402341000e+00
21700000.0 -2.124960000e-01 -1.414238000e+00
22600000.0 -2.080080000e-01 -1.427766000e+00
23500000.0 -2.011140000e-01 -1.440074000e+00
24400000.0 -1.955740000e-01 -1.453492000e+00
25300000.0 -1.885930000e-01 -1.468298000e+00
26200000.0 -1.816880000e-01 -1.482657000e+00
27100000.0 -1.739480000e-01 -1.496350000e+00
28000000.0 -1.664900000e-01 -1.512208000e+00
28900000.0 -1.577190000e-01 -1.525395000e+00
29800000.0 -1.512240000e-01 -1.541647000e+00
30700000.0 -1.411250000e-01 -1.555663000e+00
31600000.0 -1.324960000e-01 -1.570684000e+00
32500000.0 -1.239450000e-01 -1.586368000e+00
33400000.0 -1.114370000e-01 -1.601655000e+00
34300000.0 -1.008270000e-01 -1.616757000e+00
35200000.0 -8.904500000e-02 -1.632295000e+00
36100000.0 -7.668000000e-02 -1.647431000e+00
37000000.0 -6.180500000e-02 -1.664371000e+00
37900000.0 -4.760600000e-02 -1.681636000e+00
38800000.0 -3.183600000e-02 -1.696184000e+00
39700000.0 -1.653800000e-02 -1.710711000e+00
40600000.0 -3.090000000e-04 -1.727992000e+00
41500000.0 1.346700000e-02 -1.743892000e+00
42400000.0 3.193300000e-02 -1.759151000e+00
43300000.0 4.841700000e-02 -1.775559000e+00
44200000.0 6.836200000e-02 -1.790169000e+00
45100000.0 9.019900000e-02 -1.807562000e+00
46000000.0 1.132380000e-01 -1.821422000e+00
46900000.0 1.339970000e-01 -1.834717000e+00
47800000.0 1.602320000e-01 -1.850149000e+00
48700000.0 1.830380000e-01 -1.863755000e+00
49600000.0 2.066370000e-01 -1.878158000e+00
50500000.0 2.288730000e-01 -1.889514000e+00
51400000.0 2.534480000e-01 -1.902954000e+00
52300000.0 2.789980000e-01 -1.915293000e+00
53200000.0 3.100690000e-01 -1.925076000e+00
54100000.0 3.390080000e-01 -1.935910000e+00
55000000.0 3.710080000e-01 -1.943140000e+00
55900000.0 4.033970000e-01 -1.952236000e+00
56800000.0 4.361640000e-01 -1.958908000e+00
57700000.0 4.680390000e-01 -1.967190000e+00
58600000.0 4.989180000e-01 -1.970714000e+00
59500000.0 5.319270000e-01 -1.975315000e+00
60400000.0 5.653580000e-01 -1.978702000e+00
61300000.0 5.985630000e-01 -1.980660000e+00
62200000.0 6.337390000e-01 -1.978451000e+00
63100000.0 6.729610000e-01 -1.977038000e+00
64000000.0 7.118640000e-01 -1.972288000e+00
64900000.0 7.504880000e-01 -1.968523000e+00
65800000.0 7.862280000e-01 -1.959067000e+00
66700000.0 8.200220000e-01 -1.953824000e+00
67600000.0 8.549140000e-01 -1.945347000e+00
68500000.0 8.917560000e-01 -1.932370000e+00
69400000.0 9.257980000e-01 -1.919664000e+00
70300000.0 9.624560000e-01 -1.905470000e+00
71200000.0 9.980390000e-01 -1.887620000e+00
72100000.0 1.034662000e+00 -1.868648000e+00
73000000.0 1.065474000e+00 -1.848983000e+00
73900000.0 1.096991000e+00 -1.826118000e+00
74800000.0 1.132868000e+00 -1.804201000e+00
75700000.0 1.159159000e+00 -1.779152000e+00
76600000.0 1.223731000e+00 -1.730095000e+00
77500000.0 1.183997000e+00 -1.750188000e+00
78400000.0 1.279925000e+00 -1.675566000e+00
79300000.0 1.269916000e+00 -1.670557000e+00
80200000.0 1.325941000e+00 -1.614433000e+00
81100000.0 1.282472000e+00 -1.635875000e+00
82000000.0 1.338074000e+00 -1.576325000e+00
82900000.0 1.353190000e+00 -1.544290000e+00
83800000.0 1.372909000e+00 -1.516602000e+00
84700000.0 1.387987000e+00 -1.482786000e+00
85600000.0 1.401812000e+00 -1.449859000e+00
86500000.0 1.413410000e+00 -1.418989000e+00
87400000.0 1.424343000e+00 -1.385002000e+00
88300000.0 1.434510000e+00 -1.352869000e+00
89200000.0 1.441660000e+00 -1.320088000e+00
90100000.0 1.448620000e+00 -1.289058000e+00
91000000.0 1.453045000e+00 -1.255351000e+00
91900000.0 1.457803000e+00 -1.223207000e+00
92800000.0 1.463577000e+00 -1.191651000e+00
93700000.0 1.464304000e+00 -1.161504000e+00
94600000.0 1.464881000e+00 -1.133251000e+00
95500000.0 1.463648000e+00 -1.102610000e+00
96400000.0 1.462196000e+00 -1.074322000e+00
97300000.0 1.460580000e+00 -1.048023000e+00
98200000.0 1.458037000e+00 -1.017944000e+00
99100000.0 1.454713000e+00 -9.907800000e-01
100000000.0 1.451725000e+00 -9.648360000e-01
109000000.0 1.372717000e+00 -7.561660000e-01
118000000.0 1.278822000e+00 -5.876680000e-01
127000000.0 1.176630000e+00 -4.668160000e-01
136000000.0 1.079256000e+00 -3.898000000e-01
145000000.0 9.890400000e-01 -3.326960000e-01
154000000.0 9.405160000e-01 -3.163330000e-01
163000000.0 9.337220000e-01 -3.374810000e-01
172000000.0 9.245880000e-01 -3.573910000e-01
181000000.0 9.174080000e-01 -3.758300000e-01
190000000.0 9.091700000e-01 -3.937880000e-01
199000000.0 9.027980000e-01 -4.082760000e-01
208000000.0 8.955060000e-01 -4.230420000e-01
217000000.0 8.897970000e-01 -4.356320000e-01
226000000.0 8.829690000e-01 -4.494370000e-01
235000000.0 8.751470000e-01 -4.621860000e-01
244000000.0 8.663890000e-01 -4.772340000e-01
253000000.0 8.550780000e-01 -4.958950000e-01
262000000.0 8.414570000e-01 -5.169960000e-01
271000000.0 8.262150000e-01 -5.377340000e-01
280000000.0 8.144170000e-01 -5.555260000e-01
289000000.0 8.020090000e-01 -5.697420000e-01
298000000.0 7.783700000e-01 -5.984250000e-01
307000000.0 7.829720000e-01 -5.976970000e-01
316000000.0 7.856490000e-01 -5.951060000e-01
325000000.0 7.689400000e-01 -6.191680000e-01
334000000.0 7.449910000e-01 -6.422490000e-01
343000000.0 7.499730000e-01 -6.407570000e-01
352000000.0 7.468270000e-01 -6.418770000e-01
361000000.0 7.607600000e-01 -6.374840000e-01
370000000.0 6.921830000e-01 -6.998120000e-01
379000000.0 6.915240000e-01 -7.017860000e-01
388000000.0 6.828710000e-01 -7.099250000e-01
397000000.0 6.743700000e-01 -7.154500000e-01
406000000.0 6.806280000e-01 -7.112660000e-01
415000000.0 6.608580000e-01 -7.267020000e-01
424000000.0 6.473850000e-01 -7.351730000e-01
433000000.0 6.299980000e-01 -7.461980000e-01
442000000.0 6.130590000e-01 -7.596380000e-01
451000000.0 5.949370000e-01 -7.741800000e-01
460000000.0 5.804040000e-01 -7.871990000e-01
469000000.0 5.690140000e-01 -7.997820000e-01
478000000.0 5.581160000e-01 -8.083620000e-01
487000000.0 5.529930000e-01 -8.157340000e-01
496000000.0 5.467640000e-01 -8.198540000e-01
505000000.0 5.408270000e-01 -8.246140000e-01
514000000.0 5.323150000e-01 -8.318020000e-01
523000000.0 5.212400000e-01 -8.399080000e-01
532000000.0 5.038910000e-01 -8.520600000e-01
541000000.0 4.777700000e-01 -8.650140000e-01
550000000.0 4.543030000e-01 -8.772190000e-01
559000000.0 4.363180000e-01 -8.874160000e-01
568000000.0 4.177550000e-01 -8.925370000e-01
577000000.0 3.992440000e-01 -8.991090000e-01
586000000.0 3.886880000e-01 -9.028900000e-01
595000000.0 3.735270000e-01 -9.042340000e-01
604000000.0 3.637140000e-01 -9.118850000e-01
613000000.0 3.540680000e-01 -9.189640000e-01
622000000.0 3.330770000e-01 -9.298010000e-01
631000000.0 3.111610000e-01 -9.419140000e-01
640000000.0 2.848320000e-01 -9.517700000e-01
649000000.0 2.554770000e-01 -9.618860000e-01
658000000.0 2.277200000e-01 -9.710290000e-01
667000000.0 2.038920000e-01 -9.780030000e-01
676000000.0 1.885700000e-01 -9.778440000e-01
685000000.0 1.687880000e-01 -9.843750000e-01
694000000.0 1.570490000e-01 -9.836460000e-01
703000000.0 1.465030000e-01 -9.819510000e-01
712000000.0 1.358290000e-01 -9.801860000e-01
721000000.0 1.247980000e-01 -9.805450000e-01
730000000.0 1.108740000e-01 -9.769780000e-01
739000000.0 9.999300000e-02 -9.750160000e-01
748000000.0 8.015800000e-02 -9.704560000e-01
757000000.0 6.417200000e-02 -9.733010000e-01
766000000.0 4.732700000e-02 -9.750780000e-01
775000000.0 3.095900000e-02 -9.770160000e-01
784000000.0 1.420500000e-02 -9.781400000e-01
793000000.0 7.566000000e-03 -9.794590000e-01
802000000.0 1.700000000e-05 -9.799620000e-01
811000000.0 -8.737000000e-03 -9.788610000e-01
820000000.0 -1.951400000e-02 -9.781870000e-01
829000000.0 -3.970500000e-02 -9.778670000e-01
838000000.0 -5.879200000e-02 -9.760150000e-01
847000000.0 -8.770000000e-02 -9.738670000e-01
856000000.0 -1.192570000e-01 -9.695340000e-01
865000000.0 -1.459110000e-01 -9.639450000e-01
874000000.0 -1.593110000e-01 -9.618650000e-01
883000000.0 -1.595810000e-01 -9.615750000e-01
892000000.0 -1.624860000e-01 -9.607610000e-01
901000000.0 -1.530650000e-01 -9.588010000e-01
910000000.0 -1.579240000e-01 -9.577670000e-01
919000000.0 -1.662910000e-01 -9.550070000e-01
928000000.0 -1.777390000e-01 -9.511730000e-01
937000000.0 -2.004480000e-01 -9.455800000e-01
946000000.0 -2.182780000e-01 -9.425140000e-01
955000000.0 -2.427500000e-01 -9.361350000e-01
964000000.0 -2.591260000e-01 -9.314110000e-01
973000000.0 -2.714500000e-01 -9.281270000e-01
982000000.0 -2.834850000e-01 -9.237930000e-01
991000000.0 -2.901760000e-01 -9.235460000e-01
1000000000.0 -3.008200000e-01 -9.202950000e-01
1004500000.0 -3.246290000e-01 -9.117730000e-01
1009000000.0 -3.520910000e-01 -9.019900000e-01
1013500000.0 -3.669070000e-01 -8.985970000e-01
1018000000.0 -3.682830000e-01 -8.972960000e-01
1022500000.0 -3.551650000e-01 -9.008920000e-01
1027000000.0 -3.441830000e-01 -9.070760000e-01
1031500000.0 -3.350540000e-01 -9.111120000e-01
1036000000.0 -3.434250000e-01 -9.076470000e-01
1040500000.0 -3.542450000e-01 -9.039770000e-01
1045000000.0 -3.773250000e-01 -8.965130000e-01
1049500000.0 -3.940740000e-01 -8.886020000e-01
1054000000.0 -4.103380000e-01 -8.829020000e-01
1058500000.0 -4.170530000e-01 -8.791190000e-01
1063000000.0 -4.205240000e-01 -8.797150000e-01
1067500000.0 -4.146420000e-01 -8.811990000e-01
1072000000.0 -4.050420000e-01 -8.814770000e-01
1076500000.0 -4.034870000e-01 -8.857320000e-01
1081000000.0 -3.997320000e-01 -8.880310000e-01
1085500000.0 -4.076290000e-01 -8.817540000e-01
1090000000.0 -4.203370000e-01 -8.789390000e-01
1094500000.0 -4.376130000e-01 -8.678470000e-01
1099000000.0 -4.516410000e-01 -8.646000000e-01
1103500000.0 -4.576200000e-01 -8.592050000e-01
1108000000.0 -4.677610000e-01 -8.560300000e-01
1112500000.0 -4.691520000e-01 -8.523360000e-01
1117000000.0 -4.606590000e-01 -8.547330000e-01
1121500000.0 -4.549520000e-01 -8.609270000e-01
1126000000.0 -4.559090000e-01 -8.600510000e-01
1130500000.0 -4.733230000e-01 -8.526100000e-01
1135000000.0 -4.858110000e-01 -8.455800000e-01
1139500000.0 -5.034870000e-01 -8.405650000e-01
1144000000.0 -4.923690000e-01 -8.511510000e-01
1148500000.0 -5.153070000e-01 -8.298480000e-01
1153000000.0 -5.141390000e-01 -8.216310000e-01
1157500000.0 -5.106300000e-01 -8.300470000e-01
1162000000.0 -5.117830000e-01 -8.309730000e-01
1166500000.0 -5.075690000e-01 -8.262690000e-01
1171000000.0 -5.080830000e-01 -8.254910000e-01
1175500000.0 -5.066810000e-01 -8.277530000e-01
1180000000.0 -5.094320000e-01 -8.291880000e-01
1184500000.0 -5.031270000e-01 -8.297350000e-01
1189000000.0 -5.119220000e-01 -8.205750000e-01
1193500000.0 -5.134630000e-01 -8.276780000e-01
1198000000.0 -5.195740000e-01 -8.178730000e-01
1202500000.0 -5.260140000e-01 -8.145020000e-01
1207000000.0 -5.375060000e-01 -8.141490000e-01
1211500000.0 -5.387020000e-01 -8.049650000e-01
1216000000.0 -5.498140000e-01 -8.088050000e-01
1220500000.0 -5.524290000e-01 -8.015980000e-01
1225000000.0 -5.431830000e-01 -7.992870000e-01
1229500000.0 -5.566460000e-01 -8.015070000e-01
1234000000.0 -5.535220000e-01 -8.018130000e-01
1238500000.0 -5.555560000e-01 -7.974110000e-01
1243000000.0 -5.507700000e-01 -7.984820000e-01
1247500000.0 -5.641770000e-01 -7.972930000e-01
1252000000.0 -5.688470000e-01 -7.970190000e-01
1256500000.0 -5.697940000e-01 -7.894910000e-01
1261000000.0 -5.844050000e-01 -7.912540000e-01
1265500000.0 -5.939220000e-01 -7.802700000e-01
1270000000.0 -5.879730000e-01 -7.773410000e-01
1274500000.0 -5.981850000e-01 -7.723970000e-01
1279000000.0 -5.971660000e-01 -7.723470000e-01
1283500000.0 -6.098800000e-01 -7.634640000e-01
1288000000.0 -6.161400000e-01 -7.609680000e-01
1292500000.0 -6.071520000e-01 -7.601550000e-01
1297000000.0 -6.205270000e-01 -7.492660000e-01
1301500000.0 -6.351840000e-01 -7.327710000e-01
1306000000.0 -6.320900000e-01 -7.417940000e-01
1310500000.0 -6.302420000e-01 -7.444900000e-01
1315000000.0 -6.301410000e-01 -7.412880000e-01
1319500000.0 -6.256050000e-01 -7.503250000e-01
1324000000.0 -6.258620000e-01 -7.482650000e-01
1328500000.0 -6.311230000e-01 -7.334140000e-01
1333000000.0 -6.326270000e-01 -7.474930000e-01
1337500000.0 -6.387890000e-01 -7.359170000e-01
1342000000.0 -6.362680000e-01 -7.285740000e-01
1346500000.0 -6.467110000e-01 -7.101940000e-01
1351000000.0 -6.497370000e-01 -7.176980000e-01
1355500000.0 -6.557110000e-01 -7.112150000e-01
1360000000.0 -6.646350000e-01 -7.066080000e-01
1364500000.0 -6.650560000e-01 -7.186510000e-01
1369000000.0 -6.678830000e-01 -7.179610000e-01
1373500000.0 -6.762410000e-01 -7.159700000e-01
1378000000.0 -6.788540000e-01 -7.160280000e-01
1382500000.0 -6.851810000e-01 -7.101510000e-01
1387000000.0 -6.852390000e-01 -6.986680000e-01
1391500000.0 -6.965420000e-01 -6.971110000e-01
1396000000.0 -7.037550000e-01 -6.988490000e-01
1400500000.0 -7.027390000e-01 -6.823840000e-01
1405000000.0 -7.160110000e-01 -6.880930000e-01
1409500000.0 -7.252790000e-01 -6.736460000e-01
1414000000.0 -7.262570000e-01 -6.703300000e-01
1418500000.0 -7.211930000e-01 -6.762760000e-01
1423000000.0 -7.381290000e-01 -6.670330000e-01
1427500000.0 -7.335260000e-01 -6.766950000e-01
1432000000.0 -7.409080000e-01 -6.610550000e-01
1436500000.0 -7.512430000e-01 -6.480330000e-01
1441000000.0 -7.547730000e-01 -6.346430000e-01
1445500000.0 -7.685050000e-01 -6.267410000e-01
1450000000.0 -7.810640000e-01 -6.078370000e-01
