! piloto_corto / aire / r18
# HZ S RI R 50
50000.0 1.006911000e+00 -7.102900000e-02
59500.0 1.003500000e+00 -5.881500000e-02
69000.0 1.003456000e+00 -4.350300000e-02
78500.0 1.002190000e+00 -3.100300000e-02
88000.0 1.000084000e+00 -1.919500000e-02
97500.0 9.993860000e-01 -7.069000000e-03
107000.0 9.997560000e-01 5.689000000e-03
116500.0 9.992560000e-01 1.792500000e-02
126000.0 9.990760000e-01 3.229800000e-02
135500.0 1.000797000e+00 4.194100000e-02
145000.0 1.000929000e+00 5.463900000e-02
154500.0 1.001707000e+00 6.576400000e-02
164000.0 1.000774000e+00 7.745200000e-02
173500.0 1.002129000e+00 8.888100000e-02
183000.0 1.001554000e+00 1.013200000e-01
192500.0 1.001008000e+00 1.132350000e-01
202000.0 1.002363000e+00 1.246880000e-01
211500.0 1.002654000e+00 1.358820000e-01
221000.0 1.002900000e+00 1.464700000e-01
230500.0 1.002936000e+00 1.591150000e-01
240000.0 1.003698000e+00 1.696370000e-01
249500.0 1.003666000e+00 1.807100000e-01
259000.0 1.003785000e+00 1.913130000e-01
268500.0 1.004770000e+00 2.036550000e-01
278000.0 1.004462000e+00 2.140230000e-01
287500.0 1.005392000e+00 2.256400000e-01
297000.0 1.005406000e+00 2.360410000e-01
306500.0 1.005537000e+00 2.468960000e-01
316000.0 1.005615000e+00 2.581020000e-01
325500.0 1.006066000e+00 2.684990000e-01
335000.0 1.005911000e+00 2.790330000e-01
344500.0 1.006240000e+00 2.895880000e-01
354000.0 1.005916000e+00 3.005980000e-01
363500.0 1.007024000e+00 3.098540000e-01
373000.0 1.005757000e+00 3.207260000e-01
382500.0 1.006387000e+00 3.318770000e-01
392000.0 1.006791000e+00 3.415620000e-01
401500.0 1.007475000e+00 3.524240000e-01
411000.0 1.007091000e+00 3.616260000e-01
420500.0 1.007033000e+00 3.721910000e-01
430000.0 1.008422000e+00 3.823820000e-01
439500.0 1.008265000e+00 3.925530000e-01
449000.0 1.007877000e+00 4.030770000e-01
458500.0 1.008505000e+00 4.128340000e-01
468000.0 1.008701000e+00 4.234670000e-01
477500.0 1.008000000e+00 4.328950000e-01
487000.0 1.009542000e+00 4.437190000e-01
496500.0 1.009977000e+00 4.530020000e-01
506000.0 1.009872000e+00 4.636640000e-01
515500.0 1.016562000e+00 4.542280000e-01
525000.0 1.010785000e+00 4.823970000e-01
534500.0 1.017744000e+00 4.736520000e-01
544000.0 1.004606000e+00 5.214440000e-01
553500.0 1.019263000e+00 4.921580000e-01
563000.0 1.004348000e+00 5.399420000e-01
572500.0 1.020409000e+00 5.127810000e-01
582000.0 1.004640000e+00 5.593190000e-01
591500.0 1.021214000e+00 5.320460000e-01
601000.0 1.014081000e+00 5.606610000e-01
610500.0 1.014524000e+00 5.692220000e-01
620000.0 1.015608000e+00 5.790280000e-01
629500.0 1.015342000e+00 5.890760000e-01
639000.0 1.015116000e+00 5.989330000e-01
648500.0 1.016910000e+00 6.072740000e-01
658000.0 1.016786000e+00 6.175070000e-01
667500.0 1.018293000e+00 6.271540000e-01
677000.0 1.018648000e+00 6.361770000e-01
686500.0 1.021068000e+00 6.452880000e-01
696000.0 1.019391000e+00 6.547120000e-01
705500.0 1.020869000e+00 6.636840000e-01
715000.0 1.020708000e+00 6.735210000e-01
724500.0 1.023613000e+00 6.825550000e-01
734000.0 1.023767000e+00 6.920200000e-01
743500.0 1.025761000e+00 7.015100000e-01
753000.0 1.024893000e+00 7.099450000e-01
762500.0 1.026470000e+00 7.188890000e-01
772000.0 1.027740000e+00 7.275840000e-01
781500.0 1.028591000e+00 7.377140000e-01
791000.0 1.030058000e+00 7.472180000e-01
800500.0 1.030776000e+00 7.552000000e-01
810000.0 1.033327000e+00 7.654970000e-01
819500.0 1.033245000e+00 7.740920000e-01
829000.0 1.035307000e+00 7.811690000e-01
838500.0 1.036571000e+00 7.932190000e-01
848000.0 1.037753000e+00 8.010040000e-01
857500.0 1.039909000e+00 8.101810000e-01
867000.0 1.041583000e+00 8.188360000e-01
876500.0 1.043904000e+00 8.284560000e-01
886000.0 1.045629000e+00 8.354110000e-01
895500.0 1.047698000e+00 8.470340000e-01
905000.0 1.048435000e+00 8.536610000e-01
914500.0 1.051678000e+00 8.630440000e-01
924000.0 1.052524000e+00 8.722100000e-01
933500.0 1.055636000e+00 8.805350000e-01
943000.0 1.056193000e+00 8.894820000e-01
952500.0 1.060279000e+00 8.994790000e-01
962000.0 1.061753000e+00 9.057170000e-01
971500.0 1.064336000e+00 9.159430000e-01
981000.0 1.067057000e+00 9.257140000e-01
990500.0 1.068225000e+00 9.316850000e-01
1000000.0 1.072341000e+00 9.403350000e-01
1090000.0 1.096387000e+00 1.020524000e+00
1180000.0 1.134346000e+00 1.095103000e+00
1270000.0 1.180338000e+00 1.165750000e+00
1360000.0 1.236722000e+00 1.227985000e+00
1450000.0 1.302736000e+00 1.279890000e+00
1540000.0 1.377480000e+00 1.320757000e+00
1630000.0 1.460878000e+00 1.344687000e+00
1720000.0 1.549717000e+00 1.350563000e+00
1810000.0 1.639147000e+00 1.341321000e+00
1900000.0 1.724325000e+00 1.306317000e+00
1990000.0 1.803756000e+00 1.254405000e+00
2080000.0 1.866504000e+00 1.187683000e+00
2170000.0 1.916271000e+00 1.103124000e+00
2260000.0 1.949556000e+00 1.015672000e+00
2350000.0 1.960677000e+00 9.293590000e-01
2440000.0 1.959994000e+00 8.392560000e-01
2530000.0 1.943888000e+00 7.584850000e-01
2620000.0 1.922532000e+00 6.803440000e-01
2710000.0 1.892695000e+00 6.121650000e-01
2800000.0 1.857312000e+00 5.537870000e-01
2890000.0 1.818787000e+00 4.995750000e-01
2980000.0 1.782479000e+00 4.522400000e-01
3070000.0 1.741518000e+00 4.106540000e-01
3160000.0 1.705271000e+00 3.744030000e-01
3250000.0 1.669975000e+00 3.425360000e-01
3340000.0 1.633992000e+00 3.156750000e-01
3430000.0 1.599688000e+00 2.894620000e-01
3520000.0 1.570965000e+00 2.663470000e-01
3610000.0 1.540082000e+00 2.448460000e-01
3700000.0 1.513235000e+00 2.252320000e-01
3790000.0 1.487730000e+00 2.062190000e-01
3880000.0 1.464041000e+00 1.879760000e-01
3970000.0 1.442318000e+00 1.718990000e-01
4060000.0 1.423730000e+00 1.566860000e-01
4150000.0 1.404012000e+00 1.411280000e-01
4240000.0 1.387479000e+00 1.272580000e-01
4330000.0 1.371357000e+00 1.109420000e-01
4420000.0 1.357021000e+00 9.731200000e-02
4510000.0 1.343753000e+00 8.179300000e-02
4600000.0 1.330760000e+00 6.946400000e-02
4690000.0 1.320554000e+00 5.636200000e-02
4780000.0 1.311727000e+00 4.307900000e-02
4870000.0 1.303658000e+00 3.019500000e-02
4960000.0 1.295877000e+00 1.775000000e-02
5050000.0 1.280206000e+00 4.702000000e-03
5140000.0 1.275344000e+00 -7.432000000e-03
5230000.0 1.269965000e+00 -1.977300000e-02
5320000.0 1.265813000e+00 -3.335200000e-02
5410000.0 1.261979000e+00 -4.501300000e-02
5500000.0 1.257077000e+00 -5.749500000e-02
5590000.0 1.253207000e+00 -6.872200000e-02
5680000.0 1.250315000e+00 -7.888000000e-02
5770000.0 1.246530000e+00 -9.077000000e-02
5860000.0 1.243679000e+00 -1.017120000e-01
5950000.0 1.241548000e+00 -1.126840000e-01
6040000.0 1.236553000e+00 -1.222980000e-01
6130000.0 1.234640000e+00 -1.317560000e-01
6220000.0 1.232887000e+00 -1.414580000e-01
6310000.0 1.230735000e+00 -1.501830000e-01
6400000.0 1.229243000e+00 -1.596420000e-01
6490000.0 1.226943000e+00 -1.672460000e-01
6580000.0 1.224710000e+00 -1.745890000e-01
6670000.0 1.223712000e+00 -1.804480000e-01
6760000.0 1.222732000e+00 -1.876230000e-01
6850000.0 1.220910000e+00 -1.928830000e-01
6940000.0 1.219970000e+00 -1.988900000e-01
7030000.0 1.219738000e+00 -2.017340000e-01
7120000.0 1.218202000e+00 -2.061830000e-01
7210000.0 1.219824000e+00 -2.080660000e-01
7300000.0 1.217286000e+00 -2.105040000e-01
7390000.0 1.218081000e+00 -2.123360000e-01
7480000.0 1.218026000e+00 -2.094950000e-01
7570000.0 -2.608550000e-01 -1.257236000e+00
7660000.0 -2.600450000e-01 -1.257313000e+00
7750000.0 -2.598820000e-01 -1.258356000e+00
7840000.0 -2.579090000e-01 -1.257718000e+00
7930000.0 -2.586310000e-01 -1.257707000e+00
8020000.0 -2.585210000e-01 -1.258315000e+00
8110000.0 -2.575740000e-01 -1.259349000e+00
8200000.0 -2.582300000e-01 -1.259235000e+00
8290000.0 -2.575100000e-01 -1.259735000e+00
8380000.0 -2.563350000e-01 -1.259431000e+00
8470000.0 -2.551000000e-01 -1.260115000e+00
8560000.0 -2.757910000e-01 -1.255516000e+00
8650000.0 -2.764350000e-01 -1.256025000e+00
8740000.0 -2.544480000e-01 -1.261428000e+00
8830000.0 -2.759920000e-01 -1.256605000e+00
8920000.0 -2.296770000e-01 -1.269387000e+00
9010000.0 -2.746460000e-01 -1.257918000e+00
9100000.0 -2.298480000e-01 -1.271641000e+00
9190000.0 -2.744420000e-01 -1.259676000e+00
9280000.0 -2.287010000e-01 -1.272676000e+00
9370000.0 -2.744030000e-01 -1.260912000e+00
9460000.0 -2.270330000e-01 -1.274910000e+00
9550000.0 -2.520800000e-01 -1.266340000e+00
9640000.0 -2.492760000e-01 -1.269124000e+00
9730000.0 -2.492520000e-01 -1.269944000e+00
9820000.0 -2.491310000e-01 -1.270664000e+00
9910000.0 -2.488320000e-01 -1.271893000e+00
10000000.0 -2.500760000e-01 -1.272656000e+00
10900000.0 -2.449280000e-01 -1.280784000e+00
11800000.0 -2.403680000e-01 -1.289826000e+00
12700000.0 -2.369770000e-01 -1.300594000e+00
13600000.0 -2.314090000e-01 -1.310963000e+00
14500000.0 -2.298310000e-01 -1.321534000e+00
15400000.0 -2.254580000e-01 -1.332165000e+00
16300000.0 -2.210930000e-01 -1.343917000e+00
17200000.0 -2.165840000e-01 -1.355904000e+00
18100000.0 -2.121450000e-01 -1.366629000e+00
19000000.0 -2.077690000e-01 -1.378099000e+00
19900000.0 -2.031000000e-01 -1.391964000e+00
20800000.0 -1.971810000e-01 -1.404703000e+00
21700000.0 -1.917360000e-01 -1.417775000e+00
22600000.0 -1.855860000e-01 -1.429310000e+00
23500000.0 -1.779480000e-01 -1.445052000e+00
24400000.0 -1.710020000e-01 -1.457900000e+00
25300000.0 -1.646140000e-01 -1.471954000e+00
26200000.0 -1.561140000e-01 -1.486630000e+00
27100000.0 -1.480350000e-01 -1.498773000e+00
28000000.0 -1.393200000e-01 -1.514523000e+00
28900000.0 -1.293430000e-01 -1.526952000e+00
29800000.0 -1.214560000e-01 -1.543222000e+00
30700000.0 -1.108010000e-01 -1.557324000e+00
31600000.0 -1.009260000e-01 -1.572360000e+00
32500000.0 -8.924700000e-02 -1.587595000e+00
33400000.0 -7.645500000e-02 -1.603598000e+00
34300000.0 -6.308700000e-02 -1.619069000e+00
35200000.0 -5.095700000e-02 -1.632717000e+00
36100000.0 -3.904400000e-02 -1.647612000e+00
37000000.0 -2.242900000e-02 -1.666156000e+00
37900000.0 -7.616000000e-03 -1.682038000e+00
38800000.0 7.038000000e-03 -1.696568000e+00
39700000.0 2.438900000e-02 -1.711779000e+00
40600000.0 4.076800000e-02 -1.726537000e+00
41500000.0 5.773600000e-02 -1.741793000e+00
42400000.0 7.723200000e-02 -1.759115000e+00
43300000.0 9.809500000e-02 -1.774261000e+00
44200000.0 1.179430000e-01 -1.790073000e+00
45100000.0 1.397310000e-01 -1.801766000e+00
46000000.0 1.623040000e-01 -1.816702000e+00
46900000.0 1.854400000e-01 -1.831932000e+00
47800000.0 2.087850000e-01 -1.847106000e+00
48700000.0 2.342810000e-01 -1.859390000e+00
49600000.0 2.610230000e-01 -1.870756000e+00
50500000.0 2.866330000e-01 -1.882414000e+00
51400000.0 3.154970000e-01 -1.894724000e+00
52300000.0 3.431860000e-01 -1.903515000e+00
53200000.0 3.726500000e-01 -1.914102000e+00
54100000.0 4.034590000e-01 -1.923101000e+00
55000000.0 4.345020000e-01 -1.932540000e+00
55900000.0 4.676730000e-01 -1.938047000e+00
56800000.0 4.999340000e-01 -1.943107000e+00
57700000.0 5.326400000e-01 -1.949253000e+00
58600000.0 5.654300000e-01 -1.952981000e+00
59500000.0 6.029470000e-01 -1.954698000e+00
60400000.0 6.365680000e-01 -1.954574000e+00
61300000.0 6.759390000e-01 -1.955342000e+00
62200000.0 7.110280000e-01 -1.952562000e+00
63100000.0 7.477260000e-01 -1.947545000e+00
64000000.0 7.814900000e-01 -1.945142000e+00
64900000.0 8.219330000e-01 -1.937007000e+00
65800000.0 8.574890000e-01 -1.928253000e+00
66700000.0 8.970290000e-01 -1.916098000e+00
67600000.0 9.336420000e-01 -1.908225000e+00
68500000.0 9.708310000e-01 -1.891708000e+00
69400000.0 1.004251000e+00 -1.876464000e+00
70300000.0 1.042197000e+00 -1.860188000e+00
71200000.0 1.077482000e+00 -1.840094000e+00
72100000.0 1.110802000e+00 -1.821972000e+00
73000000.0 1.146256000e+00 -1.798615000e+00
73900000.0 1.176491000e+00 -1.773961000e+00
74800000.0 1.206256000e+00 -1.751505000e+00
75700000.0 1.238642000e+00 -1.724161000e+00
76600000.0 1.265686000e+00 -1.695098000e+00
77500000.0 1.292614000e+00 -1.666433000e+00
78400000.0 1.317778000e+00 -1.636478000e+00
79300000.0 1.341654000e+00 -1.606993000e+00
80200000.0 1.363164000e+00 -1.575511000e+00
81100000.0 1.383715000e+00 -1.542343000e+00
82000000.0 1.403988000e+00 -1.509462000e+00
82900000.0 1.421239000e+00 -1.474464000e+00
83800000.0 1.437940000e+00 -1.444250000e+00
84700000.0 1.451985000e+00 -1.409718000e+00
85600000.0 1.464445000e+00 -1.375942000e+00
86500000.0 1.476591000e+00 -1.342103000e+00
87400000.0 1.487651000e+00 -1.306944000e+00
88300000.0 1.495299000e+00 -1.277294000e+00
89200000.0 1.502316000e+00 -1.241473000e+00
90100000.0 1.506631000e+00 -1.208569000e+00
91000000.0 1.513179000e+00 -1.175113000e+00
91900000.0 1.513827000e+00 -1.141433000e+00
92800000.0 1.517209000e+00 -1.114676000e+00
93700000.0 1.515464000e+00 -1.081837000e+00
94600000.0 1.514231000e+00 -1.051985000e+00
95500000.0 1.513766000e+00 -1.022066000e+00
96400000.0 1.511521000e+00 -9.932950000e-01
97300000.0 1.510159000e+00 -9.668190000e-01
98200000.0 1.505176000e+00 -9.356430000e-01
99100000.0 1.501099000e+00 -9.082000000e-01
100000000.0 1.493923000e+00 -8.838480000e-01
109000000.0 1.415818000e+00 -6.603050000e-01
118000000.0 1.308688000e+00 -4.989360000e-01
127000000.0 1.203403000e+00 -3.842910000e-01
136000000.0 1.102323000e+00 -3.113020000e-01
145000000.0 1.011699000e+00 -2.547730000e-01
154000000.0 9.626050000e-01 -2.362810000e-01
163000000.0 9.610700000e-01 -2.488900000e-01
172000000.0 9.559170000e-01 -2.634850000e-01
181000000.0 9.522330000e-01 -2.757340000e-01
190000000.0 9.492000000e-01 -2.892240000e-01
199000000.0 9.447840000e-01 -3.004440000e-01
208000000.0 9.407030000e-01 -3.141060000e-01
217000000.0 9.356690000e-01 -3.277740000e-01
226000000.0 9.295700000e-01 -3.393660000e-01
235000000.0 9.256270000e-01 -3.511170000e-01
244000000.0 9.202860000e-01 -3.626850000e-01
253000000.0 9.145250000e-01 -3.758050000e-01
262000000.0 9.093710000e-01 -3.868760000e-01
271000000.0 9.027920000e-01 -3.978900000e-01
280000000.0 8.974990000e-01 -4.100270000e-01
289000000.0 8.887750000e-01 -4.221420000e-01
298000000.0 8.834360000e-01 -4.334950000e-01
307000000.0 8.779070000e-01 -4.448550000e-01
316000000.0 8.717370000e-01 -4.550610000e-01
325000000.0 8.655740000e-01 -4.678320000e-01
334000000.0 8.619710000e-01 -4.755190000e-01
343000000.0 8.546850000e-01 -4.880840000e-01
352000000.0 8.458070000e-01 -4.991940000e-01
361000000.0 8.412590000e-01 -5.095110000e-01
370000000.0 8.336690000e-01 -5.205230000e-01
379000000.0 8.680110000e-01 -4.968910000e-01
388000000.0 8.198510000e-01 -5.403250000e-01
397000000.0 7.694430000e-01 -5.821320000e-01
406000000.0 8.030040000e-01 -5.612020000e-01
415000000.0 7.945850000e-01 -5.725950000e-01
424000000.0 7.856030000e-01 -5.826480000e-01
433000000.0 7.752190000e-01 -5.876000000e-01
442000000.0 7.669720000e-01 -6.008330000e-01
451000000.0 7.560890000e-01 -6.063400000e-01
460000000.0 7.518520000e-01 -6.191900000e-01
469000000.0 7.472550000e-01 -6.288580000e-01
478000000.0 7.392760000e-01 -6.401070000e-01
487000000.0 7.347900000e-01 -6.479070000e-01
496000000.0 7.258960000e-01 -6.599310000e-01
505000000.0 7.197280000e-01 -6.677880000e-01
514000000.0 7.122720000e-01 -6.779480000e-01
523000000.0 7.027650000e-01 -6.867770000e-01
532000000.0 6.941040000e-01 -6.962120000e-01
541000000.0 6.832050000e-01 -7.022610000e-01
550000000.0 6.785400000e-01 -7.099630000e-01
559000000.0 6.627920000e-01 -7.220760000e-01
568000000.0 6.543160000e-01 -7.284080000e-01
577000000.0 6.420160000e-01 -7.352120000e-01
586000000.0 6.335380000e-01 -7.436960000e-01
595000000.0 6.199020000e-01 -7.504300000e-01
604000000.0 6.106880000e-01 -7.574140000e-01
613000000.0 6.056820000e-01 -7.669600000e-01
622000000.0 5.932930000e-01 -7.803780000e-01
631000000.0 5.869670000e-01 -7.868680000e-01
640000000.0 5.756440000e-01 -7.998190000e-01
649000000.0 5.684550000e-01 -8.065990000e-01
658000000.0 5.584000000e-01 -8.156990000e-01
667000000.0 5.452060000e-01 -8.195440000e-01
676000000.0 5.391670000e-01 -8.284810000e-01
685000000.0 5.271290000e-01 -8.316920000e-01
694000000.0 5.116310000e-01 -8.379820000e-01
703000000.0 5.020330000e-01 -8.458130000e-01
712000000.0 4.861900000e-01 -8.470160000e-01
721000000.0 4.798860000e-01 -8.512410000e-01
730000000.0 4.654640000e-01 -8.522970000e-01
739000000.0 4.512430000e-01 -8.553230000e-01
748000000.0 4.383340000e-01 -8.561550000e-01
757000000.0 4.264220000e-01 -8.654220000e-01
766000000.0 4.137540000e-01 -8.718210000e-01
775000000.0 4.004530000e-01 -8.804860000e-01
784000000.0 3.879500000e-01 -8.871860000e-01
793000000.0 3.752700000e-01 -8.927120000e-01
802000000.0 3.620980000e-01 -8.994810000e-01
811000000.0 3.544530000e-01 -9.005640000e-01
820000000.0 3.426030000e-01 -9.071390000e-01
829000000.0 3.258040000e-01 -9.122130000e-01
838000000.0 3.205800000e-01 -9.128580000e-01
847000000.0 3.116130000e-01 -9.142840000e-01
856000000.0 2.967210000e-01 -9.178090000e-01
865000000.0 2.914230000e-01 -9.200350000e-01
874000000.0 2.769010000e-01 -9.208400000e-01
883000000.0 2.660480000e-01 -9.222990000e-01
892000000.0 2.424800000e-01 -9.246690000e-01
901000000.0 2.477360000e-01 -9.231830000e-01
910000000.0 2.565760000e-01 -9.199000000e-01
919000000.0 2.249330000e-01 -9.276890000e-01
928000000.0 1.927620000e-01 -9.310930000e-01
937000000.0 2.023410000e-01 -9.296620000e-01
946000000.0 2.057350000e-01 -9.288060000e-01
955000000.0 1.729740000e-01 -9.351640000e-01
964000000.0 1.671730000e-01 -9.360860000e-01
973000000.0 1.528710000e-01 -9.366770000e-01
982000000.0 1.465910000e-01 -9.374990000e-01
991000000.0 1.335410000e-01 -9.384560000e-01
1000000000.0 1.219220000e-01 -9.414770000e-01
1004500000.0 1.201970000e-01 -9.397340000e-01
1009000000.0 1.155190000e-01 -9.419800000e-01
1013500000.0 1.064210000e-01 -9.421190000e-01
1018000000.0 1.016560000e-01 -9.425890000e-01
1022500000.0 9.516400000e-02 -9.423050000e-01
1027000000.0 8.958000000e-02 -9.435550000e-01
1031500000.0 8.670000000e-02 -9.439050000e-01
1036000000.0 8.324600000e-02 -9.450480000e-01
1040500000.0 7.937800000e-02 -9.447880000e-01
1045000000.0 7.184800000e-02 -9.450690000e-01
1049500000.0 6.999800000e-02 -9.453990000e-01
1054000000.0 6.155500000e-02 -9.456670000e-01
1058500000.0 5.931100000e-02 -9.469940000e-01
1063000000.0 5.083200000e-02 -9.457560000e-01
1067500000.0 4.820700000e-02 -9.461540000e-01
1072000000.0 3.858300000e-02 -9.461700000e-01
1076500000.0 3.212200000e-02 -9.479680000e-01
1081000000.0 3.113100000e-02 -9.472260000e-01
1085500000.0 2.505400000e-02 -9.465290000e-01
1090000000.0 2.309700000e-02 -9.457980000e-01
1094500000.0 1.321300000e-02 -9.462360000e-01
1099000000.0 6.457000000e-03 -9.475360000e-01
1103500000.0 -1.279000000e-03 -9.490060000e-01
1108000000.0 1.727000000e-03 -9.484120000e-01
1112500000.0 -7.939000000e-03 -9.475020000e-01
1117000000.0 -1.316600000e-02 -9.456210000e-01
1121500000.0 -2.671800000e-02 -9.491310000e-01
1126000000.0 -2.615200000e-02 -9.502310000e-01
1130500000.0 -3.037100000e-02 -9.492680000e-01
1135000000.0 -3.604600000e-02 -9.486490000e-01
1139500000.0 -3.732200000e-02 -9.468870000e-01
1144000000.0 -4.333800000e-02 -9.463110000e-01
1148500000.0 -5.047500000e-02 -9.468030000e-01
1153000000.0 -8.119500000e-02 -9.362880000e-01
1157500000.0 -6.257000000e-02 -9.440020000e-01
1162000000.0 -8.353300000e-02 -9.394690000e-01
1166500000.0 -7.109200000e-02 -9.421610000e-01
1171000000.0 -8.309700000e-02 -9.376910000e-01
1175500000.0 -8.297400000e-02 -9.427710000e-01
1180000000.0 -9.077800000e-02 -9.388840000e-01
1184500000.0 -1.002510000e-01 -9.377480000e-01
1189000000.0 -1.016340000e-01 -9.398000000e-01
1193500000.0 -1.082640000e-01 -9.352720000e-01
1198000000.0 -1.197440000e-01 -9.362900000e-01
1202500000.0 -1.223050000e-01 -9.353130000e-01
1207000000.0 -1.283540000e-01 -9.352120000e-01
1211500000.0 -1.360480000e-01 -9.324220000e-01
1216000000.0 -1.347730000e-01 -9.350220000e-01
1220500000.0 -1.427550000e-01 -9.313340000e-01
1225000000.0 -1.452510000e-01 -9.294990000e-01
1229500000.0 -1.466870000e-01 -9.352280000e-01
1234000000.0 -1.566700000e-01 -9.325230000e-01
1238500000.0 -1.602280000e-01 -9.341460000e-01
1243000000.0 -1.601530000e-01 -9.279650000e-01
1247500000.0 -1.671470000e-01 -9.301700000e-01
1252000000.0 -1.748450000e-01 -9.323030000e-01
1256500000.0 -1.811530000e-01 -9.278310000e-01
1261000000.0 -1.838990000e-01 -9.281240000e-01
1265500000.0 -1.814700000e-01 -9.256700000e-01
1270000000.0 -1.951080000e-01 -9.282260000e-01
1274500000.0 -2.058430000e-01 -9.274720000e-01
1279000000.0 -2.032970000e-01 -9.218920000e-01
1283500000.0 -2.059340000e-01 -9.191980000e-01
1288000000.0 -2.100920000e-01 -9.267000000e-01
1292500000.0 -2.236000000e-01 -9.169700000e-01
1297000000.0 -2.357050000e-01 -9.142830000e-01
1301500000.0 -2.285740000e-01 -9.155630000e-01
1306000000.0 -2.343560000e-01 -9.115200000e-01
1310500000.0 -2.430360000e-01 -9.053660000e-01
1315000000.0 -2.446380000e-01 -9.144180000e-01
1319500000.0 -2.547000000e-01 -9.100640000e-01
1324000000.0 -2.544400000e-01 -9.098440000e-01
1328500000.0 -2.611150000e-01 -8.985760000e-01
1333000000.0 -2.609990000e-01 -9.015020000e-01
1337500000.0 -2.832640000e-01 -9.022940000e-01
1342000000.0 -2.833390000e-01 -8.963930000e-01
1346500000.0 -2.829760000e-01 -8.943840000e-01
1351000000.0 -2.875650000e-01 -8.871940000e-01
1355500000.0 -2.949330000e-01 -8.959530000e-01
1360000000.0 -2.994990000e-01 -8.947390000e-01
1364500000.0 -3.046280000e-01 -8.891870000e-01
1369000000.0 -3.111420000e-01 -8.966460000e-01
1373500000.0 -3.130890000e-01 -8.951390000e-01
1378000000.0 -3.157190000e-01 -8.936790000e-01
1382500000.0 -3.330040000e-01 -8.971140000e-01
1387000000.0 -3.262600000e-01 -8.880650000e-01
1391500000.0 -3.257580000e-01 -8.880320000e-01
1396000000.0 -3.310300000e-01 -8.916880000e-01
1400500000.0 -3.381040000e-01 -8.886280000e-01
1405000000.0 -3.343870000e-01 -8.931290000e-01
1409500000.0 -3.476160000e-01 -8.890720000e-01
1414000000.0 -3.478580000e-01 -8.874870000e-01
1418500000.0 -3.505750000e-01 -8.796750000e-01
1423000000.0 -3.697770000e-01 -8.845400000e-01
1427500000.0 -3.629800000e-01 -8.763360000e-01
1432000000.0 -3.654490000e-01 -8.827820000e-01
1436500000.0 -3.738210000e-01 -8.753540000e-01
1441000000.0 -3.776490000e-01 -8.746950000e-01
1445500000.0 -3.766070000e-01 -8.725300000e-01
1450000000.0 -3.927240000e-01 -8.679620000e-01
