! piloto_corto / aire / r02
# HZ S RI R 50
50000.0 1.005951000e+00 -7.464300000e-02
59500.0 1.004033000e+00 -6.138300000e-02
69000.0 1.003102000e+00 -4.593300000e-02
78500.0 1.002306000e+00 -3.507000000e-02
88000.0 1.000279000e+00 -2.337200000e-02
97500.0 9.996670000e-01 -1.106400000e-02
107000.0 1.000157000e+00 1.465000000e-03
116500.0 9.989920000e-01 1.268300000e-02
126000.0 9.965510000e-01 2.524100000e-02
135500.0 1.000134000e+00 3.736200000e-02
145000.0 1.000114000e+00 4.867500000e-02
154500.0 1.000330000e+00 6.042400000e-02
164000.0 1.000037000e+00 7.244800000e-02
173500.0 1.000942000e+00 8.406900000e-02
183000.0 9.934030000e-01 5.980600000e-02
192500.0 1.001573000e+00 1.062450000e-01
202000.0 1.001641000e+00 1.174750000e-01
211500.0 1.001541000e+00 1.291710000e-01
221000.0 1.002062000e+00 1.402700000e-01
230500.0 1.001822000e+00 1.510980000e-01
240000.0 1.002242000e+00 1.616110000e-01
249500.0 1.002029000e+00 1.727020000e-01
259000.0 1.002488000e+00 1.832230000e-01
268500.0 1.001550000e+00 1.945400000e-01
278000.0 1.002128000e+00 2.052150000e-01
287500.0 1.002939000e+00 2.165780000e-01
297000.0 1.002642000e+00 2.269060000e-01
306500.0 1.002375000e+00 2.367360000e-01
316000.0 1.003526000e+00 2.473380000e-01
325500.0 1.003800000e+00 2.582430000e-01
335000.0 1.003681000e+00 2.684700000e-01
344500.0 1.003339000e+00 2.790870000e-01
354000.0 1.003568000e+00 2.891310000e-01
363500.0 1.004065000e+00 2.995470000e-01
373000.0 1.003421000e+00 3.095230000e-01
382500.0 1.004231000e+00 3.199430000e-01
392000.0 1.003632000e+00 3.300590000e-01
401500.0 1.003485000e+00 3.399720000e-01
411000.0 1.003991000e+00 3.497390000e-01
420500.0 1.003823000e+00 3.603260000e-01
430000.0 1.003970000e+00 3.706120000e-01
439500.0 1.004937000e+00 3.798350000e-01
449000.0 1.004430000e+00 3.895720000e-01
458500.0 1.004693000e+00 3.996100000e-01
468000.0 1.004957000e+00 4.084420000e-01
477500.0 1.004949000e+00 4.201410000e-01
487000.0 1.004368000e+00 4.300150000e-01
496500.0 1.004887000e+00 4.385500000e-01
506000.0 1.005112000e+00 4.484110000e-01
515500.0 1.005513000e+00 4.580930000e-01
525000.0 1.005897000e+00 4.676180000e-01
534500.0 1.005757000e+00 4.780010000e-01
544000.0 1.006595000e+00 4.863560000e-01
553500.0 1.006861000e+00 4.961360000e-01
563000.0 1.007060000e+00 5.054960000e-01
572500.0 1.006664000e+00 5.157700000e-01
582000.0 1.008310000e+00 5.244420000e-01
591500.0 1.007163000e+00 5.331910000e-01
601000.0 1.007656000e+00 5.430910000e-01
610500.0 1.008005000e+00 5.522640000e-01
620000.0 1.009329000e+00 5.625590000e-01
629500.0 1.008965000e+00 5.707880000e-01
639000.0 1.009722000e+00 5.798360000e-01
648500.0 1.009404000e+00 5.893560000e-01
658000.0 1.010115000e+00 5.980240000e-01
667500.0 1.010991000e+00 6.081710000e-01
677000.0 1.010946000e+00 6.176610000e-01
686500.0 1.011253000e+00 6.251340000e-01
696000.0 1.012108000e+00 6.359440000e-01
705500.0 1.012774000e+00 6.431230000e-01
715000.0 1.013602000e+00 6.530700000e-01
724500.0 1.013695000e+00 6.627260000e-01
734000.0 1.013691000e+00 6.713800000e-01
743500.0 1.017134000e+00 6.804780000e-01
753000.0 1.016558000e+00 6.893930000e-01
762500.0 1.016936000e+00 6.982820000e-01
772000.0 1.018286000e+00 7.069830000e-01
781500.0 1.019337000e+00 7.150910000e-01
791000.0 1.020288000e+00 7.241860000e-01
800500.0 1.021083000e+00 7.335050000e-01
810000.0 1.021594000e+00 7.415340000e-01
819500.0 1.022421000e+00 7.512120000e-01
829000.0 1.022761000e+00 7.593680000e-01
838500.0 1.025757000e+00 7.689940000e-01
848000.0 1.025541000e+00 7.784060000e-01
857500.0 1.028374000e+00 7.845720000e-01
867000.0 1.028373000e+00 7.941470000e-01
876500.0 1.028506000e+00 8.028460000e-01
886000.0 1.031134000e+00 8.117450000e-01
895500.0 1.032656000e+00 8.207230000e-01
905000.0 1.034380000e+00 8.284310000e-01
914500.0 1.037045000e+00 8.380580000e-01
924000.0 1.038239000e+00 8.469160000e-01
933500.0 1.039842000e+00 8.549550000e-01
943000.0 1.040523000e+00 8.641050000e-01
952500.0 1.042729000e+00 8.712500000e-01
962000.0 1.045758000e+00 8.803650000e-01
971500.0 1.047717000e+00 8.875240000e-01
981000.0 1.049907000e+00 8.966740000e-01
990500.0 1.051104000e+00 9.060230000e-01
1000000.0 1.053295000e+00 9.130180000e-01
1090000.0 1.074745000e+00 9.892600000e-01
1180000.0 1.106810000e+00 1.063921000e+00
1270000.0 1.144847000e+00 1.134643000e+00
1360000.0 1.194206000e+00 1.197326000e+00
1450000.0 1.249386000e+00 1.253152000e+00
1540000.0 1.316898000e+00 1.300087000e+00
1630000.0 1.390999000e+00 1.332028000e+00
1720000.0 1.475029000e+00 1.347244000e+00
1810000.0 1.564282000e+00 1.347581000e+00
1900000.0 1.645602000e+00 1.327675000e+00
1990000.0 1.725960000e+00 1.286823000e+00
2080000.0 1.798927000e+00 1.234064000e+00
2170000.0 1.855781000e+00 1.166214000e+00
2260000.0 1.905632000e+00 1.083941000e+00
2350000.0 1.930916000e+00 9.990390000e-01
2440000.0 1.942120000e+00 9.113050000e-01
2530000.0 1.941970000e+00 8.285810000e-01
2620000.0 1.927256000e+00 7.479120000e-01
2710000.0 1.906807000e+00 6.722400000e-01
2800000.0 1.876565000e+00 6.051510000e-01
2890000.0 1.841506000e+00 5.474080000e-01
2980000.0 1.806051000e+00 4.891510000e-01
3070000.0 1.769499000e+00 4.453200000e-01
3160000.0 1.731538000e+00 4.041110000e-01
3250000.0 1.694825000e+00 3.674830000e-01
3340000.0 1.658831000e+00 3.339850000e-01
3430000.0 1.625844000e+00 3.049130000e-01
3520000.0 1.594357000e+00 2.798010000e-01
3610000.0 1.563621000e+00 2.560450000e-01
3700000.0 1.534657000e+00 2.320070000e-01
3790000.0 1.508493000e+00 2.125070000e-01
3880000.0 1.484532000e+00 1.960790000e-01
3970000.0 1.461639000e+00 1.760730000e-01
4060000.0 1.440297000e+00 1.577500000e-01
4150000.0 1.420544000e+00 1.425600000e-01
4240000.0 1.403342000e+00 1.262340000e-01
4330000.0 1.386171000e+00 1.113250000e-01
4420000.0 1.370369000e+00 9.602800000e-02
4510000.0 1.356827000e+00 8.093000000e-02
4600000.0 1.345128000e+00 6.900900000e-02
4690000.0 1.331314000e+00 5.455600000e-02
4780000.0 1.322840000e+00 4.192700000e-02
4870000.0 1.313108000e+00 2.828000000e-02
4960000.0 1.304247000e+00 1.377200000e-02
5050000.0 1.289644000e+00 1.933000000e-03
5140000.0 1.282837000e+00 -9.662000000e-03
5230000.0 1.278051000e+00 -2.378700000e-02
5320000.0 1.271848000e+00 -3.626700000e-02
5410000.0 1.268125000e+00 -4.782500000e-02
5500000.0 1.263290000e+00 -6.005700000e-02
5590000.0 1.259773000e+00 -7.072100000e-02
5680000.0 1.255758000e+00 -8.263600000e-02
5770000.0 1.251753000e+00 -9.290100000e-02
5860000.0 1.248590000e+00 -1.046280000e-01
5950000.0 1.245312000e+00 -1.152440000e-01
6040000.0 1.241962000e+00 -1.253010000e-01
6130000.0 1.239279000e+00 -1.341970000e-01
6220000.0 1.236195000e+00 -1.438010000e-01
6310000.0 1.233541000e+00 -1.534530000e-01
6400000.0 1.231557000e+00 -1.615500000e-01
6490000.0 1.230480000e+00 -1.693760000e-01
6580000.0 1.228849000e+00 -1.768380000e-01
6670000.0 1.226427000e+00 -1.840240000e-01
6760000.0 1.225457000e+00 -1.892190000e-01
6850000.0 1.224565000e+00 -1.959100000e-01
6940000.0 1.222498000e+00 -2.002150000e-01
7030000.0 1.221148000e+00 -2.044290000e-01
7120000.0 1.222238000e+00 -2.074360000e-01
7210000.0 1.220858000e+00 -2.106840000e-01
7300000.0 1.220825000e+00 -2.117860000e-01
7390000.0 1.219380000e+00 -2.138350000e-01
7480000.0 1.219889000e+00 -2.125300000e-01
7570000.0 -2.628390000e-01 -1.259182000e+00
7660000.0 -2.622070000e-01 -1.259535000e+00
7750000.0 -2.607620000e-01 -1.259946000e+00
7840000.0 -2.614440000e-01 -1.260600000e+00
7930000.0 -2.606580000e-01 -1.260854000e+00
8020000.0 -2.606290000e-01 -1.261129000e+00
8110000.0 -2.603920000e-01 -1.261277000e+00
8200000.0 -2.592740000e-01 -1.261087000e+00
8290000.0 -2.572280000e-01 -1.262021000e+00
8380000.0 -2.578420000e-01 -1.262496000e+00
8470000.0 -2.579750000e-01 -1.263113000e+00
8560000.0 -2.571960000e-01 -1.264048000e+00
8650000.0 -2.560290000e-01 -1.263572000e+00
8740000.0 -2.565650000e-01 -1.265336000e+00
8830000.0 -2.554380000e-01 -1.264813000e+00
8920000.0 -2.553740000e-01 -1.265089000e+00
9010000.0 -2.537180000e-01 -1.266167000e+00
9100000.0 -2.544290000e-01 -1.266074000e+00
9190000.0 -2.532450000e-01 -1.267650000e+00
9280000.0 -2.526300000e-01 -1.268320000e+00
9370000.0 -2.528290000e-01 -1.269030000e+00
9460000.0 -2.512630000e-01 -1.269553000e+00
9550000.0 -2.511340000e-01 -1.269749000e+00
9640000.0 -2.514960000e-01 -1.271438000e+00
9730000.0 -2.508680000e-01 -1.272593000e+00
9820000.0 -2.509850000e-01 -1.272927000e+00
9910000.0 -2.505060000e-01 -1.273771000e+00
10000000.0 -2.503040000e-01 -1.273689000e+00
10900000.0 -2.453090000e-01 -1.281639000e+00
11800000.0 -2.412480000e-01 -1.292620000e+00
12700000.0 -2.371320000e-01 -1.301838000e+00
13600000.0 -2.350700000e-01 -1.310493000e+00
14500000.0 -2.298080000e-01 -1.321354000e+00
15400000.0 -2.266010000e-01 -1.333709000e+00
16300000.0 -2.225220000e-01 -1.344560000e+00
17200000.0 -2.170740000e-01 -1.356439000e+00
18100000.0 -2.142360000e-01 -1.368286000e+00
19000000.0 -2.079460000e-01 -1.380097000e+00
19900000.0 -2.032380000e-01 -1.392674000e+00
20800000.0 -1.990070000e-01 -1.405686000e+00
21700000.0 -1.908800000e-01 -1.418907000e+00
22600000.0 -1.853960000e-01 -1.431474000e+00
23500000.0 -1.787840000e-01 -1.444786000e+00
24400000.0 -1.720880000e-01 -1.457094000e+00
25300000.0 -1.648860000e-01 -1.472434000e+00
26200000.0 -1.576920000e-01 -1.486781000e+00
27100000.0 -1.485970000e-01 -1.500647000e+00
28000000.0 -1.394230000e-01 -1.515100000e+00
28900000.0 -1.302470000e-01 -1.529326000e+00
29800000.0 -1.217140000e-01 -1.544301000e+00
30700000.0 -1.091470000e-01 -1.559126000e+00
31600000.0 -9.967500000e-02 -1.574695000e+00
32500000.0 -8.935100000e-02 -1.589567000e+00
33400000.0 -7.698100000e-02 -1.605027000e+00
34300000.0 -6.438300000e-02 -1.621246000e+00
35200000.0 -5.207400000e-02 -1.634879000e+00
36100000.0 -3.857400000e-02 -1.649533000e+00
37000000.0 -2.236300000e-02 -1.666729000e+00
37900000.0 -8.331000000e-03 -1.682302000e+00
38800000.0 5.444000000e-03 -1.697321000e+00
39700000.0 2.308800000e-02 -1.713366000e+00
40600000.0 4.224500000e-02 -1.729594000e+00
41500000.0 5.856600000e-02 -1.744008000e+00
42400000.0 7.848300000e-02 -1.760648000e+00
43300000.0 9.722600000e-02 -1.775296000e+00
44200000.0 1.178340000e-01 -1.789819000e+00
45100000.0 1.414510000e-01 -1.804141000e+00
46000000.0 1.625260000e-01 -1.818745000e+00
46900000.0 1.857040000e-01 -1.832151000e+00
47800000.0 2.085270000e-01 -1.846780000e+00
48700000.0 2.337490000e-01 -1.859415000e+00
49600000.0 2.604900000e-01 -1.872922000e+00
50500000.0 2.880220000e-01 -1.884424000e+00
51400000.0 3.156500000e-01 -1.893772000e+00
52300000.0 3.430450000e-01 -1.906706000e+00
53200000.0 3.734290000e-01 -1.915522000e+00
54100000.0 4.020180000e-01 -1.924231000e+00
55000000.0 4.349960000e-01 -1.934066000e+00
55900000.0 4.661210000e-01 -1.939611000e+00
56800000.0 5.007900000e-01 -1.945473000e+00
57700000.0 5.318760000e-01 -1.948977000e+00
58600000.0 5.678910000e-01 -1.955253000e+00
59500000.0 6.038960000e-01 -1.955513000e+00
60400000.0 6.399500000e-01 -1.957751000e+00
61300000.0 6.731790000e-01 -1.953345000e+00
62200000.0 7.106600000e-01 -1.954056000e+00
63100000.0 7.504390000e-01 -1.950462000e+00
64000000.0 7.845260000e-01 -1.943085000e+00
64900000.0 8.234930000e-01 -1.937654000e+00
65800000.0 8.614190000e-01 -1.929762000e+00
66700000.0 8.965630000e-01 -1.917850000e+00
67600000.0 9.356150000e-01 -1.907410000e+00
68500000.0 9.695300000e-01 -1.893186000e+00
69400000.0 1.006966000e+00 -1.876790000e+00
70300000.0 1.043383000e+00 -1.858998000e+00
71200000.0 1.080268000e+00 -1.842417000e+00
72100000.0 1.113142000e+00 -1.819807000e+00
73000000.0 1.144878000e+00 -1.796369000e+00
73900000.0 1.177560000e+00 -1.774626000e+00
74800000.0 1.211329000e+00 -1.750451000e+00
75700000.0 1.239327000e+00 -1.723182000e+00
76600000.0 1.267325000e+00 -1.694707000e+00
77500000.0 1.293075000e+00 -1.668993000e+00
78400000.0 1.319589000e+00 -1.635857000e+00
79300000.0 1.344688000e+00 -1.607497000e+00
80200000.0 1.366795000e+00 -1.574901000e+00
81100000.0 1.386696000e+00 -1.541866000e+00
82000000.0 1.406111000e+00 -1.509166000e+00
82900000.0 1.425084000e+00 -1.477912000e+00
83800000.0 1.440398000e+00 -1.443286000e+00
84700000.0 1.453349000e+00 -1.407561000e+00
85600000.0 1.466807000e+00 -1.374010000e+00
86500000.0 1.479795000e+00 -1.339536000e+00
87400000.0 1.487046000e+00 -1.307497000e+00
88300000.0 1.472232000e+00 -1.300443000e+00
89200000.0 1.502452000e+00 -1.239119000e+00
90100000.0 1.507988000e+00 -1.207354000e+00
91000000.0 1.514066000e+00 -1.176291000e+00
91900000.0 1.516071000e+00 -1.141997000e+00
92800000.0 1.517717000e+00 -1.111379000e+00
93700000.0 1.517485000e+00 -1.080227000e+00
94600000.0 1.517227000e+00 -1.050681000e+00
95500000.0 1.515510000e+00 -1.019886000e+00
96400000.0 1.513564000e+00 -9.911560000e-01
97300000.0 1.509637000e+00 -9.632200000e-01
98200000.0 1.507329000e+00 -9.337140000e-01
99100000.0 1.501105000e+00 -9.082660000e-01
100000000.0 1.497547000e+00 -8.797910000e-01
109000000.0 1.415892000e+00 -6.589010000e-01
118000000.0 1.310551000e+00 -4.953410000e-01
127000000.0 1.204371000e+00 -3.838580000e-01
136000000.0 1.102588000e+00 -3.085690000e-01
145000000.0 1.012172000e+00 -2.517440000e-01
154000000.0 9.639420000e-01 -2.340220000e-01
163000000.0 9.616830000e-01 -2.474720000e-01
172000000.0 9.568430000e-01 -2.601710000e-01
181000000.0 9.542510000e-01 -2.727150000e-01
190000000.0 9.495330000e-01 -2.858300000e-01
199000000.0 9.457500000e-01 -2.981670000e-01
208000000.0 9.420490000e-01 -3.108440000e-01
217000000.0 9.379550000e-01 -3.231070000e-01
226000000.0 9.316440000e-01 -3.357070000e-01
235000000.0 9.281080000e-01 -3.464220000e-01
244000000.0 9.222490000e-01 -3.591410000e-01
253000000.0 9.164810000e-01 -3.706540000e-01
262000000.0 9.119700000e-01 -3.819710000e-01
271000000.0 9.062230000e-01 -3.937850000e-01
280000000.0 8.996530000e-01 -4.052710000e-01
289000000.0 8.931140000e-01 -4.170700000e-01
298000000.0 8.869990000e-01 -4.278790000e-01
307000000.0 8.803640000e-01 -4.393270000e-01
316000000.0 8.764180000e-01 -4.495150000e-01
325000000.0 8.696260000e-01 -4.608300000e-01
334000000.0 8.660930000e-01 -4.705090000e-01
343000000.0 8.588840000e-01 -4.836510000e-01
352000000.0 8.528680000e-01 -4.929620000e-01
361000000.0 8.566020000e-01 -4.898110000e-01
370000000.0 8.411040000e-01 -5.137850000e-01
379000000.0 8.571990000e-01 -4.976350000e-01
388000000.0 8.256440000e-01 -5.349360000e-01
397000000.0 8.205340000e-01 -5.438140000e-01
406000000.0 7.985620000e-01 -5.679690000e-01
415000000.0 8.032290000e-01 -5.630260000e-01
424000000.0 7.943680000e-01 -5.728920000e-01
433000000.0 7.847250000e-01 -5.823240000e-01
442000000.0 7.630550000e-01 -6.048580000e-01
451000000.0 7.666330000e-01 -6.025250000e-01
460000000.0 7.629370000e-01 -6.104770000e-01
469000000.0 7.586190000e-01 -6.184710000e-01
478000000.0 7.509240000e-01 -6.316560000e-01
487000000.0 7.453550000e-01 -6.380940000e-01
496000000.0 7.529260000e-01 -6.359470000e-01
505000000.0 7.325670000e-01 -6.601330000e-01
514000000.0 7.120250000e-01 -6.805390000e-01
523000000.0 7.165660000e-01 -6.789170000e-01
532000000.0 7.079460000e-01 -6.854580000e-01
541000000.0 7.011090000e-01 -6.956870000e-01
550000000.0 6.939280000e-01 -6.990640000e-01
559000000.0 6.807940000e-01 -7.127350000e-01
568000000.0 6.718120000e-01 -7.199410000e-01
577000000.0 6.627500000e-01 -7.278900000e-01
586000000.0 6.509200000e-01 -7.339630000e-01
595000000.0 6.405340000e-01 -7.378990000e-01
604000000.0 6.272000000e-01 -7.515990000e-01
613000000.0 6.248770000e-01 -7.617020000e-01
622000000.0 6.153300000e-01 -7.702980000e-01
631000000.0 6.081630000e-01 -7.817100000e-01
640000000.0 5.987410000e-01 -7.910370000e-01
649000000.0 5.915120000e-01 -7.952970000e-01
658000000.0 5.816580000e-01 -8.045390000e-01
667000000.0 5.719610000e-01 -8.133830000e-01
676000000.0 5.599490000e-01 -8.192900000e-01
685000000.0 5.552580000e-01 -8.266480000e-01
694000000.0 5.415950000e-01 -8.303900000e-01
703000000.0 5.457200000e-01 -8.292820000e-01
712000000.0 5.172280000e-01 -8.467260000e-01
721000000.0 5.069220000e-01 -8.430390000e-01
730000000.0 4.948460000e-01 -8.464780000e-01
739000000.0 4.807560000e-01 -8.502820000e-01
748000000.0 4.697640000e-01 -8.480250000e-01
757000000.0 4.561690000e-01 -8.586150000e-01
766000000.0 4.426870000e-01 -8.685030000e-01
775000000.0 4.328200000e-01 -8.721710000e-01
784000000.0 4.201840000e-01 -8.820730000e-01
793000000.0 4.097960000e-01 -8.882840000e-01
802000000.0 3.962870000e-01 -8.963270000e-01
811000000.0 3.844890000e-01 -8.993160000e-01
820000000.0 3.773610000e-01 -9.031890000e-01
829000000.0 3.679460000e-01 -9.070490000e-01
838000000.0 3.576300000e-01 -9.091710000e-01
847000000.0 3.452390000e-01 -9.122040000e-01
856000000.0 3.379780000e-01 -9.161080000e-01
865000000.0 3.260260000e-01 -9.162070000e-01
874000000.0 3.172010000e-01 -9.199310000e-01
883000000.0 3.105690000e-01 -9.176660000e-01
892000000.0 2.974970000e-01 -9.212400000e-01
901000000.0 2.869120000e-01 -9.237990000e-01
910000000.0 2.841160000e-01 -9.231230000e-01
919000000.0 2.690310000e-01 -9.255120000e-01
928000000.0 2.541240000e-01 -9.291470000e-01
937000000.0 2.451210000e-01 -9.315290000e-01
946000000.0 2.337870000e-01 -9.349800000e-01
955000000.0 2.264540000e-01 -9.354600000e-01
964000000.0 2.108120000e-01 -9.388740000e-01
973000000.0 2.009980000e-01 -9.401710000e-01
982000000.0 1.907010000e-01 -9.434080000e-01
991000000.0 1.828320000e-01 -9.433190000e-01
1000000000.0 1.728710000e-01 -9.451660000e-01
1004500000.0 1.700910000e-01 -9.453240000e-01
1009000000.0 1.627560000e-01 -9.463980000e-01
1013500000.0 1.603640000e-01 -9.485180000e-01
1018000000.0 1.545980000e-01 -9.483410000e-01
1022500000.0 1.507900000e-01 -9.502350000e-01
1027000000.0 1.494310000e-01 -9.493620000e-01
1031500000.0 1.387770000e-01 -9.513160000e-01
1036000000.0 1.393160000e-01 -9.514910000e-01
1040500000.0 1.338750000e-01 -9.523250000e-01
1045000000.0 1.266780000e-01 -9.553730000e-01
1049500000.0 1.160440000e-01 -9.544780000e-01
1054000000.0 1.219380000e-01 -9.549690000e-01
1058500000.0 1.131780000e-01 -9.560370000e-01
1063000000.0 1.110690000e-01 -9.558830000e-01
1067500000.0 1.021340000e-01 -9.578020000e-01
1072000000.0 1.005260000e-01 -9.573980000e-01
1076500000.0 9.415900000e-02 -9.565580000e-01
1081000000.0 9.290900000e-02 -9.581020000e-01
1085500000.0 8.673800000e-02 -9.579590000e-01
1090000000.0 8.431700000e-02 -9.570460000e-01
1094500000.0 7.219200000e-02 -9.600450000e-01
1099000000.0 7.487600000e-02 -9.594960000e-01
1103500000.0 6.865000000e-02 -9.616990000e-01
1108000000.0 6.010000000e-02 -9.620260000e-01
1112500000.0 5.898500000e-02 -9.629850000e-01
1117000000.0 5.240400000e-02 -9.607840000e-01
1121500000.0 4.746100000e-02 -9.620960000e-01
1126000000.0 3.041000000e-03 -9.534050000e-01
1130500000.0 3.372500000e-02 -9.633280000e-01
1135000000.0 3.061100000e-02 -9.643310000e-01
1139500000.0 3.064200000e-02 -9.624850000e-01
1144000000.0 2.450500000e-02 -9.613710000e-01
1148500000.0 1.670900000e-02 -9.616900000e-01
1153000000.0 1.710000000e-03 -9.659390000e-01
1157500000.0 6.911000000e-03 -9.608270000e-01
1162000000.0 -2.332300000e-02 -9.573570000e-01
1166500000.0 -7.343000000e-03 -9.614760000e-01
1171000000.0 -1.024500000e-02 -9.615450000e-01
1175500000.0 -1.507200000e-02 -9.591480000e-01
1180000000.0 -2.586000000e-02 -9.622500000e-01
1184500000.0 -3.364800000e-02 -9.610160000e-01
1189000000.0 -3.124600000e-02 -9.594680000e-01
1193500000.0 -3.199800000e-02 -9.621120000e-01
1198000000.0 -4.800200000e-02 -9.577490000e-01
1202500000.0 -4.897100000e-02 -9.581600000e-01
1207000000.0 -5.484600000e-02 -9.612890000e-01
1211500000.0 -5.709000000e-02 -9.575440000e-01
1216000000.0 -6.404900000e-02 -9.614500000e-01
1220500000.0 -6.995500000e-02 -9.585890000e-01
1225000000.0 -6.934600000e-02 -9.648920000e-01
1229500000.0 -8.246100000e-02 -9.590240000e-01
1234000000.0 -8.129600000e-02 -9.580940000e-01
1238500000.0 -8.650200000e-02 -9.558450000e-01
1243000000.0 -9.312100000e-02 -9.611280000e-01
1247500000.0 -9.765900000e-02 -9.611850000e-01
1252000000.0 -9.413000000e-02 -9.591980000e-01
1256500000.0 -1.030780000e-01 -9.586280000e-01
1261000000.0 -1.031080000e-01 -9.583060000e-01
1265500000.0 -1.128990000e-01 -9.581520000e-01
1270000000.0 -1.154630000e-01 -9.571730000e-01
1274500000.0 -1.222350000e-01 -9.601900000e-01
1279000000.0 -1.273490000e-01 -9.584700000e-01
1283500000.0 -1.299310000e-01 -9.551160000e-01
1288000000.0 -1.349650000e-01 -9.544970000e-01
1292500000.0 -1.370240000e-01 -9.564170000e-01
1297000000.0 -1.474700000e-01 -9.508470000e-01
1301500000.0 -1.400950000e-01 -9.557650000e-01
1306000000.0 -1.685390000e-01 -9.454480000e-01
1310500000.0 -1.572820000e-01 -9.499030000e-01
1315000000.0 -1.728280000e-01 -9.572670000e-01
1319500000.0 -1.652220000e-01 -9.508190000e-01
1324000000.0 -1.773570000e-01 -9.476440000e-01
1328500000.0 -1.822250000e-01 -9.461650000e-01
1333000000.0 -1.867710000e-01 -9.420110000e-01
1337500000.0 -1.918170000e-01 -9.406160000e-01
1342000000.0 -1.980880000e-01 -9.451840000e-01
1346500000.0 -1.941110000e-01 -9.379370000e-01
1351000000.0 -2.091650000e-01 -9.346410000e-01
1355500000.0 -2.124190000e-01 -9.362750000e-01
1360000000.0 -2.205630000e-01 -9.372820000e-01
1364500000.0 -2.169940000e-01 -9.460830000e-01
1369000000.0 -2.272440000e-01 -9.504120000e-01
1373500000.0 -2.266340000e-01 -9.396080000e-01
1378000000.0 -2.274680000e-01 -9.489500000e-01
1382500000.0 -2.316820000e-01 -9.417220000e-01
1387000000.0 -2.369740000e-01 -9.440680000e-01
1391500000.0 -2.430180000e-01 -9.449710000e-01
1396000000.0 -2.476660000e-01 -9.447090000e-01
1400500000.0 -2.426740000e-01 -9.446170000e-01
1405000000.0 -2.555890000e-01 -9.517010000e-01
1409500000.0 -2.685360000e-01 -9.425330000e-01
1414000000.0 -2.619750000e-01 -9.516640000e-01
1418500000.0 -2.730010000e-01 -9.356450000e-01
1423000000.0 -2.900860000e-01 -9.347140000e-01
1427500000.0 -2.643890000e-01 -9.408420000e-01
1432000000.0 -2.706140000e-01 -9.418190000e-01
1436500000.0 -2.796290000e-01 -9.397000000e-01
1441000000.0 -2.793520000e-01 -9.361920000e-01
1445500000.0 -2.942780000e-01 -9.373430000e-01
1450000000.0 -2.888440000e-01 -9.335480000e-01
