! piloto_corto / aire / r04
# HZ S RI R 50
50000.0 1.005682000e+00 -7.380700000e-02
59500.0 1.006724000e+00 -6.010100000e-02
69000.0 1.004600000e+00 -4.744200000e-02
78500.0 1.002693000e+00 -3.414000000e-02
88000.0 1.001205000e+00 -2.204000000e-02
97500.0 1.000812000e+00 -9.559000000e-03
107000.0 9.991510000e-01 2.278000000e-03
116500.0 9.998850000e-01 1.407300000e-02
126000.0 9.992380000e-01 2.475500000e-02
135500.0 1.000465000e+00 3.862100000e-02
145000.0 9.997590000e-01 5.022100000e-02
154500.0 1.001070000e+00 6.135200000e-02
164000.0 9.999880000e-01 7.343100000e-02
173500.0 1.001554000e+00 8.465300000e-02
183000.0 1.001772000e+00 9.716600000e-02
192500.0 1.002194000e+00 1.083020000e-01
202000.0 1.002532000e+00 1.197870000e-01
211500.0 1.002881000e+00 1.306810000e-01
221000.0 1.002223000e+00 1.420380000e-01
230500.0 1.002873000e+00 1.527610000e-01
240000.0 1.002055000e+00 1.637560000e-01
249500.0 8.945350000e-01 4.648600000e-02
259000.0 1.003632000e+00 1.861700000e-01
268500.0 1.002966000e+00 1.967990000e-01
278000.0 1.003543000e+00 2.077840000e-01
287500.0 1.003113000e+00 2.193550000e-01
297000.0 1.003483000e+00 2.290700000e-01
306500.0 1.003696000e+00 2.397130000e-01
316000.0 1.004219000e+00 2.505920000e-01
325500.0 1.003946000e+00 2.616170000e-01
335000.0 1.003376000e+00 2.715990000e-01
344500.0 1.004163000e+00 2.810270000e-01
354000.0 1.003745000e+00 2.921590000e-01
363500.0 1.004239000e+00 3.026640000e-01
373000.0 1.004434000e+00 3.125200000e-01
382500.0 1.004942000e+00 3.220030000e-01
392000.0 1.004334000e+00 3.333760000e-01
401500.0 1.004651000e+00 3.436890000e-01
411000.0 1.004543000e+00 3.537480000e-01
420500.0 1.004228000e+00 3.635770000e-01
430000.0 1.005186000e+00 3.736550000e-01
439500.0 1.005895000e+00 3.842310000e-01
449000.0 1.005780000e+00 3.921470000e-01
458500.0 1.006303000e+00 4.034640000e-01
468000.0 1.006569000e+00 4.129670000e-01
477500.0 1.005207000e+00 4.231940000e-01
487000.0 1.006765000e+00 4.329390000e-01
496500.0 1.006079000e+00 4.428180000e-01
506000.0 1.005397000e+00 4.519900000e-01
515500.0 1.007188000e+00 4.625990000e-01
525000.0 1.007140000e+00 4.706930000e-01
534500.0 1.007407000e+00 4.808160000e-01
544000.0 1.007213000e+00 4.908760000e-01
553500.0 1.006344000e+00 5.008530000e-01
563000.0 1.008539000e+00 5.102700000e-01
572500.0 1.009173000e+00 5.199060000e-01
582000.0 1.008571000e+00 5.287110000e-01
591500.0 1.009186000e+00 5.379960000e-01
601000.0 1.009256000e+00 5.470930000e-01
610500.0 1.010286000e+00 5.572590000e-01
620000.0 1.010864000e+00 5.658290000e-01
629500.0 1.010735000e+00 5.756470000e-01
639000.0 1.011169000e+00 5.846210000e-01
648500.0 1.012554000e+00 5.955960000e-01
658000.0 1.011789000e+00 6.040170000e-01
667500.0 1.013367000e+00 6.127250000e-01
677000.0 1.013669000e+00 6.212890000e-01
686500.0 1.013209000e+00 6.305660000e-01
696000.0 1.013756000e+00 6.403130000e-01
705500.0 1.014657000e+00 6.494490000e-01
715000.0 1.015058000e+00 6.592810000e-01
724500.0 1.016196000e+00 6.672760000e-01
734000.0 1.017593000e+00 6.757100000e-01
743500.0 1.016549000e+00 6.855090000e-01
753000.0 1.018894000e+00 6.952830000e-01
762500.0 1.019961000e+00 7.038100000e-01
772000.0 1.020526000e+00 7.124840000e-01
781500.0 1.021944000e+00 7.210090000e-01
791000.0 1.022711000e+00 7.304590000e-01
800500.0 1.023978000e+00 7.389460000e-01
810000.0 1.024274000e+00 7.480650000e-01
819500.0 1.024953000e+00 7.566670000e-01
829000.0 1.026726000e+00 7.645060000e-01
838500.0 1.028566000e+00 7.738670000e-01
848000.0 1.028654000e+00 7.832040000e-01
857500.0 1.030777000e+00 7.932830000e-01
867000.0 1.031680000e+00 8.006500000e-01
876500.0 1.033688000e+00 8.106230000e-01
886000.0 1.036052000e+00 8.183210000e-01
895500.0 1.036827000e+00 8.280040000e-01
905000.0 1.038798000e+00 8.349570000e-01
914500.0 1.040230000e+00 8.436520000e-01
924000.0 1.041036000e+00 8.521230000e-01
933500.0 1.043389000e+00 8.601520000e-01
943000.0 1.045095000e+00 8.700190000e-01
952500.0 1.047889000e+00 8.790520000e-01
962000.0 1.049748000e+00 8.873310000e-01
971500.0 1.051455000e+00 8.941900000e-01
981000.0 1.051882000e+00 9.035080000e-01
990500.0 1.056631000e+00 9.118460000e-01
1000000.0 1.058274000e+00 9.208410000e-01
1090000.0 1.081002000e+00 9.984120000e-01
1180000.0 1.111902000e+00 1.073701000e+00
1270000.0 1.153944000e+00 1.142029000e+00
1360000.0 1.203387000e+00 1.205563000e+00
1450000.0 1.264391000e+00 1.261869000e+00
1540000.0 1.334826000e+00 1.307445000e+00
1630000.0 1.410231000e+00 1.333815000e+00
1720000.0 1.494041000e+00 1.348218000e+00
1810000.0 1.580993000e+00 1.344647000e+00
1900000.0 1.666420000e+00 1.324004000e+00
1990000.0 1.748082000e+00 1.280309000e+00
2080000.0 1.817521000e+00 1.224865000e+00
2170000.0 1.875931000e+00 1.147910000e+00
2260000.0 1.915891000e+00 1.068632000e+00
2350000.0 1.940766000e+00 9.805830000e-01
2440000.0 1.948797000e+00 8.941080000e-01
2530000.0 1.943785000e+00 8.094040000e-01
2620000.0 1.928010000e+00 7.270240000e-01
2710000.0 1.902650000e+00 6.561000000e-01
2800000.0 1.871773000e+00 5.916120000e-01
2890000.0 1.835366000e+00 5.321340000e-01
2980000.0 1.801748000e+00 4.809370000e-01
3070000.0 1.762952000e+00 4.347370000e-01
3160000.0 1.724002000e+00 3.976900000e-01
3250000.0 1.687449000e+00 3.596240000e-01
3340000.0 1.652644000e+00 3.273010000e-01
3430000.0 1.617691000e+00 3.007020000e-01
3520000.0 1.587765000e+00 2.759710000e-01
3610000.0 1.557202000e+00 2.524270000e-01
3700000.0 1.530413000e+00 2.309860000e-01
3790000.0 1.504963000e+00 2.107390000e-01
3880000.0 1.479578000e+00 1.916530000e-01
3970000.0 1.454955000e+00 1.735440000e-01
4060000.0 1.435504000e+00 1.576140000e-01
4150000.0 1.416729000e+00 1.423490000e-01
4240000.0 1.397527000e+00 1.272020000e-01
4330000.0 1.381439000e+00 1.130900000e-01
4420000.0 1.366627000e+00 9.778500000e-02
4510000.0 1.352309000e+00 8.188100000e-02
4600000.0 1.340087000e+00 6.936700000e-02
4690000.0 1.328884000e+00 5.445700000e-02
4780000.0 1.318623000e+00 4.278100000e-02
4870000.0 1.310760000e+00 2.755400000e-02
4960000.0 1.302138000e+00 1.537100000e-02
5050000.0 1.286677000e+00 1.420000000e-03
5140000.0 1.280825000e+00 -9.610000000e-03
5230000.0 1.275959000e+00 -2.249200000e-02
5320000.0 1.271961000e+00 -3.426000000e-02
5410000.0 1.267186000e+00 -4.676000000e-02
5500000.0 1.261342000e+00 -5.852100000e-02
5590000.0 1.256951000e+00 -6.982400000e-02
5680000.0 1.253281000e+00 -8.151200000e-02
5770000.0 1.250687000e+00 -9.333200000e-02
5860000.0 1.247633000e+00 -1.030610000e-01
5950000.0 1.244289000e+00 -1.134330000e-01
6040000.0 1.240807000e+00 -1.250490000e-01
6130000.0 1.238109000e+00 -1.343670000e-01
6220000.0 1.235009000e+00 -1.421970000e-01
6310000.0 1.233030000e+00 -1.530950000e-01
6400000.0 1.231028000e+00 -1.607990000e-01
6490000.0 1.229303000e+00 -1.678820000e-01
6580000.0 1.227753000e+00 -1.763660000e-01
6670000.0 1.226548000e+00 -1.828520000e-01
6760000.0 1.224800000e+00 -1.892150000e-01
6850000.0 1.223756000e+00 -1.946710000e-01
6940000.0 1.222400000e+00 -1.996140000e-01
7030000.0 1.221273000e+00 -2.036430000e-01
7120000.0 1.220015000e+00 -2.072080000e-01
7210000.0 1.220269000e+00 -2.100000000e-01
7300000.0 1.219413000e+00 -2.113740000e-01
7390000.0 1.219192000e+00 -2.128310000e-01
7480000.0 1.220047000e+00 -2.115170000e-01
7570000.0 -2.623250000e-01 -1.258278000e+00
7660000.0 -2.609600000e-01 -1.258364000e+00
7750000.0 -2.613690000e-01 -1.258379000e+00
7840000.0 -2.613200000e-01 -1.258711000e+00
7930000.0 -2.603470000e-01 -1.259445000e+00
8020000.0 -2.589300000e-01 -1.259755000e+00
8110000.0 -2.603440000e-01 -1.261112000e+00
8200000.0 -2.585600000e-01 -1.260580000e+00
8290000.0 -2.580970000e-01 -1.260618000e+00
8380000.0 -2.564880000e-01 -1.262502000e+00
8470000.0 -2.563170000e-01 -1.262669000e+00
8560000.0 -2.565410000e-01 -1.263049000e+00
8650000.0 -2.552670000e-01 -1.263753000e+00
8740000.0 -2.560350000e-01 -1.264063000e+00
8830000.0 -2.538830000e-01 -1.264362000e+00
8920000.0 -2.526230000e-01 -1.265758000e+00
9010000.0 -2.544830000e-01 -1.265998000e+00
9100000.0 -2.541640000e-01 -1.266440000e+00
9190000.0 -2.545650000e-01 -1.266539000e+00
9280000.0 -2.524290000e-01 -1.267745000e+00
9370000.0 -2.520070000e-01 -1.268263000e+00
9460000.0 -2.520750000e-01 -1.268853000e+00
9550000.0 -2.513780000e-01 -1.269123000e+00
9640000.0 -2.502690000e-01 -1.269847000e+00
9730000.0 -2.509680000e-01 -1.271796000e+00
9820000.0 -2.499360000e-01 -1.272899000e+00
9910000.0 -2.496880000e-01 -1.272493000e+00
10000000.0 -2.495330000e-01 -1.274266000e+00
10900000.0 -2.443300000e-01 -1.281876000e+00
11800000.0 -2.399490000e-01 -1.291394000e+00
12700000.0 -2.370090000e-01 -1.300106000e+00
13600000.0 -2.338710000e-01 -1.311917000e+00
14500000.0 -2.305510000e-01 -1.321361000e+00
15400000.0 -2.258530000e-01 -1.332742000e+00
16300000.0 -2.216860000e-01 -1.344437000e+00
17200000.0 -2.177670000e-01 -1.357271000e+00
18100000.0 -2.131990000e-01 -1.367915000e+00
19000000.0 -2.078070000e-01 -1.381420000e+00
19900000.0 -2.044040000e-01 -1.392563000e+00
20800000.0 -1.967180000e-01 -1.405128000e+00
21700000.0 -1.919500000e-01 -1.418514000e+00
22600000.0 -1.865790000e-01 -1.431086000e+00
23500000.0 -1.792750000e-01 -1.445130000e+00
24400000.0 -1.719110000e-01 -1.458981000e+00
25300000.0 -1.655730000e-01 -1.472180000e+00
26200000.0 -1.571760000e-01 -1.485237000e+00
27100000.0 -1.475690000e-01 -1.499962000e+00
28000000.0 -1.382430000e-01 -1.514341000e+00
28900000.0 -1.312460000e-01 -1.529376000e+00
29800000.0 -3.584500000e-02 -1.561424000e+00
30700000.0 -1.098230000e-01 -1.559824000e+00
31600000.0 -1.008950000e-01 -1.573771000e+00
32500000.0 -8.778200000e-02 -1.588838000e+00
33400000.0 -7.616500000e-02 -1.605489000e+00
34300000.0 -6.464900000e-02 -1.618373000e+00
35200000.0 -5.089600000e-02 -1.634625000e+00
36100000.0 -3.734300000e-02 -1.651010000e+00
37000000.0 -2.343400000e-02 -1.667011000e+00
37900000.0 -8.494000000e-03 -1.682338000e+00
38800000.0 8.482000000e-03 -1.698067000e+00
39700000.0 2.509100000e-02 -1.712675000e+00
40600000.0 4.216800000e-02 -1.727230000e+00
41500000.0 6.011100000e-02 -1.743204000e+00
42400000.0 7.845900000e-02 -1.757964000e+00
43300000.0 9.682000000e-02 -1.774767000e+00
44200000.0 1.181570000e-01 -1.789755000e+00
45100000.0 1.406730000e-01 -1.803404000e+00
46000000.0 1.626750000e-01 -1.817944000e+00
46900000.0 1.865070000e-01 -1.831306000e+00
47800000.0 2.109570000e-01 -1.844095000e+00
48700000.0 2.345890000e-01 -1.858897000e+00
49600000.0 2.614530000e-01 -1.870248000e+00
50500000.0 2.888660000e-01 -1.882613000e+00
51400000.0 3.165380000e-01 -1.893556000e+00
52300000.0 3.449840000e-01 -1.905613000e+00
53200000.0 3.741760000e-01 -1.914795000e+00
54100000.0 4.050420000e-01 -1.925371000e+00
55000000.0 4.347730000e-01 -1.931000000e+00
55900000.0 4.668270000e-01 -1.940228000e+00
56800000.0 5.002510000e-01 -1.946153000e+00
57700000.0 5.340550000e-01 -1.949216000e+00
58600000.0 5.682260000e-01 -1.952331000e+00
59500000.0 6.045570000e-01 -1.955614000e+00
60400000.0 6.406580000e-01 -1.956087000e+00
61300000.0 6.754390000e-01 -1.956340000e+00
62200000.0 7.132450000e-01 -1.953456000e+00
63100000.0 7.487870000e-01 -1.949663000e+00
64000000.0 7.869500000e-01 -1.945331000e+00
64900000.0 8.228680000e-01 -1.937070000e+00
65800000.0 8.612960000e-01 -1.929051000e+00
66700000.0 8.999040000e-01 -1.917912000e+00
67600000.0 9.337660000e-01 -1.906779000e+00
68500000.0 9.733200000e-01 -1.892528000e+00
69400000.0 1.006190000e+00 -1.876664000e+00
70300000.0 1.043368000e+00 -1.859942000e+00
71200000.0 1.078265000e+00 -1.841315000e+00
72100000.0 1.112678000e+00 -1.820375000e+00
73000000.0 1.144958000e+00 -1.797452000e+00
73900000.0 1.179782000e+00 -1.773637000e+00
74800000.0 1.209616000e+00 -1.749031000e+00
75700000.0 1.237656000e+00 -1.721217000e+00
76600000.0 1.266976000e+00 -1.694252000e+00
77500000.0 1.293135000e+00 -1.664603000e+00
78400000.0 1.320189000e+00 -1.635616000e+00
79300000.0 1.341702000e+00 -1.605942000e+00
80200000.0 1.366356000e+00 -1.574260000e+00
81100000.0 1.386961000e+00 -1.542708000e+00
82000000.0 1.406121000e+00 -1.509253000e+00
82900000.0 1.424217000e+00 -1.476861000e+00
83800000.0 1.440949000e+00 -1.443446000e+00
84700000.0 1.454779000e+00 -1.408633000e+00
85600000.0 1.466737000e+00 -1.373160000e+00
86500000.0 1.476097000e+00 -1.342827000e+00
87400000.0 1.488155000e+00 -1.307115000e+00
88300000.0 1.496228000e+00 -1.272823000e+00
89200000.0 1.502129000e+00 -1.239196000e+00
90100000.0 1.508587000e+00 -1.208533000e+00
91000000.0 1.513673000e+00 -1.175595000e+00
91900000.0 1.513555000e+00 -1.143205000e+00
92800000.0 1.516850000e+00 -1.111678000e+00
93700000.0 1.518377000e+00 -1.081085000e+00
94600000.0 1.516911000e+00 -1.049674000e+00
95500000.0 1.516350000e+00 -1.020489000e+00
96400000.0 1.513749000e+00 -9.919910000e-01
97300000.0 1.511025000e+00 -9.632880000e-01
98200000.0 1.504904000e+00 -9.342220000e-01
99100000.0 1.501355000e+00 -9.057060000e-01
100000000.0 1.495394000e+00 -8.814720000e-01
109000000.0 1.417374000e+00 -6.586500000e-01
118000000.0 1.311597000e+00 -4.968360000e-01
127000000.0 1.203040000e+00 -3.828620000e-01
136000000.0 1.101993000e+00 -3.088810000e-01
145000000.0 1.012459000e+00 -2.524690000e-01
154000000.0 9.638890000e-01 -2.339410000e-01
163000000.0 9.616390000e-01 -2.470540000e-01
172000000.0 9.575030000e-01 -2.605480000e-01
181000000.0 9.540860000e-01 -2.725690000e-01
190000000.0 9.501350000e-01 -2.856770000e-01
199000000.0 9.466440000e-01 -2.988730000e-01
208000000.0 9.418330000e-01 -3.103710000e-01
217000000.0 9.370540000e-01 -3.237950000e-01
226000000.0 9.333390000e-01 -3.355090000e-01
235000000.0 9.277040000e-01 -3.471600000e-01
244000000.0 9.219050000e-01 -3.596450000e-01
253000000.0 9.170280000e-01 -3.710600000e-01
262000000.0 9.105850000e-01 -3.824690000e-01
271000000.0 9.042870000e-01 -3.954060000e-01
280000000.0 8.995140000e-01 -4.033840000e-01
289000000.0 8.946510000e-01 -4.166240000e-01
298000000.0 8.868020000e-01 -4.274390000e-01
307000000.0 8.797540000e-01 -4.396230000e-01
316000000.0 8.768320000e-01 -4.499150000e-01
325000000.0 8.724190000e-01 -4.611760000e-01
334000000.0 8.672660000e-01 -4.712680000e-01
343000000.0 8.607090000e-01 -4.828330000e-01
352000000.0 8.537690000e-01 -4.956010000e-01
361000000.0 7.807430000e-01 -5.624550000e-01
370000000.0 8.644700000e-01 -4.883870000e-01
379000000.0 8.089720000e-01 -5.493010000e-01
388000000.0 8.247930000e-01 -5.358530000e-01
397000000.0 8.208610000e-01 -5.451040000e-01
406000000.0 8.126630000e-01 -5.546700000e-01
415000000.0 8.025520000e-01 -5.630840000e-01
424000000.0 7.925720000e-01 -5.721120000e-01
433000000.0 7.875200000e-01 -5.845730000e-01
442000000.0 7.750090000e-01 -5.912990000e-01
451000000.0 7.663830000e-01 -6.033110000e-01
460000000.0 7.629890000e-01 -6.116500000e-01
469000000.0 7.559010000e-01 -6.227970000e-01
478000000.0 7.513610000e-01 -6.305170000e-01
487000000.0 7.454120000e-01 -6.401620000e-01
496000000.0 7.356710000e-01 -6.517450000e-01
505000000.0 7.320840000e-01 -6.608980000e-01
514000000.0 7.237730000e-01 -6.678040000e-01
523000000.0 7.171290000e-01 -6.758080000e-01
532000000.0 7.085550000e-01 -6.842560000e-01
541000000.0 6.994800000e-01 -6.961590000e-01
550000000.0 6.954570000e-01 -7.036440000e-01
559000000.0 6.806250000e-01 -7.130880000e-01
568000000.0 6.713130000e-01 -7.196340000e-01
577000000.0 6.629760000e-01 -7.268090000e-01
586000000.0 6.494160000e-01 -7.361340000e-01
595000000.0 6.401460000e-01 -7.400800000e-01
604000000.0 6.300030000e-01 -7.494200000e-01
613000000.0 6.211990000e-01 -7.602800000e-01
622000000.0 6.152430000e-01 -7.714360000e-01
631000000.0 6.069670000e-01 -7.805140000e-01
640000000.0 5.983840000e-01 -7.889030000e-01
649000000.0 5.900810000e-01 -7.950340000e-01
658000000.0 5.835790000e-01 -8.056510000e-01
667000000.0 5.680700000e-01 -8.133580000e-01
676000000.0 5.590220000e-01 -8.221550000e-01
685000000.0 5.486690000e-01 -8.258730000e-01
694000000.0 5.356240000e-01 -8.310800000e-01
703000000.0 5.263570000e-01 -8.365440000e-01
712000000.0 5.163670000e-01 -8.350790000e-01
721000000.0 5.019350000e-01 -8.435880000e-01
730000000.0 4.932830000e-01 -8.451730000e-01
739000000.0 4.816480000e-01 -8.475600000e-01
748000000.0 4.690400000e-01 -8.509170000e-01
757000000.0 4.552490000e-01 -8.574140000e-01
766000000.0 4.425220000e-01 -8.660930000e-01
775000000.0 4.311120000e-01 -8.770800000e-01
784000000.0 4.229160000e-01 -8.819950000e-01
793000000.0 4.068130000e-01 -8.884350000e-01
802000000.0 3.990130000e-01 -8.937900000e-01
811000000.0 3.841540000e-01 -8.991720000e-01
820000000.0 3.754060000e-01 -9.052910000e-01
829000000.0 3.670130000e-01 -9.048200000e-01
838000000.0 3.718510000e-01 -9.044880000e-01
847000000.0 3.440340000e-01 -9.123090000e-01
856000000.0 3.347690000e-01 -9.174730000e-01
865000000.0 3.238690000e-01 -9.171470000e-01
874000000.0 3.329540000e-01 -9.152300000e-01
883000000.0 3.098680000e-01 -9.205730000e-01
892000000.0 2.838710000e-01 -9.268690000e-01
901000000.0 2.936090000e-01 -9.199690000e-01
910000000.0 2.951230000e-01 -9.191020000e-01
919000000.0 2.702830000e-01 -9.266550000e-01
928000000.0 2.383030000e-01 -9.335170000e-01
937000000.0 2.421020000e-01 -9.308130000e-01
946000000.0 2.328390000e-01 -9.342080000e-01
955000000.0 2.229400000e-01 -9.361030000e-01
964000000.0 2.113550000e-01 -9.379800000e-01
973000000.0 2.015860000e-01 -9.402720000e-01
982000000.0 1.874400000e-01 -9.422250000e-01
991000000.0 1.806520000e-01 -9.444440000e-01
1000000000.0 1.727600000e-01 -9.450280000e-01
1004500000.0 1.653600000e-01 -9.464180000e-01
1009000000.0 1.646080000e-01 -9.462180000e-01
1013500000.0 1.568550000e-01 -9.476030000e-01
1018000000.0 1.552110000e-01 -9.475530000e-01
1022500000.0 1.530160000e-01 -9.475150000e-01
1027000000.0 1.447970000e-01 -9.492160000e-01
1031500000.0 1.420800000e-01 -9.495630000e-01
1036000000.0 1.387890000e-01 -9.504280000e-01
1040500000.0 1.332590000e-01 -9.523540000e-01
1045000000.0 1.289290000e-01 -9.506940000e-01
1049500000.0 1.212290000e-01 -9.549040000e-01
1054000000.0 1.131860000e-01 -9.542050000e-01
1058500000.0 1.129690000e-01 -9.552330000e-01
1063000000.0 1.073670000e-01 -9.554040000e-01
1067500000.0 1.050990000e-01 -9.549160000e-01
1072000000.0 1.000460000e-01 -9.553410000e-01
1076500000.0 9.272700000e-02 -9.560930000e-01
1081000000.0 9.089000000e-02 -9.573540000e-01
1085500000.0 8.679900000e-02 -9.572780000e-01
1090000000.0 8.456000000e-02 -9.582740000e-01
1094500000.0 6.982100000e-02 -9.606630000e-01
1099000000.0 7.078300000e-02 -9.603120000e-01
1103500000.0 6.311800000e-02 -9.605140000e-01
1108000000.0 6.206800000e-02 -9.603300000e-01
1112500000.0 5.308200000e-02 -9.630060000e-01
1117000000.0 4.913200000e-02 -9.611880000e-01
1121500000.0 4.225200000e-02 -9.599140000e-01
1126000000.0 3.704500000e-02 -9.629670000e-01
1130500000.0 1.600000000e-02 -9.583590000e-01
1135000000.0 3.241700000e-02 -9.615440000e-01
1139500000.0 2.296700000e-02 -9.623480000e-01
1144000000.0 7.481000000e-03 -9.618250000e-01
1148500000.0 1.149700000e-02 -9.649270000e-01
1153000000.0 7.956000000e-03 -9.611900000e-01
1157500000.0 -3.046400000e-02 -9.523050000e-01
1162000000.0 -1.980000000e-03 -9.601680000e-01
1166500000.0 -9.930000000e-03 -9.608600000e-01
1171000000.0 -3.264300000e-02 -9.587420000e-01
1175500000.0 -1.833500000e-02 -9.602750000e-01
1180000000.0 -9.503000000e-03 -9.629010000e-01
1184500000.0 -2.804000000e-02 -9.591360000e-01
1189000000.0 -5.944200000e-02 -9.556330000e-01
1193500000.0 -4.127300000e-02 -9.615410000e-01
1198000000.0 -2.942700000e-02 -9.587750000e-01
1202500000.0 -5.200600000e-02 -9.559300000e-01
1207000000.0 -5.681300000e-02 -9.594460000e-01
1211500000.0 -5.565700000e-02 -9.584770000e-01
1216000000.0 -6.470900000e-02 -9.583340000e-01
1220500000.0 -6.362300000e-02 -9.577600000e-01
1225000000.0 -7.056900000e-02 -9.574750000e-01
1229500000.0 -7.802100000e-02 -9.644430000e-01
1234000000.0 -7.893500000e-02 -9.625960000e-01
1238500000.0 -8.429700000e-02 -9.559320000e-01
1243000000.0 -8.603700000e-02 -9.601520000e-01
1247500000.0 -9.509000000e-02 -9.601700000e-01
1252000000.0 -9.974100000e-02 -9.619490000e-01
1256500000.0 -1.086550000e-01 -9.611640000e-01
1261000000.0 -1.093200000e-01 -9.622360000e-01
1265500000.0 -1.131930000e-01 -9.526130000e-01
1270000000.0 -1.163680000e-01 -9.549180000e-01
1274500000.0 -1.254420000e-01 -9.603400000e-01
1279000000.0 -1.241790000e-01 -9.600970000e-01
1283500000.0 -1.310310000e-01 -9.530710000e-01
1288000000.0 -1.339970000e-01 -9.572280000e-01
1292500000.0 -1.440900000e-01 -9.547690000e-01
1297000000.0 -1.469920000e-01 -9.558490000e-01
1301500000.0 -1.508940000e-01 -9.490210000e-01
1306000000.0 -1.560040000e-01 -9.565960000e-01
1310500000.0 -1.634560000e-01 -9.488540000e-01
1315000000.0 -1.629070000e-01 -9.500940000e-01
1319500000.0 -1.745480000e-01 -9.437080000e-01
1324000000.0 -1.749070000e-01 -9.492970000e-01
1328500000.0 -1.865020000e-01 -9.456620000e-01
1333000000.0 -1.788940000e-01 -9.421460000e-01
1337500000.0 -1.943430000e-01 -9.385160000e-01
1342000000.0 -1.942060000e-01 -9.428840000e-01
1346500000.0 -2.094720000e-01 -9.402490000e-01
1351000000.0 -2.086690000e-01 -9.410670000e-01
1355500000.0 -2.187710000e-01 -9.395540000e-01
1360000000.0 -2.085370000e-01 -9.425010000e-01
1364500000.0 -2.164020000e-01 -9.352490000e-01
1369000000.0 -2.154420000e-01 -9.464470000e-01
1373500000.0 -2.170450000e-01 -9.422660000e-01
1378000000.0 -2.341070000e-01 -9.426280000e-01
1382500000.0 -2.303130000e-01 -9.394920000e-01
1387000000.0 -2.435570000e-01 -9.429010000e-01
1391500000.0 -2.399320000e-01 -9.350750000e-01
1396000000.0 -2.422860000e-01 -9.470670000e-01
1400500000.0 -2.518940000e-01 -9.366500000e-01
1405000000.0 -2.537970000e-01 -9.385640000e-01
1409500000.0 -2.567550000e-01 -9.428260000e-01
1414000000.0 -2.632170000e-01 -9.401170000e-01
1418500000.0 -2.589810000e-01 -9.388420000e-01
1423000000.0 -2.658940000e-01 -9.429550000e-01
1427500000.0 -2.767300000e-01 -9.361050000e-01
1432000000.0 -2.759690000e-01 -9.382160000e-01
1436500000.0 -2.864570000e-01 -9.322260000e-01
1441000000.0 -2.945910000e-01 -9.266590000e-01
1445500000.0 -2.984820000e-01 -9.268820000e-01
1450000000.0 -2.940750000e-01 -9.298760000e-01
