! piloto_corto / corto_aluminio / r11
# HZ S RI R 50
50000.0 -9.925980000e-01 -3.707400000e-02
59500.0 -9.939120000e-01 -1.777300000e-02
69000.0 -9.964180000e-01 -4.320000000e-03
78500.0 -9.977410000e-01 -4.270000000e-04
88000.0 -9.987000000e-01 2.351000000e-03
97500.0 -9.989330000e-01 6.050000000e-04
107000.0 -9.980490000e-01 -1.583000000e-03
116500.0 -9.984430000e-01 -5.016000000e-03
126000.0 -9.995640000e-01 -9.448000000e-03
135500.0 -9.977070000e-01 -1.488000000e-02
145000.0 -9.977720000e-01 -2.142500000e-02
154500.0 -9.972910000e-01 -2.747600000e-02
164000.0 -9.969480000e-01 -3.458500000e-02
173500.0 -9.970140000e-01 -4.219600000e-02
183000.0 -9.971220000e-01 -4.964600000e-02
192500.0 -9.977570000e-01 -5.789500000e-02
202000.0 -9.966650000e-01 -6.680100000e-02
211500.0 -9.974470000e-01 -7.444200000e-02
221000.0 -9.977160000e-01 -8.362800000e-02
230500.0 -9.980190000e-01 -9.218200000e-02
240000.0 -9.976500000e-01 -1.014500000e-01
249500.0 -9.979430000e-01 -1.098380000e-01
259000.0 -9.981520000e-01 -1.193440000e-01
268500.0 -9.985670000e-01 -1.283460000e-01
278000.0 -9.983400000e-01 -1.374800000e-01
287500.0 -9.984750000e-01 -1.473790000e-01
297000.0 -9.983350000e-01 -1.550320000e-01
306500.0 -9.999420000e-01 -1.650040000e-01
316000.0 -9.985320000e-01 -1.746150000e-01
325500.0 -9.993470000e-01 -1.833650000e-01
335000.0 -9.991160000e-01 -1.921850000e-01
344500.0 -9.995490000e-01 -2.013900000e-01
354000.0 -1.000209000e+00 -2.103280000e-01
363500.0 -1.000410000e+00 -2.202600000e-01
373000.0 -1.000537000e+00 -2.295310000e-01
382500.0 -1.000341000e+00 -2.377830000e-01
392000.0 -1.000835000e+00 -2.480070000e-01
401500.0 -1.000309000e+00 -2.573020000e-01
411000.0 -1.000514000e+00 -2.656920000e-01
420500.0 -1.001663000e+00 -2.756000000e-01
430000.0 -1.000984000e+00 -2.840450000e-01
439500.0 -1.001561000e+00 -2.943410000e-01
449000.0 -1.002597000e+00 -3.024720000e-01
458500.0 -1.001060000e+00 -3.109110000e-01
468000.0 -1.002097000e+00 -3.202600000e-01
477500.0 -1.002296000e+00 -3.307300000e-01
487000.0 -1.002110000e+00 -3.400100000e-01
496500.0 -1.002915000e+00 -3.480250000e-01
506000.0 -1.002720000e+00 -3.574370000e-01
515500.0 -1.003561000e+00 -3.661000000e-01
525000.0 -1.003499000e+00 -3.751850000e-01
534500.0 -1.004148000e+00 -3.863050000e-01
544000.0 -1.004397000e+00 -3.935410000e-01
553500.0 -1.004396000e+00 -4.026880000e-01
563000.0 -1.004220000e+00 -4.121190000e-01
572500.0 -1.004648000e+00 -4.211870000e-01
582000.0 -1.005205000e+00 -4.300620000e-01
591500.0 -1.004966000e+00 -4.394920000e-01
601000.0 -1.006119000e+00 -4.474170000e-01
610500.0 -1.006883000e+00 -4.568690000e-01
620000.0 -1.006837000e+00 -4.668600000e-01
629500.0 -1.006206000e+00 -4.744140000e-01
639000.0 -1.007883000e+00 -4.848870000e-01
648500.0 -1.009170000e+00 -4.941000000e-01
658000.0 -1.008151000e+00 -5.020190000e-01
667500.0 -1.008984000e+00 -5.099800000e-01
677000.0 -1.010248000e+00 -5.194070000e-01
686500.0 -1.011500000e+00 -5.284930000e-01
696000.0 -1.012087000e+00 -5.368810000e-01
705500.0 -1.012058000e+00 -5.471950000e-01
715000.0 -1.013529000e+00 -5.553030000e-01
724500.0 -1.013517000e+00 -5.626850000e-01
734000.0 -1.014154000e+00 -5.720710000e-01
743500.0 -1.015381000e+00 -5.805190000e-01
753000.0 -1.016794000e+00 -5.915170000e-01
762500.0 -1.017796000e+00 -5.993300000e-01
772000.0 -1.016549000e+00 -6.069720000e-01
781500.0 -1.018191000e+00 -6.157300000e-01
791000.0 -1.020494000e+00 -6.244170000e-01
800500.0 -1.020024000e+00 -6.325780000e-01
810000.0 -1.021612000e+00 -6.421050000e-01
819500.0 -1.022571000e+00 -6.508630000e-01
829000.0 -1.024265000e+00 -6.588690000e-01
838500.0 -1.024314000e+00 -6.673300000e-01
848000.0 -1.028849000e+00 -6.750290000e-01
857500.0 -1.027341000e+00 -6.838070000e-01
867000.0 -1.028555000e+00 -6.920630000e-01
876500.0 -1.030753000e+00 -7.023360000e-01
886000.0 -1.033665000e+00 -7.111900000e-01
895500.0 -1.036960000e+00 -7.183590000e-01
905000.0 -1.036579000e+00 -7.282690000e-01
914500.0 -1.039306000e+00 -7.362070000e-01
924000.0 -1.040494000e+00 -7.448980000e-01
933500.0 -1.043288000e+00 -7.534510000e-01
943000.0 -1.043702000e+00 -7.619890000e-01
952500.0 -1.072673000e+00 -7.609980000e-01
962000.0 -1.049964000e+00 -7.782500000e-01
971500.0 -1.052327000e+00 -7.868490000e-01
981000.0 -1.055482000e+00 -7.952370000e-01
990500.0 -1.055575000e+00 -8.030400000e-01
1000000.0 -1.059648000e+00 -8.129170000e-01
1090000.0 -1.085935000e+00 -8.880410000e-01
1180000.0 -1.122536000e+00 -9.594640000e-01
1270000.0 -1.167167000e+00 -1.031556000e+00
1360000.0 -1.218902000e+00 -1.088419000e+00
1450000.0 -1.282842000e+00 -1.140387000e+00
1540000.0 -1.358830000e+00 -1.178722000e+00
1630000.0 -1.444960000e+00 -1.202899000e+00
1720000.0 -1.530921000e+00 -1.204958000e+00
1810000.0 -1.618924000e+00 -1.190114000e+00
1900000.0 -1.702906000e+00 -1.151712000e+00
1990000.0 -1.779261000e+00 -1.095629000e+00
2080000.0 -1.836336000e+00 -1.018048000e+00
2170000.0 -1.881871000e+00 -9.329240000e-01
2260000.0 -1.906042000e+00 -8.435780000e-01
2350000.0 -1.909197000e+00 -7.507500000e-01
2440000.0 -1.898252000e+00 -6.639050000e-01
2530000.0 -1.876068000e+00 -5.844490000e-01
2620000.0 -1.843219000e+00 -5.144050000e-01
2710000.0 -1.801949000e+00 -4.513180000e-01
2800000.0 -1.768267000e+00 -3.954480000e-01
2890000.0 -1.723776000e+00 -4.127870000e-01
2980000.0 -1.681802000e+00 -3.074370000e-01
3070000.0 -1.639472000e+00 -2.699600000e-01
3160000.0 -1.600081000e+00 -2.414930000e-01
3250000.0 -1.564885000e+00 -2.156490000e-01
3340000.0 -1.527831000e+00 -1.910380000e-01
3430000.0 -1.494978000e+00 -1.706370000e-01
3520000.0 -1.462102000e+00 -1.504820000e-01
3610000.0 -1.432467000e+00 -1.325650000e-01
3700000.0 -1.405941000e+00 -1.163750000e-01
3790000.0 -1.381489000e+00 -1.015500000e-01
3880000.0 -1.357492000e+00 -8.842100000e-02
3970000.0 -1.336024000e+00 -7.398100000e-02
4060000.0 -1.316226000e+00 -5.876800000e-02
4150000.0 -1.295982000e+00 -4.773800000e-02
4240000.0 -1.280369000e+00 -3.650800000e-02
4330000.0 -1.263892000e+00 -2.303300000e-02
4420000.0 -1.250324000e+00 -1.148100000e-02
4510000.0 -1.236135000e+00 6.000000000e-05
4600000.0 -1.223771000e+00 1.099600000e-02
4690000.0 -1.213444000e+00 2.205300000e-02
4780000.0 -1.202609000e+00 3.420600000e-02
4870000.0 -1.193627000e+00 4.517800000e-02
4960000.0 -1.185587000e+00 5.653900000e-02
5050000.0 -1.172523000e+00 6.685700000e-02
5140000.0 -1.165472000e+00 7.669600000e-02
5230000.0 -1.159658000e+00 8.825200000e-02
5320000.0 -1.154219000e+00 9.881800000e-02
5410000.0 -1.151313000e+00 1.085980000e-01
5500000.0 -1.146010000e+00 1.184560000e-01
5590000.0 -1.141081000e+00 1.286130000e-01
5680000.0 -1.137268000e+00 1.400970000e-01
5770000.0 -1.133334000e+00 1.495890000e-01
5860000.0 -1.129163000e+00 1.573990000e-01
5950000.0 -1.125461000e+00 1.665520000e-01
6040000.0 -1.121917000e+00 1.760120000e-01
6130000.0 -1.118614000e+00 1.842310000e-01
6220000.0 -1.116298000e+00 1.924020000e-01
6310000.0 -1.113826000e+00 2.001360000e-01
6400000.0 -1.111555000e+00 2.073610000e-01
6490000.0 -1.108832000e+00 2.139190000e-01
6580000.0 -1.107030000e+00 2.205680000e-01
6670000.0 -1.105675000e+00 2.268790000e-01
6760000.0 -1.102355000e+00 2.318850000e-01
6850000.0 -1.103041000e+00 2.354790000e-01
6940000.0 -1.100470000e+00 2.403510000e-01
7030000.0 -1.099821000e+00 2.433700000e-01
7120000.0 -1.098628000e+00 2.475970000e-01
7210000.0 -1.097508000e+00 2.484920000e-01
7300000.0 -1.096681000e+00 2.502470000e-01
7390000.0 -1.096902000e+00 2.510580000e-01
7480000.0 -1.097978000e+00 2.507460000e-01
7570000.0 2.043020000e-01 1.070129000e+00
7660000.0 2.033890000e-01 1.069458000e+00
7750000.0 2.025020000e-01 1.070154000e+00
7840000.0 2.012780000e-01 1.070009000e+00
7930000.0 2.011850000e-01 1.071800000e+00
8020000.0 2.004000000e-01 1.071880000e+00
8110000.0 2.000860000e-01 1.071580000e+00
8200000.0 1.993060000e-01 1.072567000e+00
8290000.0 1.985260000e-01 1.072532000e+00
8380000.0 1.970180000e-01 1.072316000e+00
8470000.0 1.975720000e-01 1.073278000e+00
8560000.0 1.967450000e-01 1.073415000e+00
8650000.0 1.956090000e-01 1.072541000e+00
8740000.0 1.948210000e-01 1.073139000e+00
8830000.0 1.934720000e-01 1.074007000e+00
8920000.0 1.939900000e-01 1.074682000e+00
9010000.0 1.931560000e-01 1.075754000e+00
9100000.0 1.940280000e-01 1.076224000e+00
9190000.0 1.919310000e-01 1.076796000e+00
9280000.0 1.924860000e-01 1.077106000e+00
9370000.0 1.908620000e-01 1.077567000e+00
9460000.0 1.894670000e-01 1.078406000e+00
9550000.0 1.887380000e-01 1.079610000e+00
9640000.0 1.892340000e-01 1.079297000e+00
9730000.0 1.886770000e-01 1.080139000e+00
9820000.0 1.879910000e-01 1.080678000e+00
9910000.0 1.869240000e-01 1.082350000e+00
10000000.0 1.865130000e-01 1.082318000e+00
10900000.0 1.807540000e-01 1.083583000e+00
11800000.0 1.748090000e-01 1.091944000e+00
12700000.0 1.697170000e-01 1.099206000e+00
13600000.0 1.641570000e-01 1.107082000e+00
14500000.0 1.595550000e-01 1.115922000e+00
15400000.0 1.526840000e-01 1.126478000e+00
16300000.0 1.472060000e-01 1.133240000e+00
17200000.0 1.430170000e-01 1.142133000e+00
18100000.0 1.349980000e-01 1.153106000e+00
19000000.0 1.294190000e-01 1.160848000e+00
19900000.0 1.231680000e-01 1.171519000e+00
20800000.0 1.165950000e-01 1.180320000e+00
21700000.0 1.084130000e-01 1.191706000e+00
22600000.0 1.009850000e-01 1.201594000e+00
23500000.0 9.242500000e-02 1.210140000e+00
24400000.0 8.344000000e-02 1.220114000e+00
25300000.0 7.636700000e-02 1.230820000e+00
26200000.0 6.544900000e-02 1.240696000e+00
27100000.0 5.707500000e-02 1.250842000e+00
28000000.0 4.661000000e-02 1.261691000e+00
28900000.0 3.689500000e-02 1.271982000e+00
29800000.0 2.570400000e-02 1.281697000e+00
30700000.0 1.530300000e-02 1.291383000e+00
31600000.0 4.100000000e-03 1.301993000e+00
32500000.0 -7.798000000e-03 1.311364000e+00
33400000.0 -2.035400000e-02 1.322074000e+00
34300000.0 -3.307200000e-02 1.328512000e+00
35200000.0 -4.615700000e-02 1.337673000e+00
36100000.0 -6.091800000e-02 1.349015000e+00
37000000.0 -7.241600000e-02 1.357438000e+00
37900000.0 -8.825900000e-02 1.368780000e+00
38800000.0 -1.039120000e-01 1.377295000e+00
39700000.0 -1.187800000e-01 1.385652000e+00
40600000.0 -1.343950000e-01 1.396356000e+00
41500000.0 -1.501020000e-01 1.402215000e+00
42400000.0 -1.670270000e-01 1.410545000e+00
43300000.0 -1.851290000e-01 1.420698000e+00
44200000.0 -2.035560000e-01 1.428335000e+00
45100000.0 -2.210450000e-01 1.436615000e+00
46000000.0 -2.389170000e-01 1.443878000e+00
46900000.0 -2.577190000e-01 1.450987000e+00
47800000.0 -2.763100000e-01 1.456156000e+00
48700000.0 -2.947450000e-01 1.462010000e+00
49600000.0 -3.169160000e-01 1.465672000e+00
50500000.0 -3.374880000e-01 1.471496000e+00
51400000.0 -3.578350000e-01 1.474635000e+00
52300000.0 -3.805510000e-01 1.480486000e+00
53200000.0 -4.017340000e-01 1.486553000e+00
54100000.0 -4.229000000e-01 1.485460000e+00
55000000.0 -4.439300000e-01 1.486029000e+00
55900000.0 -4.664600000e-01 1.487481000e+00
56800000.0 -4.870590000e-01 1.486292000e+00
57700000.0 -5.115660000e-01 1.490505000e+00
58600000.0 -5.360270000e-01 1.491083000e+00
59500000.0 -5.576230000e-01 1.490440000e+00
60400000.0 -5.821030000e-01 1.488569000e+00
61300000.0 -6.051590000e-01 1.488299000e+00
62200000.0 -6.270120000e-01 1.484376000e+00
63100000.0 -6.508480000e-01 1.478954000e+00
64000000.0 -6.719130000e-01 1.475133000e+00
64900000.0 -6.969060000e-01 1.470008000e+00
65800000.0 -7.199120000e-01 1.464087000e+00
66700000.0 -7.415080000e-01 1.456453000e+00
67600000.0 -7.668110000e-01 1.448911000e+00
68500000.0 -7.881370000e-01 1.441719000e+00
69400000.0 -8.109600000e-01 1.434135000e+00
70300000.0 -8.332590000e-01 1.424319000e+00
71200000.0 -8.547120000e-01 1.413475000e+00
72100000.0 -8.747460000e-01 1.403476000e+00
73000000.0 -8.944670000e-01 1.391296000e+00
73900000.0 -9.161380000e-01 1.377640000e+00
74800000.0 -9.375950000e-01 1.365989000e+00
75700000.0 -9.580820000e-01 1.352129000e+00
76600000.0 -9.775260000e-01 1.340121000e+00
77500000.0 -9.960260000e-01 1.326194000e+00
78400000.0 -1.016833000e+00 1.309040000e+00
79300000.0 -1.035564000e+00 1.295761000e+00
80200000.0 -1.052621000e+00 1.279042000e+00
81100000.0 -1.068719000e+00 1.262643000e+00
82000000.0 -1.088053000e+00 1.244736000e+00
82900000.0 -1.102413000e+00 1.226941000e+00
83800000.0 -1.119706000e+00 1.208979000e+00
84700000.0 -1.134077000e+00 1.192540000e+00
85600000.0 -1.147367000e+00 1.173378000e+00
86500000.0 -1.162397000e+00 1.157250000e+00
87400000.0 -1.174424000e+00 1.136144000e+00
88300000.0 -1.186378000e+00 1.114840000e+00
89200000.0 -1.197653000e+00 1.095085000e+00
90100000.0 -1.209446000e+00 1.075150000e+00
91000000.0 -1.220696000e+00 1.056379000e+00
91900000.0 -1.231137000e+00 1.036689000e+00
92800000.0 -1.240223000e+00 1.014903000e+00
93700000.0 -1.249631000e+00 9.942110000e-01
94600000.0 -1.253094000e+00 9.700920000e-01
95500000.0 -1.266675000e+00 9.552710000e-01
96400000.0 -1.273676000e+00 9.334120000e-01
97300000.0 -1.278432000e+00 9.103050000e-01
98200000.0 -1.282613000e+00 8.887310000e-01
99100000.0 -1.255278000e+00 8.441760000e-01
100000000.0 -1.194347000e+00 7.738050000e-01
109000000.0 -1.308334000e+00 6.493230000e-01
118000000.0 -1.268656000e+00 4.783360000e-01
127000000.0 -1.202117000e+00 3.453360000e-01
136000000.0 -1.100499000e+00 2.431360000e-01
145000000.0 -1.022585000e+00 1.728020000e-01
154000000.0 -9.801880000e-01 1.439210000e-01
163000000.0 -9.811610000e-01 1.506980000e-01
172000000.0 -9.822130000e-01 1.569130000e-01
181000000.0 -9.823730000e-01 1.633950000e-01
190000000.0 -9.812550000e-01 1.698900000e-01
199000000.0 -9.808400000e-01 1.783540000e-01
208000000.0 -9.812500000e-01 1.850060000e-01
217000000.0 -9.798840000e-01 1.939510000e-01
226000000.0 -9.777190000e-01 2.010140000e-01
235000000.0 -9.760240000e-01 2.106170000e-01
244000000.0 -9.734000000e-01 2.185790000e-01
253000000.0 -9.700130000e-01 2.279690000e-01
262000000.0 -9.661570000e-01 2.358950000e-01
271000000.0 -9.628620000e-01 2.454770000e-01
280000000.0 -9.578520000e-01 2.554320000e-01
289000000.0 -9.530980000e-01 2.647300000e-01
298000000.0 -9.466880000e-01 2.735080000e-01
307000000.0 -9.470710000e-01 2.809190000e-01
316000000.0 -9.477610000e-01 2.911220000e-01
325000000.0 -9.481210000e-01 2.990690000e-01
334000000.0 -9.460410000e-01 3.072090000e-01
343000000.0 -9.462330000e-01 3.148930000e-01
352000000.0 -9.454460000e-01 3.228850000e-01
361000000.0 -9.428620000e-01 3.313480000e-01
370000000.0 -9.395570000e-01 3.392110000e-01
379000000.0 -9.367500000e-01 3.473290000e-01
388000000.0 -9.335530000e-01 3.551620000e-01
397000000.0 -9.299660000e-01 3.609630000e-01
406000000.0 -9.054940000e-01 3.971300000e-01
415000000.0 -9.189360000e-01 3.779140000e-01
424000000.0 -9.127860000e-01 3.837160000e-01
433000000.0 -9.096800000e-01 3.902680000e-01
442000000.0 -8.996110000e-01 3.989140000e-01
451000000.0 -8.944350000e-01 4.041940000e-01
460000000.0 -8.943940000e-01 4.157200000e-01
469000000.0 -8.921330000e-01 4.241200000e-01
478000000.0 -8.872110000e-01 4.343210000e-01
487000000.0 -8.840970000e-01 4.437370000e-01
496000000.0 -8.835030000e-01 4.522180000e-01
505000000.0 -8.791260000e-01 4.627110000e-01
514000000.0 -8.765380000e-01 4.693840000e-01
523000000.0 -8.756850000e-01 4.738400000e-01
532000000.0 -8.714110000e-01 4.810570000e-01
541000000.0 -8.642670000e-01 4.877010000e-01
550000000.0 -8.601910000e-01 4.922410000e-01
559000000.0 -8.530170000e-01 5.000810000e-01
568000000.0 -8.484340000e-01 5.052150000e-01
577000000.0 -8.421470000e-01 5.116240000e-01
586000000.0 -8.358920000e-01 5.172750000e-01
595000000.0 -8.299040000e-01 5.219490000e-01
604000000.0 -8.216020000e-01 5.269130000e-01
613000000.0 -8.215450000e-01 5.396560000e-01
622000000.0 -8.153370000e-01 5.484610000e-01
631000000.0 -8.122460000e-01 5.570350000e-01
640000000.0 -8.077810000e-01 5.632160000e-01
649000000.0 -7.983260000e-01 5.709320000e-01
658000000.0 -7.993920000e-01 5.796200000e-01
667000000.0 -7.912980000e-01 5.864670000e-01
676000000.0 -7.836090000e-01 5.952970000e-01
685000000.0 -7.761010000e-01 6.053650000e-01
694000000.0 -7.757340000e-01 6.055030000e-01
703000000.0 -7.668310000e-01 6.126410000e-01
712000000.0 -7.638490000e-01 6.179490000e-01
721000000.0 -7.590770000e-01 6.204840000e-01
730000000.0 -7.544880000e-01 6.245320000e-01
739000000.0 -7.465540000e-01 6.264040000e-01
748000000.0 -7.438370000e-01 6.305120000e-01
757000000.0 -7.367720000e-01 6.388930000e-01
766000000.0 -7.296960000e-01 6.448630000e-01
775000000.0 -7.226260000e-01 6.504800000e-01
784000000.0 -7.192880000e-01 6.600890000e-01
793000000.0 -7.127360000e-01 6.641350000e-01
802000000.0 -7.060090000e-01 6.737970000e-01
811000000.0 -7.050740000e-01 6.747390000e-01
820000000.0 -6.981850000e-01 6.815830000e-01
829000000.0 -6.879170000e-01 6.876530000e-01
838000000.0 -6.856550000e-01 6.939820000e-01
847000000.0 -6.794160000e-01 6.988320000e-01
856000000.0 -6.755820000e-01 7.045150000e-01
865000000.0 -6.665080000e-01 7.073010000e-01
874000000.0 -6.624200000e-01 7.129510000e-01
883000000.0 -6.570250000e-01 7.201860000e-01
892000000.0 -6.455080000e-01 7.261270000e-01
901000000.0 -6.410440000e-01 7.306940000e-01
910000000.0 -6.386800000e-01 7.352630000e-01
919000000.0 -6.301080000e-01 7.453300000e-01
928000000.0 -6.265190000e-01 7.481080000e-01
937000000.0 -6.254000000e-01 7.530280000e-01
946000000.0 -6.152710000e-01 7.582990000e-01
955000000.0 -5.999800000e-01 7.665110000e-01
964000000.0 -5.953350000e-01 7.708970000e-01
973000000.0 -5.857700000e-01 7.783120000e-01
982000000.0 -5.815100000e-01 7.842080000e-01
991000000.0 -5.761250000e-01 7.907750000e-01
1000000000.0 -5.747410000e-01 7.907290000e-01
1004500000.0 -5.746810000e-01 7.974580000e-01
1009000000.0 -5.680760000e-01 8.010800000e-01
1013500000.0 -5.692690000e-01 8.009530000e-01
1018000000.0 -5.616790000e-01 8.047080000e-01
1022500000.0 -5.577720000e-01 8.072960000e-01
1027000000.0 -5.548660000e-01 8.092250000e-01
1031500000.0 -5.477240000e-01 8.129670000e-01
1036000000.0 -5.467230000e-01 8.127840000e-01
1040500000.0 -5.405590000e-01 8.165430000e-01
1045000000.0 -5.413210000e-01 8.156780000e-01
1049500000.0 -5.354450000e-01 8.167380000e-01
1054000000.0 -5.361860000e-01 8.191590000e-01
1058500000.0 -5.276950000e-01 8.234440000e-01
1063000000.0 -5.259890000e-01 8.270170000e-01
1067500000.0 -5.213080000e-01 8.311090000e-01
1072000000.0 -5.227580000e-01 8.313540000e-01
1076500000.0 -5.161270000e-01 8.365250000e-01
1081000000.0 -5.141670000e-01 8.421960000e-01
1085500000.0 -5.119810000e-01 8.409030000e-01
1090000000.0 -5.053200000e-01 8.445800000e-01
1094500000.0 -5.035280000e-01 8.481910000e-01
1099000000.0 -4.984810000e-01 8.500270000e-01
1103500000.0 -4.954180000e-01 8.510280000e-01
1108000000.0 -4.830410000e-01 8.577140000e-01
1112500000.0 -4.793160000e-01 8.612830000e-01
1117000000.0 -4.752860000e-01 8.650760000e-01
1121500000.0 -4.800720000e-01 8.627870000e-01
1126000000.0 -4.399800000e-01 8.800890000e-01
1130500000.0 -4.574520000e-01 8.742070000e-01
1135000000.0 -4.662740000e-01 8.711250000e-01
1139500000.0 -4.627760000e-01 8.704710000e-01
1144000000.0 -4.273100000e-01 8.795220000e-01
1148500000.0 -4.553770000e-01 8.751560000e-01
1153000000.0 -4.834670000e-01 8.682640000e-01
1157500000.0 -4.448530000e-01 8.789970000e-01
1162000000.0 -4.445290000e-01 8.781430000e-01
1166500000.0 -4.352370000e-01 8.821560000e-01
1171000000.0 -4.237300000e-01 8.850720000e-01
1175500000.0 -4.177660000e-01 8.817580000e-01
1180000000.0 -4.177030000e-01 8.856610000e-01
1184500000.0 -4.117230000e-01 8.848650000e-01
1189000000.0 -4.112160000e-01 8.854480000e-01
1193500000.0 -4.129330000e-01 8.876430000e-01
1198000000.0 -4.038170000e-01 8.905270000e-01
1202500000.0 -4.053200000e-01 8.896500000e-01
1207000000.0 -4.003750000e-01 8.907990000e-01
1211500000.0 -3.946730000e-01 8.974710000e-01
1216000000.0 -3.950270000e-01 8.973570000e-01
1220500000.0 -3.899570000e-01 8.993190000e-01
1225000000.0 -3.813110000e-01 9.030600000e-01
1229500000.0 -3.821790000e-01 9.007320000e-01
1234000000.0 -3.802470000e-01 9.007180000e-01
1238500000.0 -3.734070000e-01 9.074640000e-01
1243000000.0 -3.677690000e-01 9.099980000e-01
1247500000.0 -3.574700000e-01 9.126920000e-01
1252000000.0 -3.584710000e-01 9.138570000e-01
1256500000.0 -3.552270000e-01 9.143230000e-01
1261000000.0 -3.511080000e-01 9.179250000e-01
1265500000.0 -3.489200000e-01 9.168090000e-01
1270000000.0 -3.387670000e-01 9.201030000e-01
1274500000.0 -3.438240000e-01 9.204780000e-01
1279000000.0 -3.355030000e-01 9.205710000e-01
1283500000.0 -3.288950000e-01 9.145060000e-01
1288000000.0 -3.134100000e-01 9.253060000e-01
1292500000.0 -3.164140000e-01 9.260450000e-01
1297000000.0 -3.047460000e-01 9.227000000e-01
1301500000.0 -3.089670000e-01 9.231130000e-01
1306000000.0 -2.978480000e-01 9.248080000e-01
1310500000.0 -2.942840000e-01 9.278700000e-01
1315000000.0 -2.868350000e-01 9.268750000e-01
1319500000.0 -2.823970000e-01 9.290170000e-01
1324000000.0 -2.818550000e-01 9.282340000e-01
1328500000.0 -2.718160000e-01 9.260580000e-01
1333000000.0 -2.701230000e-01 9.299210000e-01
1337500000.0 -2.643660000e-01 9.301940000e-01
1342000000.0 -2.579820000e-01 9.258070000e-01
1346500000.0 -2.518130000e-01 9.272950000e-01
1351000000.0 -2.498170000e-01 9.256360000e-01
1355500000.0 -2.458370000e-01 9.247340000e-01
1360000000.0 -2.427150000e-01 9.319330000e-01
1364500000.0 -2.344550000e-01 9.313660000e-01
1369000000.0 -2.246040000e-01 9.312190000e-01
1373500000.0 -2.246930000e-01 9.339270000e-01
1378000000.0 -2.204430000e-01 9.404460000e-01
1382500000.0 -2.149080000e-01 9.334450000e-01
1387000000.0 -2.169090000e-01 9.331040000e-01
1391500000.0 -2.065120000e-01 9.355610000e-01
1396000000.0 -1.985810000e-01 9.378420000e-01
1400500000.0 -2.031280000e-01 9.450910000e-01
1405000000.0 -1.973540000e-01 9.431260000e-01
1409500000.0 -1.840310000e-01 9.403220000e-01
1414000000.0 -1.782870000e-01 9.479470000e-01
1418500000.0 -1.849320000e-01 9.497760000e-01
1423000000.0 -1.779290000e-01 9.524340000e-01
1427500000.0 -1.717290000e-01 9.529950000e-01
1432000000.0 -1.732150000e-01 9.494340000e-01
1436500000.0 -1.628580000e-01 9.488750000e-01
1441000000.0 -1.611250000e-01 9.525220000e-01
1445500000.0 -1.608340000e-01 9.539540000e-01
1450000000.0 -1.535330000e-01 9.548500000e-01
