! piloto_corto / aire / r20
# HZ S RI R 50
50000.0 1.006983000e+00 -7.159900000e-02
59500.0 1.008437000e+00 -5.790900000e-02
69000.0 1.003744000e+00 -4.435600000e-02
78500.0 1.001919000e+00 -3.165700000e-02
88000.0 1.001437000e+00 -1.871300000e-02
97500.0 9.994350000e-01 -6.922000000e-03
107000.0 9.997390000e-01 5.456000000e-03
116500.0 1.001068000e+00 1.790300000e-02
126000.0 9.988500000e-01 3.252800000e-02
135500.0 1.000466000e+00 4.303400000e-02
145000.0 9.994410000e-01 5.409800000e-02
154500.0 1.001073000e+00 6.649000000e-02
164000.0 1.001290000e+00 7.785800000e-02
173500.0 1.001662000e+00 8.987600000e-02
183000.0 1.002349000e+00 1.018480000e-01
192500.0 1.002290000e+00 1.132970000e-01
202000.0 1.002744000e+00 1.253820000e-01
211500.0 1.003365000e+00 1.352200000e-01
221000.0 1.002830000e+00 1.475540000e-01
230500.0 1.003954000e+00 1.588510000e-01
240000.0 1.092120000e+00 2.201190000e-01
249500.0 1.004433000e+00 1.809250000e-01
259000.0 1.004394000e+00 1.923540000e-01
268500.0 1.004950000e+00 2.031990000e-01
278000.0 1.003478000e+00 2.142600000e-01
287500.0 1.005318000e+00 2.252660000e-01
297000.0 1.005620000e+00 2.362700000e-01
306500.0 1.005258000e+00 2.467650000e-01
316000.0 1.005833000e+00 2.578340000e-01
325500.0 1.005887000e+00 2.683830000e-01
335000.0 1.006669000e+00 2.797830000e-01
344500.0 1.005900000e+00 2.894480000e-01
354000.0 1.006414000e+00 3.001420000e-01
363500.0 1.006607000e+00 3.109980000e-01
373000.0 1.007342000e+00 3.213110000e-01
382500.0 1.006427000e+00 3.319070000e-01
392000.0 1.007172000e+00 3.424550000e-01
401500.0 1.007865000e+00 3.526240000e-01
411000.0 1.007753000e+00 3.628300000e-01
420500.0 1.007886000e+00 3.733060000e-01
430000.0 1.008261000e+00 3.833060000e-01
439500.0 1.007862000e+00 3.927710000e-01
449000.0 1.009063000e+00 4.034540000e-01
458500.0 1.008477000e+00 4.131830000e-01
468000.0 1.008290000e+00 4.228570000e-01
477500.0 1.008929000e+00 4.337390000e-01
487000.0 1.009588000e+00 4.434350000e-01
496500.0 1.009871000e+00 4.536410000e-01
506000.0 1.009479000e+00 4.637280000e-01
515500.0 1.009890000e+00 4.736850000e-01
525000.0 1.010628000e+00 4.829160000e-01
534500.0 1.010886000e+00 4.931240000e-01
544000.0 1.011399000e+00 5.033160000e-01
553500.0 1.011893000e+00 5.117460000e-01
563000.0 1.012992000e+00 5.215710000e-01
572500.0 1.013073000e+00 5.309900000e-01
582000.0 1.013182000e+00 5.415030000e-01
591500.0 1.013664000e+00 5.508990000e-01
601000.0 1.013919000e+00 5.602400000e-01
610500.0 1.013994000e+00 5.692290000e-01
620000.0 1.015125000e+00 5.790940000e-01
629500.0 1.015833000e+00 5.896030000e-01
639000.0 1.016516000e+00 5.981720000e-01
648500.0 1.016439000e+00 6.082650000e-01
658000.0 1.017790000e+00 6.180260000e-01
667500.0 1.017528000e+00 6.271330000e-01
677000.0 1.018721000e+00 6.371520000e-01
686500.0 1.019524000e+00 6.458570000e-01
696000.0 1.020098000e+00 6.567290000e-01
705500.0 1.021344000e+00 6.648730000e-01
715000.0 1.023872000e+00 6.735730000e-01
724500.0 1.022437000e+00 6.826980000e-01
734000.0 1.023875000e+00 6.919710000e-01
743500.0 1.024669000e+00 7.008870000e-01
753000.0 1.025812000e+00 7.105250000e-01
762500.0 1.026709000e+00 7.192320000e-01
772000.0 1.027414000e+00 7.298710000e-01
781500.0 1.028297000e+00 7.388260000e-01
791000.0 1.029948000e+00 7.478150000e-01
800500.0 1.032668000e+00 7.569450000e-01
810000.0 1.033423000e+00 7.656690000e-01
819500.0 1.033133000e+00 7.750060000e-01
829000.0 1.036041000e+00 7.838530000e-01
838500.0 1.037756000e+00 7.926620000e-01
848000.0 1.038807000e+00 8.015620000e-01
857500.0 1.040593000e+00 8.107640000e-01
867000.0 1.041046000e+00 8.205010000e-01
876500.0 1.043377000e+00 8.288760000e-01
886000.0 1.046214000e+00 8.362980000e-01
895500.0 1.047514000e+00 8.466050000e-01
905000.0 1.049583000e+00 8.551960000e-01
914500.0 1.051321000e+00 8.647310000e-01
924000.0 1.053367000e+00 8.713870000e-01
933500.0 1.055840000e+00 8.819850000e-01
943000.0 1.057318000e+00 8.896790000e-01
952500.0 1.059129000e+00 8.993030000e-01
962000.0 1.062834000e+00 9.070340000e-01
971500.0 1.064855000e+00 9.163680000e-01
981000.0 1.068061000e+00 9.236850000e-01
990500.0 1.070439000e+00 9.334730000e-01
1000000.0 1.072485000e+00 9.428330000e-01
1090000.0 1.096856000e+00 1.019454000e+00
1180000.0 1.135497000e+00 1.094889000e+00
1270000.0 1.183227000e+00 1.166475000e+00
1360000.0 1.237363000e+00 1.227732000e+00
1450000.0 1.303835000e+00 1.281358000e+00
1540000.0 1.377887000e+00 1.318872000e+00
1630000.0 1.462965000e+00 1.345929000e+00
1720000.0 1.549803000e+00 1.351666000e+00
1810000.0 1.640753000e+00 1.341733000e+00
1900000.0 1.725472000e+00 1.304582000e+00
1990000.0 1.802983000e+00 1.252233000e+00
2080000.0 1.868410000e+00 1.183885000e+00
2170000.0 1.916743000e+00 1.103883000e+00
2260000.0 1.949398000e+00 1.013710000e+00
2350000.0 1.962617000e+00 9.252540000e-01
2440000.0 1.960875000e+00 8.372240000e-01
2530000.0 1.948848000e+00 7.555910000e-01
2620000.0 1.923327000e+00 6.813200000e-01
2710000.0 1.893195000e+00 6.131980000e-01
2800000.0 1.856788000e+00 5.510710000e-01
2890000.0 1.766793000e+00 4.493440000e-01
2980000.0 1.780141000e+00 4.529130000e-01
3070000.0 1.740715000e+00 4.126930000e-01
3160000.0 1.703176000e+00 3.754170000e-01
3250000.0 1.668289000e+00 3.446860000e-01
3340000.0 1.633327000e+00 3.134030000e-01
3430000.0 1.600656000e+00 2.901370000e-01
3520000.0 1.568952000e+00 2.655450000e-01
3610000.0 1.539459000e+00 2.459180000e-01
3700000.0 1.513701000e+00 2.243770000e-01
3790000.0 1.487675000e+00 2.066410000e-01
3880000.0 1.464281000e+00 1.882080000e-01
3970000.0 1.442986000e+00 1.730450000e-01
4060000.0 1.423203000e+00 1.562610000e-01
4150000.0 1.402218000e+00 1.413060000e-01
4240000.0 1.387487000e+00 1.262830000e-01
4330000.0 1.371660000e+00 1.113320000e-01
4420000.0 1.355998000e+00 9.752100000e-02
4510000.0 1.343038000e+00 8.223200000e-02
4600000.0 1.332069000e+00 6.970400000e-02
4690000.0 1.320885000e+00 5.644400000e-02
4780000.0 1.312022000e+00 4.259200000e-02
4870000.0 1.304029000e+00 3.030900000e-02
4960000.0 1.295607000e+00 1.682600000e-02
5050000.0 1.280184000e+00 5.680000000e-03
5140000.0 1.275455000e+00 -9.289000000e-03
5230000.0 1.270422000e+00 -1.960000000e-02
5320000.0 1.266691000e+00 -3.180600000e-02
5410000.0 1.260972000e+00 -4.483700000e-02
5500000.0 1.257654000e+00 -5.683900000e-02
5590000.0 1.252851000e+00 -6.760900000e-02
5680000.0 1.249512000e+00 -7.903400000e-02
5770000.0 1.245097000e+00 -9.024000000e-02
5860000.0 1.243523000e+00 -1.019610000e-01
5950000.0 1.241136000e+00 -1.125150000e-01
6040000.0 1.237691000e+00 -1.225060000e-01
6130000.0 1.233767000e+00 -1.320180000e-01
6220000.0 1.232685000e+00 -1.408320000e-01
6310000.0 1.230452000e+00 -1.499730000e-01
6400000.0 1.228483000e+00 -1.584490000e-01
6490000.0 1.227074000e+00 -1.669920000e-01
6580000.0 1.224273000e+00 -1.741020000e-01
6670000.0 1.223801000e+00 -1.810310000e-01
6760000.0 1.223031000e+00 -1.868110000e-01
6850000.0 1.220967000e+00 -1.914990000e-01
6940000.0 1.219620000e+00 -1.974700000e-01
7030000.0 1.218981000e+00 -2.020780000e-01
7120000.0 1.218882000e+00 -2.052840000e-01
7210000.0 1.218573000e+00 -2.082740000e-01
7300000.0 1.217875000e+00 -2.098110000e-01
7390000.0 1.219053000e+00 -2.106680000e-01
7480000.0 1.217815000e+00 -2.108180000e-01
7570000.0 -2.595320000e-01 -1.257258000e+00
7660000.0 -2.602010000e-01 -1.256441000e+00
7750000.0 -2.587660000e-01 -1.258048000e+00
7840000.0 -2.590760000e-01 -1.257525000e+00
7930000.0 -2.580780000e-01 -1.259416000e+00
8020000.0 -2.581110000e-01 -1.258402000e+00
8110000.0 -2.584980000e-01 -1.258313000e+00
8200000.0 -2.568930000e-01 -1.259418000e+00
8290000.0 -2.571620000e-01 -1.258580000e+00
8380000.0 -2.557770000e-01 -1.260401000e+00
8470000.0 -2.561650000e-01 -1.261345000e+00
8560000.0 -2.555650000e-01 -1.261422000e+00
8650000.0 -2.540900000e-01 -1.263129000e+00
8740000.0 -2.536580000e-01 -1.263837000e+00
8830000.0 -2.532630000e-01 -1.263379000e+00
8920000.0 -2.533910000e-01 -1.263773000e+00
9010000.0 -2.519830000e-01 -1.264493000e+00
9100000.0 -2.525240000e-01 -1.264842000e+00
9190000.0 -2.516090000e-01 -1.264883000e+00
9280000.0 -2.517750000e-01 -1.265986000e+00
9370000.0 -2.514860000e-01 -1.265718000e+00
9460000.0 -2.507960000e-01 -1.267638000e+00
9550000.0 -2.488130000e-01 -1.268203000e+00
9640000.0 -2.495050000e-01 -1.269507000e+00
9730000.0 -2.483760000e-01 -1.270888000e+00
9820000.0 -2.487550000e-01 -1.271579000e+00
9910000.0 -2.492590000e-01 -1.271811000e+00
10000000.0 -2.481600000e-01 -1.273071000e+00
10900000.0 -2.447680000e-01 -1.281818000e+00
11800000.0 -2.409540000e-01 -1.290795000e+00
12700000.0 -2.374350000e-01 -1.300413000e+00
13600000.0 -2.324480000e-01 -1.312030000e+00
14500000.0 -2.286430000e-01 -1.321705000e+00
15400000.0 -2.262040000e-01 -1.332071000e+00
16300000.0 -2.220040000e-01 -1.344075000e+00
17200000.0 -2.167970000e-01 -1.354984000e+00
18100000.0 -2.126050000e-01 -1.368818000e+00
19000000.0 -2.085880000e-01 -1.379565000e+00
19900000.0 -2.028000000e-01 -1.391128000e+00
20800000.0 -1.972940000e-01 -1.404098000e+00
21700000.0 -1.930030000e-01 -1.416993000e+00
22600000.0 -1.844560000e-01 -1.430761000e+00
23500000.0 -1.773630000e-01 -1.443656000e+00
24400000.0 -1.710520000e-01 -1.458381000e+00
25300000.0 -1.639120000e-01 -1.471274000e+00
26200000.0 -1.571080000e-01 -1.484973000e+00
27100000.0 -1.474920000e-01 -1.499531000e+00
28000000.0 -1.393390000e-01 -1.513856000e+00
28900000.0 -1.286940000e-01 -1.528692000e+00
29800000.0 -1.191320000e-01 -1.543553000e+00
30700000.0 -1.099090000e-01 -1.558061000e+00
31600000.0 -9.983100000e-02 -1.574074000e+00
32500000.0 -8.953800000e-02 -1.587260000e+00
33400000.0 -7.693900000e-02 -1.603772000e+00
34300000.0 -6.423800000e-02 -1.618085000e+00
35200000.0 -5.053500000e-02 -1.633201000e+00
36100000.0 -3.674900000e-02 -1.649675000e+00
37000000.0 -2.288500000e-02 -1.664028000e+00
37900000.0 -7.076000000e-03 -1.682333000e+00
38800000.0 8.769000000e-03 -1.696395000e+00
39700000.0 2.424000000e-02 -1.712727000e+00
40600000.0 4.152600000e-02 -1.728410000e+00
41500000.0 6.004500000e-02 -1.743199000e+00
42400000.0 7.828700000e-02 -1.758642000e+00
43300000.0 9.546500000e-02 -1.773840000e+00
44200000.0 1.176710000e-01 -1.788238000e+00
45100000.0 1.409720000e-01 -1.803569000e+00
46000000.0 1.624950000e-01 -1.817081000e+00
46900000.0 1.861110000e-01 -1.829883000e+00
47800000.0 2.091400000e-01 -1.844816000e+00
48700000.0 2.335710000e-01 -1.858175000e+00
49600000.0 2.601890000e-01 -1.871207000e+00
50500000.0 2.877590000e-01 -1.883093000e+00
51400000.0 3.146690000e-01 -1.894216000e+00
52300000.0 3.422730000e-01 -1.904477000e+00
53200000.0 3.728680000e-01 -1.914273000e+00
54100000.0 4.011680000e-01 -1.923139000e+00
55000000.0 4.345660000e-01 -1.931297000e+00
55900000.0 4.662870000e-01 -1.938208000e+00
56800000.0 4.979130000e-01 -1.943831000e+00
57700000.0 5.323380000e-01 -1.948920000e+00
58600000.0 5.690300000e-01 -1.953533000e+00
59500000.0 6.021460000e-01 -1.955440000e+00
60400000.0 6.399050000e-01 -1.954978000e+00
61300000.0 6.740710000e-01 -1.956525000e+00
62200000.0 7.124240000e-01 -1.953249000e+00
63100000.0 7.455160000e-01 -1.949326000e+00
64000000.0 7.825850000e-01 -1.946231000e+00
64900000.0 8.220650000e-01 -1.936598000e+00
65800000.0 8.582920000e-01 -1.930242000e+00
66700000.0 8.980880000e-01 -1.917467000e+00
67600000.0 9.345750000e-01 -1.905840000e+00
68500000.0 9.692970000e-01 -1.891243000e+00
69400000.0 1.006563000e+00 -1.878182000e+00
70300000.0 1.077881000e+00 -1.841851000e+00
71200000.0 1.077200000e+00 -1.840290000e+00
72100000.0 1.111778000e+00 -1.821601000e+00
73000000.0 1.145364000e+00 -1.796293000e+00
73900000.0 1.176109000e+00 -1.775155000e+00
74800000.0 1.207985000e+00 -1.748606000e+00
75700000.0 1.236352000e+00 -1.724335000e+00
76600000.0 1.267248000e+00 -1.696353000e+00
77500000.0 1.292590000e+00 -1.664660000e+00
78400000.0 1.317002000e+00 -1.636293000e+00
79300000.0 1.341349000e+00 -1.607170000e+00
80200000.0 1.365470000e+00 -1.573860000e+00
81100000.0 1.385294000e+00 -1.542549000e+00
82000000.0 1.404255000e+00 -1.512576000e+00
82900000.0 1.422286000e+00 -1.476043000e+00
83800000.0 1.436847000e+00 -1.443401000e+00
84700000.0 1.452506000e+00 -1.410809000e+00
85600000.0 1.464615000e+00 -1.377580000e+00
86500000.0 1.474965000e+00 -1.342854000e+00
87400000.0 1.485646000e+00 -1.308974000e+00
88300000.0 1.495255000e+00 -1.275403000e+00
89200000.0 1.499645000e+00 -1.242926000e+00
90100000.0 1.505755000e+00 -1.209440000e+00
91000000.0 1.510121000e+00 -1.177491000e+00
91900000.0 1.514945000e+00 -1.145456000e+00
92800000.0 1.515005000e+00 -1.111539000e+00
93700000.0 1.517300000e+00 -1.080844000e+00
94600000.0 1.515314000e+00 -1.051832000e+00
95500000.0 1.513912000e+00 -1.022238000e+00
96400000.0 1.514296000e+00 -9.941140000e-01
97300000.0 1.508985000e+00 -9.652060000e-01
98200000.0 1.506152000e+00 -9.371610000e-01
99100000.0 1.499892000e+00 -9.105170000e-01
100000000.0 1.494258000e+00 -8.833780000e-01
109000000.0 1.414226000e+00 -6.620180000e-01
118000000.0 1.310919000e+00 -4.987610000e-01
127000000.0 1.203845000e+00 -3.846150000e-01
136000000.0 1.101580000e+00 -3.112620000e-01
145000000.0 1.016492000e+00 -2.373690000e-01
154000000.0 9.630090000e-01 -2.362060000e-01
163000000.0 9.547410000e-01 -2.659070000e-01
172000000.0 9.561370000e-01 -2.637800000e-01
181000000.0 9.586310000e-01 -2.591060000e-01
190000000.0 9.489370000e-01 -2.898650000e-01
199000000.0 9.380540000e-01 -3.186380000e-01
208000000.0 9.390640000e-01 -3.152190000e-01
217000000.0 9.426520000e-01 -3.108050000e-01
226000000.0 9.307790000e-01 -3.390370000e-01
235000000.0 9.188140000e-01 -3.683410000e-01
244000000.0 9.199100000e-01 -3.642050000e-01
253000000.0 9.152080000e-01 -3.747350000e-01
262000000.0 9.085850000e-01 -3.873130000e-01
271000000.0 9.018090000e-01 -3.986440000e-01
280000000.0 8.960100000e-01 -4.104770000e-01
289000000.0 8.888930000e-01 -4.236000000e-01
298000000.0 8.819060000e-01 -4.331020000e-01
307000000.0 8.769020000e-01 -4.445810000e-01
316000000.0 8.718210000e-01 -4.574160000e-01
325000000.0 8.643160000e-01 -4.674260000e-01
334000000.0 8.602690000e-01 -4.776890000e-01
343000000.0 8.535780000e-01 -4.905350000e-01
352000000.0 8.225520000e-01 -5.261050000e-01
361000000.0 8.403320000e-01 -5.114810000e-01
370000000.0 8.587250000e-01 -4.948560000e-01
379000000.0 8.270290000e-01 -5.313220000e-01
388000000.0 8.196320000e-01 -5.408740000e-01
397000000.0 7.991660000e-01 -5.667350000e-01
406000000.0 8.018570000e-01 -5.605440000e-01
415000000.0 7.937200000e-01 -5.731540000e-01
424000000.0 7.850500000e-01 -5.786370000e-01
433000000.0 7.756450000e-01 -5.903010000e-01
442000000.0 7.659420000e-01 -6.000980000e-01
451000000.0 7.575020000e-01 -6.092100000e-01
460000000.0 7.517980000e-01 -6.195190000e-01
469000000.0 7.451760000e-01 -6.305330000e-01
478000000.0 7.380690000e-01 -6.401710000e-01
487000000.0 7.335750000e-01 -6.493690000e-01
496000000.0 7.260130000e-01 -6.581550000e-01
505000000.0 7.172790000e-01 -6.670750000e-01
514000000.0 7.103600000e-01 -6.771120000e-01
523000000.0 6.995790000e-01 -6.874110000e-01
532000000.0 6.954420000e-01 -6.952970000e-01
541000000.0 6.846120000e-01 -7.035120000e-01
550000000.0 6.773010000e-01 -7.095510000e-01
559000000.0 6.672360000e-01 -7.214890000e-01
568000000.0 6.536020000e-01 -7.276570000e-01
577000000.0 6.420230000e-01 -7.359660000e-01
586000000.0 6.315820000e-01 -7.438100000e-01
595000000.0 6.174140000e-01 -7.488460000e-01
604000000.0 6.059750000e-01 -7.614670000e-01
613000000.0 5.984780000e-01 -7.679640000e-01
622000000.0 5.949960000e-01 -7.798560000e-01
631000000.0 5.853480000e-01 -7.879860000e-01
640000000.0 5.782080000e-01 -7.966110000e-01
649000000.0 5.634380000e-01 -8.084240000e-01
658000000.0 5.599300000e-01 -8.129010000e-01
667000000.0 5.457780000e-01 -8.216130000e-01
676000000.0 5.342900000e-01 -8.289600000e-01
685000000.0 5.237980000e-01 -8.342070000e-01
694000000.0 5.105140000e-01 -8.420090000e-01
703000000.0 4.997020000e-01 -8.474440000e-01
712000000.0 4.901120000e-01 -8.497200000e-01
721000000.0 4.791870000e-01 -8.512340000e-01
730000000.0 4.630690000e-01 -8.547870000e-01
739000000.0 4.488650000e-01 -8.570170000e-01
748000000.0 4.343480000e-01 -8.574570000e-01
757000000.0 4.244830000e-01 -8.657470000e-01
766000000.0 4.106400000e-01 -8.745850000e-01
775000000.0 3.997240000e-01 -8.795570000e-01
784000000.0 3.873270000e-01 -8.866720000e-01
793000000.0 3.746950000e-01 -8.938130000e-01
802000000.0 3.643570000e-01 -8.973030000e-01
811000000.0 3.503610000e-01 -9.011620000e-01
820000000.0 3.398430000e-01 -9.054830000e-01
829000000.0 3.300750000e-01 -9.098380000e-01
838000000.0 3.162710000e-01 -9.117610000e-01
847000000.0 3.065390000e-01 -9.164110000e-01
856000000.0 2.951440000e-01 -9.177950000e-01
865000000.0 2.844180000e-01 -9.185010000e-01
874000000.0 2.774810000e-01 -9.183950000e-01
883000000.0 2.662470000e-01 -9.210750000e-01
892000000.0 2.551660000e-01 -9.217520000e-01
901000000.0 2.480250000e-01 -9.212150000e-01
910000000.0 2.333140000e-01 -9.224910000e-01
919000000.0 2.212520000e-01 -9.255630000e-01
928000000.0 2.107740000e-01 -9.281190000e-01
937000000.0 1.994690000e-01 -9.285500000e-01
946000000.0 1.874780000e-01 -9.314700000e-01
955000000.0 1.777600000e-01 -9.316650000e-01
964000000.0 1.603200000e-01 -9.347930000e-01
973000000.0 1.507060000e-01 -9.353660000e-01
982000000.0 1.398830000e-01 -9.369850000e-01
991000000.0 1.298600000e-01 -9.374010000e-01
1000000000.0 1.187770000e-01 -9.395870000e-01
1004500000.0 1.174360000e-01 -9.397300000e-01
1009000000.0 1.131250000e-01 -9.399170000e-01
1013500000.0 1.033290000e-01 -9.418640000e-01
1018000000.0 1.004570000e-01 -9.415970000e-01
1022500000.0 9.568200000e-02 -9.420660000e-01
1027000000.0 8.681900000e-02 -9.421750000e-01
1031500000.0 8.789500000e-02 -9.433420000e-01
1036000000.0 8.088200000e-02 -9.433400000e-01
1040500000.0 7.786300000e-02 -9.433430000e-01
1045000000.0 6.818700000e-02 -9.448600000e-01
1049500000.0 6.443800000e-02 -9.452040000e-01
1054000000.0 5.651800000e-02 -9.426580000e-01
1058500000.0 5.648000000e-02 -9.444960000e-01
1063000000.0 4.524300000e-02 -9.438700000e-01
1067500000.0 4.634600000e-02 -9.451060000e-01
1072000000.0 3.881800000e-02 -9.452730000e-01
1076500000.0 2.943300000e-02 -9.449130000e-01
1081000000.0 2.306300000e-02 -9.451710000e-01
1085500000.0 2.057800000e-02 -9.447990000e-01
1090000000.0 2.111500000e-02 -9.433500000e-01
1094500000.0 1.560500000e-02 -9.441080000e-01
1099000000.0 3.915000000e-03 -9.482340000e-01
1103500000.0 6.150000000e-04 -9.462840000e-01
1108000000.0 -5.650000000e-04 -9.463740000e-01
1112500000.0 -1.184600000e-02 -9.475540000e-01
1117000000.0 -1.263000000e-02 -9.445120000e-01
1121500000.0 -2.459500000e-02 -9.481030000e-01
1126000000.0 -3.629500000e-02 -9.445880000e-01
1130500000.0 -3.597400000e-02 -9.469030000e-01
1135000000.0 -3.801400000e-02 -9.454910000e-01
1139500000.0 -4.109000000e-02 -9.449810000e-01
1144000000.0 -4.873100000e-02 -9.441080000e-01
1148500000.0 -5.561200000e-02 -9.399340000e-01
1153000000.0 -6.194700000e-02 -9.387700000e-01
1157500000.0 -6.996600000e-02 -9.416640000e-01
1162000000.0 -5.689100000e-02 -9.449200000e-01
1166500000.0 -7.509200000e-02 -9.393580000e-01
1171000000.0 -8.189100000e-02 -9.387620000e-01
1175500000.0 -8.693900000e-02 -9.395410000e-01
1180000000.0 -9.410400000e-02 -9.351990000e-01
1184500000.0 -1.025110000e-01 -9.366430000e-01
1189000000.0 -1.102950000e-01 -9.319420000e-01
1193500000.0 -1.101940000e-01 -9.360580000e-01
1198000000.0 -1.196020000e-01 -9.287420000e-01
1202500000.0 -1.322840000e-01 -9.340400000e-01
1207000000.0 -1.258660000e-01 -9.342770000e-01
1211500000.0 -1.343250000e-01 -9.324650000e-01
1216000000.0 -1.407410000e-01 -9.306270000e-01
1220500000.0 -1.410850000e-01 -9.310120000e-01
1225000000.0 -1.531000000e-01 -9.295680000e-01
1229500000.0 -1.514130000e-01 -9.350540000e-01
1234000000.0 -1.564010000e-01 -9.278690000e-01
1238500000.0 -1.583610000e-01 -9.307960000e-01
1243000000.0 -1.628040000e-01 -9.322820000e-01
1247500000.0 -1.725160000e-01 -9.269290000e-01
1252000000.0 -1.745300000e-01 -9.268080000e-01
1256500000.0 -1.816980000e-01 -9.259950000e-01
1261000000.0 -1.888450000e-01 -9.291550000e-01
1265500000.0 -1.920160000e-01 -9.276830000e-01
1270000000.0 -1.978740000e-01 -9.255650000e-01
1274500000.0 -2.081490000e-01 -9.259740000e-01
1279000000.0 -2.134870000e-01 -9.151150000e-01
1283500000.0 -2.163390000e-01 -9.161200000e-01
1288000000.0 -2.184640000e-01 -9.153500000e-01
1292500000.0 -2.244140000e-01 -9.144080000e-01
1297000000.0 -2.194080000e-01 -9.111250000e-01
1301500000.0 -2.275330000e-01 -9.173480000e-01
1306000000.0 -2.348560000e-01 -9.145850000e-01
1310500000.0 -2.343250000e-01 -9.069570000e-01
1315000000.0 -2.535210000e-01 -9.084020000e-01
1319500000.0 -2.553410000e-01 -9.105940000e-01
1324000000.0 -2.648300000e-01 -9.053170000e-01
1328500000.0 -2.672580000e-01 -8.984430000e-01
1333000000.0 -2.758600000e-01 -9.053960000e-01
1337500000.0 -2.767190000e-01 -8.926140000e-01
1342000000.0 -2.847990000e-01 -8.943100000e-01
1346500000.0 -2.946620000e-01 -8.953070000e-01
1351000000.0 -2.921510000e-01 -8.894730000e-01
1355500000.0 -2.954210000e-01 -8.953920000e-01
1360000000.0 -3.072120000e-01 -8.883960000e-01
1364500000.0 -3.078110000e-01 -8.946810000e-01
1369000000.0 -3.229650000e-01 -8.840220000e-01
1373500000.0 -3.207140000e-01 -8.932730000e-01
1378000000.0 -3.237370000e-01 -8.871980000e-01
1382500000.0 -3.279690000e-01 -8.798820000e-01
1387000000.0 -3.305070000e-01 -8.875850000e-01
1391500000.0 -3.306110000e-01 -8.873550000e-01
1396000000.0 -3.459430000e-01 -8.811940000e-01
1400500000.0 -3.454480000e-01 -8.790950000e-01
1405000000.0 -3.532430000e-01 -8.878280000e-01
1409500000.0 -3.444430000e-01 -8.885290000e-01
1414000000.0 -3.588330000e-01 -8.821350000e-01
1418500000.0 -3.627610000e-01 -8.855450000e-01
1423000000.0 -3.651080000e-01 -8.690590000e-01
1427500000.0 -3.658370000e-01 -8.843220000e-01
1432000000.0 -3.679990000e-01 -8.750750000e-01
1436500000.0 -3.801320000e-01 -8.727890000e-01
1441000000.0 -3.834570000e-01 -8.650360000e-01
1445500000.0 -3.897370000e-01 -8.713700000e-01
1450000000.0 -3.873730000e-01 -8.685420000e-01
