! piloto_corto / corto_aluminio / r05
# HZ S RI R 50
50000.0 -9.937630000e-01 -3.513300000e-02
59500.0 -9.928790000e-01 -1.670600000e-02
69000.0 -9.951530000e-01 -8.301000000e-03
78500.0 -9.970510000e-01 -4.070000000e-04
88000.0 -9.973380000e-01 2.030000000e-04
97500.0 -9.974290000e-01 1.516000000e-03
107000.0 -9.974190000e-01 -9.730000000e-04
116500.0 -9.974860000e-01 -5.226000000e-03
126000.0 -9.966620000e-01 -9.213000000e-03
135500.0 -9.975400000e-01 -1.426300000e-02
145000.0 -9.977130000e-01 -2.054500000e-02
154500.0 -9.975410000e-01 -2.704200000e-02
164000.0 -9.970420000e-01 -3.410900000e-02
173500.0 -9.979950000e-01 -4.137600000e-02
183000.0 -9.974720000e-01 -4.904600000e-02
192500.0 -9.971730000e-01 -5.787600000e-02
202000.0 -9.970540000e-01 -6.589300000e-02
211500.0 -9.976940000e-01 -7.539800000e-02
221000.0 -9.967450000e-01 -8.256100000e-02
230500.0 -9.970280000e-01 -9.198600000e-02
240000.0 -9.984130000e-01 -1.004510000e-01
249500.0 -9.986000000e-01 -1.100000000e-01
259000.0 -9.986300000e-01 -1.190890000e-01
268500.0 -9.981300000e-01 -1.276600000e-01
278000.0 -9.990740000e-01 -1.364580000e-01
287500.0 -9.989870000e-01 -1.455300000e-01
297000.0 -9.996380000e-01 -1.542560000e-01
306500.0 -9.991650000e-01 -1.640170000e-01
316000.0 -9.999060000e-01 -1.731240000e-01
325500.0 -9.997120000e-01 -1.825050000e-01
335000.0 -9.996540000e-01 -1.914200000e-01
344500.0 -1.000634000e+00 -2.009000000e-01
354000.0 -1.000096000e+00 -2.099770000e-01
363500.0 -1.000997000e+00 -2.200440000e-01
373000.0 -1.001214000e+00 -2.285860000e-01
382500.0 -1.001904000e+00 -2.382750000e-01
392000.0 -1.002046000e+00 -2.461520000e-01
401500.0 -1.002230000e+00 -2.559790000e-01
411000.0 -1.002926000e+00 -2.652840000e-01
420500.0 -1.001891000e+00 -2.747890000e-01
430000.0 -1.002638000e+00 -2.835140000e-01
439500.0 -1.003151000e+00 -2.933150000e-01
449000.0 -1.003241000e+00 -3.016390000e-01
458500.0 -1.003152000e+00 -3.107990000e-01
468000.0 -1.003190000e+00 -3.207980000e-01
477500.0 -1.003876000e+00 -3.292360000e-01
487000.0 -1.003492000e+00 -3.379450000e-01
496500.0 -1.003422000e+00 -3.477580000e-01
506000.0 -1.003566000e+00 -3.569480000e-01
515500.0 -1.005288000e+00 -3.666110000e-01
525000.0 -1.005287000e+00 -3.744480000e-01
534500.0 -1.003966000e+00 -3.847790000e-01
544000.0 -1.005145000e+00 -3.928810000e-01
553500.0 -1.005623000e+00 -4.025780000e-01
563000.0 -1.006024000e+00 -4.110960000e-01
572500.0 -1.006348000e+00 -4.202020000e-01
582000.0 -1.006706000e+00 -4.296380000e-01
591500.0 -1.007176000e+00 -4.386900000e-01
601000.0 -1.006978000e+00 -4.474310000e-01
610500.0 -1.007067000e+00 -4.557820000e-01
620000.0 -1.008166000e+00 -4.640950000e-01
629500.0 -1.007501000e+00 -4.732900000e-01
639000.0 -1.008131000e+00 -4.834350000e-01
648500.0 -1.009001000e+00 -4.911060000e-01
658000.0 -1.009211000e+00 -5.005430000e-01
667500.0 -1.009405000e+00 -5.084310000e-01
677000.0 -1.010684000e+00 -5.180700000e-01
686500.0 -1.009934000e+00 -5.265610000e-01
696000.0 -1.011340000e+00 -5.355630000e-01
705500.0 -1.012783000e+00 -5.435190000e-01
715000.0 -1.011886000e+00 -5.532680000e-01
724500.0 -1.014663000e+00 -5.624510000e-01
734000.0 -1.014686000e+00 -5.708690000e-01
743500.0 -1.016339000e+00 -5.796900000e-01
753000.0 -1.016621000e+00 -5.886740000e-01
762500.0 -1.016229000e+00 -5.983010000e-01
772000.0 -1.018376000e+00 -6.068470000e-01
781500.0 -1.019447000e+00 -6.151380000e-01
791000.0 -1.019782000e+00 -6.240700000e-01
800500.0 -1.020859000e+00 -6.334470000e-01
810000.0 -1.022318000e+00 -6.409440000e-01
819500.0 -1.023139000e+00 -6.502170000e-01
829000.0 -1.025162000e+00 -6.576990000e-01
838500.0 -1.025970000e+00 -6.670660000e-01
848000.0 -1.026127000e+00 -6.752390000e-01
857500.0 -1.028266000e+00 -6.830720000e-01
867000.0 -1.029539000e+00 -6.923340000e-01
876500.0 -1.031099000e+00 -6.998300000e-01
886000.0 -1.031959000e+00 -7.078300000e-01
895500.0 -1.035079000e+00 -7.160910000e-01
905000.0 -1.037055000e+00 -7.245210000e-01
914500.0 -1.038763000e+00 -7.341030000e-01
924000.0 -1.040783000e+00 -7.415920000e-01
933500.0 -1.040226000e+00 -7.511530000e-01
943000.0 -1.045239000e+00 -7.588050000e-01
952500.0 -1.045181000e+00 -7.668360000e-01
962000.0 -1.046872000e+00 -7.748220000e-01
971500.0 -1.050459000e+00 -7.855340000e-01
981000.0 -1.052156000e+00 -7.923260000e-01
990500.0 -1.054984000e+00 -8.023580000e-01
1000000.0 -1.057009000e+00 -8.088470000e-01
1090000.0 -1.084815000e+00 -8.888360000e-01
1180000.0 -1.120336000e+00 -9.588910000e-01
1270000.0 -1.167079000e+00 -1.026091000e+00
1360000.0 -1.219150000e+00 -1.087777000e+00
1450000.0 -1.280792000e+00 -1.140378000e+00
1540000.0 -1.352971000e+00 -1.180482000e+00
1630000.0 -1.437660000e+00 -1.202632000e+00
1720000.0 -1.524292000e+00 -1.208735000e+00
1810000.0 -1.610200000e+00 -1.194012000e+00
1900000.0 -1.700624000e+00 -1.154738000e+00
1990000.0 -1.772964000e+00 -1.096781000e+00
2080000.0 -1.833633000e+00 -1.027179000e+00
2170000.0 -1.877794000e+00 -9.434080000e-01
2260000.0 -1.900503000e+00 -8.520400000e-01
2350000.0 -1.906322000e+00 -7.604990000e-01
2440000.0 -1.898607000e+00 -6.680710000e-01
2530000.0 -1.876567000e+00 -5.947940000e-01
2620000.0 -1.843688000e+00 -5.192950000e-01
2710000.0 -1.810861000e+00 -4.546420000e-01
2800000.0 -1.769749000e+00 -4.013730000e-01
2890000.0 -1.725660000e+00 -3.535570000e-01
2980000.0 -1.683898000e+00 -3.092510000e-01
3070000.0 -1.643172000e+00 -2.748030000e-01
3160000.0 -1.605453000e+00 -2.423920000e-01
3250000.0 -1.566609000e+00 -2.167140000e-01
3340000.0 -1.529901000e+00 -1.932630000e-01
3430000.0 -1.498441000e+00 -1.694560000e-01
3520000.0 -1.465961000e+00 -1.527210000e-01
3610000.0 -1.434117000e+00 -1.346790000e-01
3700000.0 -1.409209000e+00 -1.162800000e-01
3790000.0 -1.383162000e+00 -1.029950000e-01
3880000.0 -1.358332000e+00 -8.652700000e-02
3970000.0 -1.339405000e+00 -7.290900000e-02
4060000.0 -1.316523000e+00 -5.978300000e-02
4150000.0 -1.297312000e+00 -4.812500000e-02
4240000.0 -1.281709000e+00 -3.570100000e-02
4330000.0 -1.265149000e+00 -2.248500000e-02
4420000.0 -1.251742000e+00 -1.207900000e-02
4510000.0 -1.237641000e+00 -1.450000000e-04
4600000.0 -1.224747000e+00 1.276400000e-02
4690000.0 -1.213247000e+00 2.412400000e-02
4780000.0 -1.203823000e+00 3.438000000e-02
4870000.0 -1.195109000e+00 4.535100000e-02
4960000.0 -1.185452000e+00 5.572000000e-02
5050000.0 -1.170974000e+00 6.584000000e-02
5140000.0 -1.164393000e+00 7.675800000e-02
5230000.0 -1.159883000e+00 8.824300000e-02
5320000.0 -1.154858000e+00 9.851500000e-02
5410000.0 -1.150136000e+00 1.107660000e-01
5500000.0 -1.146730000e+00 1.198430000e-01
5590000.0 -1.141147000e+00 1.295400000e-01
5680000.0 -1.136542000e+00 1.389840000e-01
5770000.0 -1.132977000e+00 1.480010000e-01
5860000.0 -1.129339000e+00 1.590160000e-01
5950000.0 -1.125635000e+00 1.679010000e-01
6040000.0 -1.122676000e+00 1.764060000e-01
6130000.0 -1.120197000e+00 1.837790000e-01
6220000.0 -1.116798000e+00 1.926850000e-01
6310000.0 -1.113321000e+00 2.004190000e-01
6400000.0 -1.111658000e+00 2.075810000e-01
6490000.0 -1.108854000e+00 2.143230000e-01
6580000.0 -1.106569000e+00 2.211390000e-01
6670000.0 -1.105584000e+00 2.266140000e-01
6760000.0 -1.103741000e+00 2.314020000e-01
6850000.0 -1.101016000e+00 2.370620000e-01
6940000.0 -1.100996000e+00 2.404580000e-01
7030000.0 -1.100053000e+00 2.445890000e-01
7120000.0 -1.099637000e+00 2.480020000e-01
7210000.0 -1.098367000e+00 2.494460000e-01
7300000.0 -1.097767000e+00 2.511680000e-01
7390000.0 -1.097793000e+00 2.519740000e-01
7480000.0 -1.097088000e+00 2.517400000e-01
7570000.0 2.046990000e-01 1.070481000e+00
7660000.0 2.042270000e-01 1.070184000e+00
7750000.0 2.033130000e-01 1.071347000e+00
7840000.0 2.007440000e-01 1.071382000e+00
7930000.0 2.017660000e-01 1.070971000e+00
8020000.0 2.007440000e-01 1.071682000e+00
8110000.0 1.991160000e-01 1.072564000e+00
8200000.0 1.982900000e-01 1.072035000e+00
8290000.0 1.987390000e-01 1.072033000e+00
8380000.0 1.978820000e-01 1.072117000e+00
8470000.0 1.969820000e-01 1.072871000e+00
8560000.0 1.963430000e-01 1.073647000e+00
8650000.0 1.964130000e-01 1.074021000e+00
8740000.0 1.949270000e-01 1.074697000e+00
8830000.0 1.939580000e-01 1.074692000e+00
8920000.0 1.946380000e-01 1.075953000e+00
9010000.0 1.935850000e-01 1.075955000e+00
9100000.0 1.925180000e-01 1.077114000e+00
9190000.0 1.929040000e-01 1.077385000e+00
9280000.0 1.925190000e-01 1.077524000e+00
9370000.0 1.904420000e-01 1.079737000e+00
9460000.0 1.910540000e-01 1.079988000e+00
9550000.0 1.898250000e-01 1.079859000e+00
9640000.0 1.887950000e-01 1.080148000e+00
9730000.0 1.888990000e-01 1.081200000e+00
9820000.0 1.873110000e-01 1.082406000e+00
9910000.0 1.870370000e-01 1.082034000e+00
10000000.0 1.871220000e-01 1.082165000e+00
10900000.0 1.818260000e-01 1.089828000e+00
11800000.0 1.750780000e-01 1.096636000e+00
12700000.0 1.704470000e-01 1.105411000e+00
13600000.0 1.650390000e-01 1.113786000e+00
14500000.0 1.600910000e-01 1.123091000e+00
15400000.0 1.537100000e-01 1.131587000e+00
16300000.0 1.480510000e-01 1.139335000e+00
17200000.0 1.423890000e-01 1.149403000e+00
18100000.0 1.369600000e-01 1.158931000e+00
19000000.0 1.292410000e-01 1.167358000e+00
19900000.0 1.231580000e-01 1.177258000e+00
20800000.0 1.156770000e-01 1.186179000e+00
21700000.0 1.087920000e-01 1.195436000e+00
22600000.0 1.005370000e-01 1.206704000e+00
23500000.0 9.326400000e-02 1.216322000e+00
24400000.0 8.520600000e-02 1.226307000e+00
25300000.0 7.542200000e-02 1.236207000e+00
26200000.0 6.652100000e-02 1.247060000e+00
27100000.0 5.708400000e-02 1.256938000e+00
28000000.0 4.721800000e-02 1.267509000e+00
28900000.0 3.665300000e-02 1.276327000e+00
29800000.0 2.479100000e-02 1.287514000e+00
30700000.0 1.401000000e-02 1.298788000e+00
31600000.0 2.717000000e-03 1.308412000e+00
32500000.0 -1.069500000e-02 1.318831000e+00
33400000.0 -2.209400000e-02 1.329345000e+00
34300000.0 -3.464400000e-02 1.339329000e+00
35200000.0 -4.783900000e-02 1.348010000e+00
36100000.0 -6.262600000e-02 1.358661000e+00
37000000.0 -7.645700000e-02 1.368845000e+00
37900000.0 -9.091400000e-02 1.378527000e+00
38800000.0 -1.055180000e-01 1.388692000e+00
39700000.0 -1.203560000e-01 1.397975000e+00
40600000.0 -1.380360000e-01 1.406229000e+00
41500000.0 -1.530430000e-01 1.416765000e+00
42400000.0 -1.694060000e-01 1.423478000e+00
43300000.0 -1.881920000e-01 1.432202000e+00
44200000.0 -2.057580000e-01 1.440597000e+00
45100000.0 -2.249350000e-01 1.446492000e+00
46000000.0 -2.413810000e-01 1.454036000e+00
46900000.0 -2.610510000e-01 1.460317000e+00
47800000.0 -2.821340000e-01 1.467691000e+00
48700000.0 -3.019150000e-01 1.471553000e+00
49600000.0 -3.220670000e-01 1.478338000e+00
50500000.0 -3.423510000e-01 1.482896000e+00
51400000.0 -3.626140000e-01 1.486248000e+00
52300000.0 -3.843480000e-01 1.491302000e+00
53200000.0 -4.049700000e-01 1.493757000e+00
54100000.0 -4.273500000e-01 1.495734000e+00
55000000.0 -4.503700000e-01 1.496765000e+00
55900000.0 -4.716510000e-01 1.497011000e+00
56800000.0 -4.935890000e-01 1.498346000e+00
57700000.0 -5.169160000e-01 1.498465000e+00
58600000.0 -5.398160000e-01 1.498804000e+00
59500000.0 -5.639150000e-01 1.499574000e+00
60400000.0 -5.855690000e-01 1.496007000e+00
61300000.0 -6.098290000e-01 1.494957000e+00
62200000.0 -6.328200000e-01 1.491635000e+00
63100000.0 -6.573690000e-01 1.487247000e+00
64000000.0 -6.798140000e-01 1.482365000e+00
64900000.0 -7.009920000e-01 1.475896000e+00
65800000.0 -7.250080000e-01 1.472147000e+00
66700000.0 -7.476190000e-01 1.463363000e+00
67600000.0 -7.700130000e-01 1.457440000e+00
68500000.0 -7.918880000e-01 1.447886000e+00
69400000.0 -8.161840000e-01 1.438541000e+00
70300000.0 -8.379260000e-01 1.429878000e+00
71200000.0 -8.602220000e-01 1.421800000e+00
72100000.0 -8.822390000e-01 1.409297000e+00
73000000.0 -9.042690000e-01 1.398931000e+00
73900000.0 -9.229420000e-01 1.386184000e+00
74800000.0 -9.430580000e-01 1.373924000e+00
75700000.0 -9.622800000e-01 1.359352000e+00
76600000.0 -9.825620000e-01 1.346147000e+00
77500000.0 -1.001573000e+00 1.333831000e+00
78400000.0 -1.020071000e+00 1.317469000e+00
79300000.0 -1.040752000e+00 1.303243000e+00
80200000.0 -1.060315000e+00 1.285508000e+00
81100000.0 -1.078576000e+00 1.269113000e+00
82000000.0 -1.095938000e+00 1.251258000e+00
82900000.0 -1.112222000e+00 1.233817000e+00
83800000.0 -1.125326000e+00 1.213788000e+00
84700000.0 -1.142010000e+00 1.194428000e+00
85600000.0 -1.156214000e+00 1.178521000e+00
86500000.0 -1.171053000e+00 1.160497000e+00
87400000.0 -1.184885000e+00 1.140746000e+00
88300000.0 -1.200570000e+00 1.121890000e+00
89200000.0 -1.211826000e+00 1.101436000e+00
90100000.0 -1.223372000e+00 1.081239000e+00
91000000.0 -1.233721000e+00 1.060276000e+00
91900000.0 -1.244650000e+00 1.040157000e+00
92800000.0 -1.252537000e+00 1.019164000e+00
93700000.0 -1.261864000e+00 9.977090000e-01
94600000.0 -1.270961000e+00 9.778310000e-01
95500000.0 -1.276647000e+00 9.568380000e-01
96400000.0 -1.284125000e+00 9.352150000e-01
97300000.0 -1.291815000e+00 9.132670000e-01
98200000.0 -1.296003000e+00 8.923570000e-01
99100000.0 -1.301102000e+00 8.722900000e-01
100000000.0 -1.305926000e+00 8.508590000e-01
109000000.0 -1.308951000e+00 6.492160000e-01
118000000.0 -1.270492000e+00 4.777340000e-01
127000000.0 -1.206000000e+00 3.437560000e-01
136000000.0 -1.102844000e+00 2.413830000e-01
145000000.0 -1.025465000e+00 1.708690000e-01
154000000.0 -9.836540000e-01 1.425350000e-01
163000000.0 -9.856980000e-01 1.500620000e-01
172000000.0 -9.858840000e-01 1.552630000e-01
181000000.0 -9.865050000e-01 1.615660000e-01
190000000.0 -9.870890000e-01 1.688970000e-01
199000000.0 -9.868930000e-01 1.763010000e-01
208000000.0 -9.858330000e-01 1.841360000e-01
217000000.0 -9.850330000e-01 1.930330000e-01
226000000.0 -9.836300000e-01 2.014420000e-01
235000000.0 -9.824290000e-01 2.091630000e-01
244000000.0 -9.792060000e-01 2.162750000e-01
253000000.0 -9.750910000e-01 2.262420000e-01
262000000.0 -9.724330000e-01 2.353020000e-01
271000000.0 -9.680920000e-01 2.435970000e-01
280000000.0 -9.635230000e-01 2.532150000e-01
289000000.0 -9.604560000e-01 2.621680000e-01
298000000.0 -9.535260000e-01 2.712000000e-01
307000000.0 -9.519150000e-01 2.784730000e-01
316000000.0 -9.531440000e-01 2.888220000e-01
325000000.0 -9.548150000e-01 2.965690000e-01
334000000.0 -9.538460000e-01 3.052470000e-01
343000000.0 -9.546950000e-01 3.138060000e-01
352000000.0 -9.517550000e-01 3.213030000e-01
361000000.0 -1.092940000e+00 3.075080000e-01
370000000.0 -9.478790000e-01 3.363420000e-01
379000000.0 -9.355050000e-01 3.613060000e-01
388000000.0 -9.416970000e-01 3.521090000e-01
397000000.0 -9.378780000e-01 3.595130000e-01
406000000.0 -9.210650000e-01 3.808740000e-01
415000000.0 -9.282030000e-01 3.755710000e-01
424000000.0 -9.324820000e-01 3.674260000e-01
433000000.0 -9.170200000e-01 3.871620000e-01
442000000.0 -9.104510000e-01 3.973770000e-01
451000000.0 -9.043030000e-01 4.017330000e-01
460000000.0 -9.038920000e-01 4.128330000e-01
469000000.0 -9.025100000e-01 4.213070000e-01
478000000.0 -9.006460000e-01 4.310240000e-01
487000000.0 -8.963070000e-01 4.412400000e-01
496000000.0 -8.916250000e-01 4.488320000e-01
505000000.0 -8.896550000e-01 4.557760000e-01
514000000.0 -8.848540000e-01 4.645940000e-01
523000000.0 -8.698600000e-01 4.857270000e-01
532000000.0 -8.747480000e-01 4.802480000e-01
541000000.0 -8.673720000e-01 4.884370000e-01
550000000.0 -8.628000000e-01 4.956350000e-01
559000000.0 -8.660510000e-01 4.872430000e-01
568000000.0 -8.498520000e-01 5.067680000e-01
577000000.0 -8.469010000e-01 5.119860000e-01
586000000.0 -8.362670000e-01 5.200700000e-01
595000000.0 -8.425770000e-01 5.109120000e-01
604000000.0 -8.283180000e-01 5.240100000e-01
613000000.0 -8.160810000e-01 5.470540000e-01
622000000.0 -8.238110000e-01 5.432610000e-01
631000000.0 -8.264540000e-01 5.386630000e-01
640000000.0 -8.079590000e-01 5.620650000e-01
649000000.0 -8.079010000e-01 5.686980000e-01
658000000.0 -8.058390000e-01 5.741010000e-01
667000000.0 -7.951780000e-01 5.814640000e-01
676000000.0 -7.898500000e-01 5.919320000e-01
685000000.0 -7.817820000e-01 6.010860000e-01
694000000.0 -7.661420000e-01 6.052350000e-01
703000000.0 -7.601970000e-01 6.142410000e-01
712000000.0 -7.547350000e-01 6.170530000e-01
721000000.0 -7.513310000e-01 6.227550000e-01
730000000.0 -7.436530000e-01 6.285510000e-01
739000000.0 -7.446910000e-01 6.275950000e-01
748000000.0 -7.419920000e-01 6.333440000e-01
757000000.0 -7.390170000e-01 6.401990000e-01
766000000.0 -7.336900000e-01 6.483570000e-01
775000000.0 -7.268410000e-01 6.564530000e-01
784000000.0 -7.260990000e-01 6.574410000e-01
793000000.0 -7.113730000e-01 6.677180000e-01
802000000.0 -7.069810000e-01 6.722820000e-01
811000000.0 -6.994180000e-01 6.819530000e-01
820000000.0 -6.962980000e-01 6.842770000e-01
829000000.0 -6.905380000e-01 6.920630000e-01
838000000.0 -6.855930000e-01 6.975880000e-01
847000000.0 -6.781990000e-01 7.015280000e-01
856000000.0 -6.756160000e-01 7.071740000e-01
865000000.0 -6.739900000e-01 7.124350000e-01
874000000.0 -6.639460000e-01 7.180650000e-01
883000000.0 -6.551460000e-01 7.229340000e-01
892000000.0 -6.473510000e-01 7.294400000e-01
901000000.0 -6.421070000e-01 7.339790000e-01
910000000.0 -6.392270000e-01 7.375970000e-01
919000000.0 -6.320000000e-01 7.439850000e-01
928000000.0 -6.232740000e-01 7.539400000e-01
937000000.0 -6.221420000e-01 7.591600000e-01
946000000.0 -6.144650000e-01 7.654190000e-01
955000000.0 -6.122210000e-01 7.688800000e-01
964000000.0 -6.037720000e-01 7.734580000e-01
973000000.0 -5.936760000e-01 7.828910000e-01
982000000.0 -5.902950000e-01 7.887340000e-01
991000000.0 -5.825410000e-01 7.930430000e-01
1000000000.0 -5.757820000e-01 7.967170000e-01
1004500000.0 -5.886330000e-01 7.961730000e-01
1009000000.0 -5.833900000e-01 7.994820000e-01
1013500000.0 -5.840400000e-01 8.019360000e-01
1018000000.0 -5.774000000e-01 8.023210000e-01
1022500000.0 -5.590290000e-01 8.127400000e-01
1027000000.0 -5.690520000e-01 8.082360000e-01
1031500000.0 -5.812500000e-01 8.007990000e-01
1036000000.0 -5.618160000e-01 8.118110000e-01
1040500000.0 -5.407070000e-01 8.211010000e-01
1045000000.0 -5.508140000e-01 8.158540000e-01
1049500000.0 -5.655080000e-01 8.099770000e-01
1054000000.0 -5.464430000e-01 8.187490000e-01
1058500000.0 -5.267890000e-01 8.299200000e-01
1063000000.0 -5.357340000e-01 8.288850000e-01
1067500000.0 -5.519780000e-01 8.215480000e-01
1072000000.0 -5.348460000e-01 8.312820000e-01
1076500000.0 -5.291860000e-01 8.349630000e-01
1081000000.0 -5.257940000e-01 8.356820000e-01
1085500000.0 -5.259560000e-01 8.388060000e-01
1090000000.0 -5.224400000e-01 8.438380000e-01
1094500000.0 -5.127380000e-01 8.470350000e-01
1099000000.0 -5.125350000e-01 8.490160000e-01
1103500000.0 -5.033120000e-01 8.522630000e-01
1108000000.0 -5.026990000e-01 8.552930000e-01
1112500000.0 -5.006140000e-01 8.545750000e-01
1117000000.0 -4.977020000e-01 8.556620000e-01
1121500000.0 -4.910230000e-01 8.597440000e-01
1126000000.0 -4.866290000e-01 8.602130000e-01
1130500000.0 -4.855760000e-01 8.636960000e-01
1135000000.0 -4.471620000e-01 8.751840000e-01
1139500000.0 -4.736230000e-01 8.679240000e-01
1144000000.0 -4.697370000e-01 8.705090000e-01
1148500000.0 -4.676020000e-01 8.723160000e-01
1153000000.0 -4.655500000e-01 8.733650000e-01
1157500000.0 -4.595640000e-01 8.742560000e-01
1162000000.0 -4.571620000e-01 8.743920000e-01
1166500000.0 -4.515670000e-01 8.763150000e-01
1171000000.0 -4.498540000e-01 8.766940000e-01
1175500000.0 -4.448190000e-01 8.775720000e-01
1180000000.0 -4.389020000e-01 8.787100000e-01
1184500000.0 -4.388900000e-01 8.787830000e-01
1189000000.0 -4.251480000e-01 8.846950000e-01
1193500000.0 -4.229930000e-01 8.846450000e-01
1198000000.0 -4.208770000e-01 8.837270000e-01
1202500000.0 -4.192460000e-01 8.849170000e-01
1207000000.0 -4.110320000e-01 8.887310000e-01
1211500000.0 -4.141460000e-01 8.882480000e-01
1216000000.0 -4.050640000e-01 8.915230000e-01
1220500000.0 -4.010280000e-01 8.927760000e-01
1225000000.0 -3.909900000e-01 8.984590000e-01
1229500000.0 -3.986030000e-01 8.989130000e-01
1234000000.0 -3.854210000e-01 9.008450000e-01
1238500000.0 -3.817840000e-01 9.062040000e-01
1243000000.0 -3.801100000e-01 9.068880000e-01
1247500000.0 -3.781420000e-01 9.055600000e-01
1252000000.0 -3.782110000e-01 9.052550000e-01
1256500000.0 -3.670020000e-01 9.104230000e-01
1261000000.0 -3.644150000e-01 9.098330000e-01
1265500000.0 -3.554250000e-01 9.153240000e-01
1270000000.0 -3.571770000e-01 9.142470000e-01
1274500000.0 -3.510110000e-01 9.133200000e-01
1279000000.0 -3.499380000e-01 9.148080000e-01
1283500000.0 -3.443130000e-01 9.168800000e-01
1288000000.0 -3.389320000e-01 9.183130000e-01
1292500000.0 -3.346730000e-01 9.227380000e-01
1297000000.0 -3.294540000e-01 9.156700000e-01
1301500000.0 -3.290160000e-01 9.235410000e-01
1306000000.0 -3.193260000e-01 9.242370000e-01
1310500000.0 -3.211100000e-01 9.231080000e-01
1315000000.0 -3.128800000e-01 9.247430000e-01
1319500000.0 -3.062510000e-01 9.213870000e-01
1324000000.0 -3.050990000e-01 9.276340000e-01
1328500000.0 -2.956190000e-01 9.251510000e-01
1333000000.0 -3.004800000e-01 9.233550000e-01
1337500000.0 -2.914540000e-01 9.293540000e-01
1342000000.0 -2.856710000e-01 9.206060000e-01
1346500000.0 -2.795170000e-01 9.228180000e-01
1351000000.0 -2.750670000e-01 9.271250000e-01
1355500000.0 -2.663470000e-01 9.298040000e-01
1360000000.0 -2.669750000e-01 9.338800000e-01
1364500000.0 -2.658580000e-01 9.356680000e-01
1369000000.0 -2.657220000e-01 9.379290000e-01
1373500000.0 -2.546930000e-01 9.336030000e-01
1378000000.0 -2.469710000e-01 9.419210000e-01
1382500000.0 -2.427110000e-01 9.361240000e-01
1387000000.0 -2.420420000e-01 9.427100000e-01
1391500000.0 -2.342060000e-01 9.428990000e-01
1396000000.0 -2.280890000e-01 9.464310000e-01
1400500000.0 -2.205220000e-01 9.418790000e-01
1405000000.0 -2.207870000e-01 9.489150000e-01
1409500000.0 -2.195980000e-01 9.519820000e-01
1414000000.0 -2.158180000e-01 9.546690000e-01
1418500000.0 -2.083170000e-01 9.566580000e-01
1423000000.0 -2.081270000e-01 9.604220000e-01
1427500000.0 -2.128260000e-01 9.561950000e-01
1432000000.0 -1.970220000e-01 9.554380000e-01
1436500000.0 -1.924930000e-01 9.549550000e-01
1441000000.0 -1.937770000e-01 9.538550000e-01
1445500000.0 -1.850550000e-01 9.538930000e-01
1450000000.0 -1.815060000e-01 9.565310000e-01
