! piloto_corto / aire / r15
# HZ S RI R 50
50000.0 1.002787000e+00 -9.034300000e-02
59500.0 1.004852000e+00 -4.016700000e-02
69000.0 1.003340000e+00 -4.528100000e-02
78500.0 1.002668000e+00 -3.153100000e-02
88000.0 1.001298000e+00 -1.946100000e-02
97500.0 9.995990000e-01 -7.397000000e-03
107000.0 1.000626000e+00 4.982000000e-03
116500.0 1.000633000e+00 1.742400000e-02
126000.0 1.001487000e+00 2.847500000e-02
135500.0 1.000461000e+00 4.201100000e-02
145000.0 1.001067000e+00 5.382400000e-02
154500.0 1.001515000e+00 6.515800000e-02
164000.0 1.001801000e+00 7.767600000e-02
173500.0 1.002854000e+00 8.976900000e-02
183000.0 1.001525000e+00 1.013540000e-01
192500.0 1.002346000e+00 1.135450000e-01
202000.0 1.003036000e+00 1.243850000e-01
211500.0 1.003116000e+00 1.354500000e-01
221000.0 1.002491000e+00 1.468980000e-01
230500.0 1.003790000e+00 1.587950000e-01
240000.0 1.003641000e+00 1.698420000e-01
249500.0 1.003306000e+00 1.808230000e-01
259000.0 1.004562000e+00 1.913340000e-01
268500.0 1.004393000e+00 2.028990000e-01
278000.0 1.004304000e+00 2.141750000e-01
287500.0 1.005283000e+00 2.252830000e-01
297000.0 1.006069000e+00 2.355400000e-01
306500.0 1.005690000e+00 2.470280000e-01
316000.0 1.006073000e+00 2.578940000e-01
325500.0 1.005985000e+00 2.682720000e-01
335000.0 1.006281000e+00 2.783370000e-01
344500.0 1.006480000e+00 2.892940000e-01
354000.0 1.006186000e+00 2.998070000e-01
363500.0 1.006213000e+00 3.108350000e-01
373000.0 1.005802000e+00 3.208850000e-01
382500.0 1.006642000e+00 3.312390000e-01
392000.0 1.007084000e+00 3.419340000e-01
401500.0 1.007995000e+00 3.522160000e-01
411000.0 1.007653000e+00 3.616730000e-01
420500.0 1.007930000e+00 3.721060000e-01
430000.0 1.007418000e+00 3.827450000e-01
439500.0 1.008558000e+00 3.932430000e-01
449000.0 1.007702000e+00 4.028430000e-01
458500.0 1.009089000e+00 4.126680000e-01
468000.0 1.008840000e+00 4.231920000e-01
477500.0 1.007827000e+00 4.325000000e-01
487000.0 1.009120000e+00 4.426350000e-01
496500.0 1.009927000e+00 4.533500000e-01
506000.0 1.009986000e+00 4.631440000e-01
515500.0 1.010159000e+00 4.735620000e-01
525000.0 1.009988000e+00 4.823310000e-01
534500.0 1.011425000e+00 4.921280000e-01
544000.0 1.011337000e+00 5.024520000e-01
553500.0 1.011962000e+00 5.120310000e-01
563000.0 1.012385000e+00 5.216350000e-01
572500.0 1.012961000e+00 5.310330000e-01
582000.0 1.012790000e+00 5.416850000e-01
591500.0 1.013588000e+00 5.507480000e-01
601000.0 1.014525000e+00 5.588880000e-01
610500.0 1.013722000e+00 5.694060000e-01
620000.0 1.015252000e+00 5.796850000e-01
629500.0 1.014958000e+00 5.885000000e-01
639000.0 1.016691000e+00 5.983290000e-01
648500.0 1.015866000e+00 6.084010000e-01
658000.0 1.017185000e+00 6.166760000e-01
667500.0 1.018001000e+00 6.266020000e-01
677000.0 1.018179000e+00 6.359380000e-01
686500.0 1.020360000e+00 6.456030000e-01
696000.0 1.018978000e+00 6.536180000e-01
705500.0 1.021733000e+00 6.638160000e-01
715000.0 1.021142000e+00 6.731560000e-01
724500.0 1.022951000e+00 6.816060000e-01
734000.0 1.022636000e+00 6.916020000e-01
743500.0 1.024298000e+00 6.998010000e-01
753000.0 1.025309000e+00 7.103180000e-01
762500.0 1.026615000e+00 7.198120000e-01
772000.0 1.026579000e+00 7.273390000e-01
781500.0 1.028848000e+00 7.373720000e-01
791000.0 1.030371000e+00 7.455780000e-01
800500.0 1.031204000e+00 7.556050000e-01
810000.0 1.032514000e+00 7.645650000e-01
819500.0 1.033425000e+00 7.734160000e-01
829000.0 1.034332000e+00 7.827250000e-01
838500.0 1.035722000e+00 7.936650000e-01
848000.0 1.038995000e+00 8.010350000e-01
857500.0 1.040255000e+00 8.103200000e-01
867000.0 1.041967000e+00 8.180010000e-01
876500.0 1.042020000e+00 8.265800000e-01
886000.0 1.045712000e+00 8.374910000e-01
895500.0 1.046461000e+00 8.449590000e-01
905000.0 1.048398000e+00 8.550030000e-01
914500.0 1.051625000e+00 8.618330000e-01
924000.0 1.052947000e+00 8.724940000e-01
933500.0 1.054312000e+00 8.799240000e-01
943000.0 1.056612000e+00 8.897500000e-01
952500.0 1.060513000e+00 8.979820000e-01
962000.0 1.061349000e+00 9.057000000e-01
971500.0 1.063900000e+00 9.150570000e-01
981000.0 1.066544000e+00 9.244120000e-01
990500.0 1.068600000e+00 9.317100000e-01
1000000.0 1.070965000e+00 9.416920000e-01
1090000.0 1.098516000e+00 1.020073000e+00
1180000.0 1.134972000e+00 1.095924000e+00
1270000.0 1.179553000e+00 1.165866000e+00
1360000.0 1.236679000e+00 1.226997000e+00
1450000.0 1.301814000e+00 1.279946000e+00
1540000.0 1.374783000e+00 1.319820000e+00
1630000.0 1.463306000e+00 1.346300000e+00
1720000.0 1.551567000e+00 1.349855000e+00
1810000.0 1.637944000e+00 1.339459000e+00
1900000.0 1.725446000e+00 1.306076000e+00
1990000.0 1.799100000e+00 1.251869000e+00
2080000.0 1.865967000e+00 1.184776000e+00
2170000.0 1.915553000e+00 1.102856000e+00
2260000.0 1.947748000e+00 1.016811000e+00
2350000.0 1.962408000e+00 9.281910000e-01
2440000.0 1.958724000e+00 8.452550000e-01
2530000.0 1.947357000e+00 7.568840000e-01
2620000.0 1.922153000e+00 6.832660000e-01
2710000.0 1.892363000e+00 6.130940000e-01
2800000.0 1.855753000e+00 5.541330000e-01
2890000.0 1.818953000e+00 5.006040000e-01
2980000.0 1.778303000e+00 4.544530000e-01
3070000.0 1.742719000e+00 4.128450000e-01
3160000.0 1.704045000e+00 3.767070000e-01
3250000.0 1.667696000e+00 3.442230000e-01
3340000.0 1.633622000e+00 3.160400000e-01
3430000.0 1.599520000e+00 2.912450000e-01
3520000.0 1.571574000e+00 2.680980000e-01
3610000.0 1.540617000e+00 2.458260000e-01
3700000.0 1.512206000e+00 2.253800000e-01
3790000.0 1.488848000e+00 2.075410000e-01
3880000.0 1.464685000e+00 1.889500000e-01
3970000.0 1.443408000e+00 1.726660000e-01
4060000.0 1.422541000e+00 1.558210000e-01
4150000.0 1.404967000e+00 1.415310000e-01
4240000.0 1.387336000e+00 1.247590000e-01
4330000.0 1.370597000e+00 1.106730000e-01
4420000.0 1.358152000e+00 1.004710000e-01
4510000.0 1.344286000e+00 8.434000000e-02
4600000.0 1.332403000e+00 7.004600000e-02
4690000.0 1.320059000e+00 3.225100000e-02
4780000.0 1.312681000e+00 6.645200000e-02
4870000.0 1.302156000e+00 8.573000000e-03
4960000.0 1.295452000e+00 4.175700000e-02
5050000.0 1.278060000e+00 -1.750300000e-02
5140000.0 1.275190000e+00 -7.646000000e-03
5230000.0 1.268197000e+00 -4.404900000e-02
5320000.0 1.268285000e+00 -8.991000000e-03
5410000.0 1.262144000e+00 -4.468300000e-02
5500000.0 1.257197000e+00 -5.774400000e-02
5590000.0 1.253258000e+00 -6.829400000e-02
5680000.0 1.251471000e+00 -7.916600000e-02
5770000.0 1.246032000e+00 -9.097900000e-02
5860000.0 1.243113000e+00 -1.030780000e-01
5950000.0 1.241114000e+00 -1.123460000e-01
6040000.0 1.237701000e+00 -1.221280000e-01
6130000.0 1.234754000e+00 -1.321030000e-01
6220000.0 1.232734000e+00 -1.408740000e-01
6310000.0 1.229855000e+00 -1.504920000e-01
6400000.0 1.228109000e+00 -1.585100000e-01
6490000.0 1.227324000e+00 -1.675740000e-01
6580000.0 1.224157000e+00 -1.735520000e-01
6670000.0 1.223079000e+00 -1.811680000e-01
6760000.0 1.221318000e+00 -1.872890000e-01
6850000.0 1.221129000e+00 -1.922410000e-01
6940000.0 1.220600000e+00 -1.976310000e-01
7030000.0 1.220040000e+00 -2.012760000e-01
7120000.0 1.219104000e+00 -2.052630000e-01
7210000.0 1.217823000e+00 -2.072060000e-01
7300000.0 1.217972000e+00 -2.099530000e-01
7390000.0 1.217185000e+00 -2.118560000e-01
7480000.0 1.218260000e+00 -2.102610000e-01
7570000.0 -2.607720000e-01 -1.255580000e+00
7660000.0 -2.609270000e-01 -1.257119000e+00
7750000.0 -2.597210000e-01 -1.257704000e+00
7840000.0 -2.589830000e-01 -1.258097000e+00
7930000.0 -2.584980000e-01 -1.257129000e+00
8020000.0 -2.575900000e-01 -1.258330000e+00
8110000.0 -2.567770000e-01 -1.260047000e+00
8200000.0 -2.563540000e-01 -1.258951000e+00
8290000.0 -2.566700000e-01 -1.260628000e+00
8380000.0 -2.564430000e-01 -1.261467000e+00
8470000.0 -2.558790000e-01 -1.260421000e+00
8560000.0 -2.557020000e-01 -1.261840000e+00
8650000.0 -2.536190000e-01 -1.262246000e+00
8740000.0 -2.539040000e-01 -1.262506000e+00
8830000.0 -2.543250000e-01 -1.262195000e+00
8920000.0 -2.540090000e-01 -1.263857000e+00
9010000.0 -2.524420000e-01 -1.264598000e+00
9100000.0 -2.525460000e-01 -1.264462000e+00
9190000.0 -2.518610000e-01 -1.266433000e+00
9280000.0 -2.515050000e-01 -1.266990000e+00
9370000.0 -2.505460000e-01 -1.266127000e+00
9460000.0 -2.506970000e-01 -1.267268000e+00
9550000.0 -2.499060000e-01 -1.268226000e+00
9640000.0 -2.503270000e-01 -1.268375000e+00
9730000.0 -2.493270000e-01 -1.270884000e+00
9820000.0 -2.487650000e-01 -1.270684000e+00
9910000.0 -2.480510000e-01 -1.271660000e+00
10000000.0 -2.459570000e-01 -1.272877000e+00
10900000.0 -2.439840000e-01 -1.282217000e+00
11800000.0 -2.395810000e-01 -1.289708000e+00
12700000.0 -2.368430000e-01 -1.298918000e+00
13600000.0 -2.331230000e-01 -1.310452000e+00
14500000.0 -2.294770000e-01 -1.321299000e+00
15400000.0 -2.245940000e-01 -1.331098000e+00
16300000.0 -2.212660000e-01 -1.343451000e+00
17200000.0 -2.169090000e-01 -1.355136000e+00
18100000.0 -2.127020000e-01 -1.366973000e+00
19000000.0 -2.071120000e-01 -1.378769000e+00
19900000.0 -2.023430000e-01 -1.391599000e+00
20800000.0 -1.976270000e-01 -1.403661000e+00
21700000.0 -1.918040000e-01 -1.416924000e+00
22600000.0 -1.847590000e-01 -1.431556000e+00
23500000.0 -1.783500000e-01 -1.443686000e+00
24400000.0 -1.727370000e-01 -1.456826000e+00
25300000.0 -1.634610000e-01 -1.471092000e+00
26200000.0 -1.567290000e-01 -1.483552000e+00
27100000.0 -1.478290000e-01 -1.500036000e+00
28000000.0 -1.404820000e-01 -1.514155000e+00
28900000.0 -1.289810000e-01 -1.528356000e+00
29800000.0 -3.020330000e-01 -1.441819000e+00
30700000.0 -1.096060000e-01 -1.558207000e+00
31600000.0 -9.962800000e-02 -1.572102000e+00
32500000.0 -8.856500000e-02 -1.587329000e+00
33400000.0 -7.632000000e-02 -1.602429000e+00
34300000.0 -6.372100000e-02 -1.618255000e+00
35200000.0 -5.215800000e-02 -1.634063000e+00
36100000.0 -3.510700000e-02 -1.649886000e+00
37000000.0 -2.306000000e-02 -1.665833000e+00
37900000.0 -7.244000000e-03 -1.680934000e+00
38800000.0 9.506000000e-03 -1.697391000e+00
39700000.0 2.591100000e-02 -1.712161000e+00
40600000.0 4.302800000e-02 -1.726828000e+00
41500000.0 5.942900000e-02 -1.742560000e+00
42400000.0 7.965800000e-02 -1.757932000e+00
43300000.0 9.779800000e-02 -1.773844000e+00
44200000.0 1.193510000e-01 -1.788626000e+00
45100000.0 1.403020000e-01 -1.802397000e+00
46000000.0 1.629180000e-01 -1.816487000e+00
46900000.0 1.859890000e-01 -1.830187000e+00
47800000.0 2.096830000e-01 -1.844494000e+00
48700000.0 2.348220000e-01 -1.858182000e+00
49600000.0 2.616120000e-01 -1.869764000e+00
50500000.0 2.886670000e-01 -1.881014000e+00
51400000.0 3.128120000e-01 -1.894891000e+00
52300000.0 3.421330000e-01 -1.904147000e+00
53200000.0 3.734730000e-01 -1.914212000e+00
54100000.0 4.047900000e-01 -1.923019000e+00
55000000.0 4.350980000e-01 -1.931932000e+00
55900000.0 4.655070000e-01 -1.936956000e+00
56800000.0 5.011170000e-01 -1.942950000e+00
57700000.0 5.330520000e-01 -1.946956000e+00
58600000.0 5.680310000e-01 -1.952633000e+00
59500000.0 6.029380000e-01 -1.953180000e+00
60400000.0 6.402440000e-01 -1.954733000e+00
61300000.0 6.758470000e-01 -1.954007000e+00
62200000.0 7.125670000e-01 -1.951636000e+00
63100000.0 7.474400000e-01 -1.947506000e+00
64000000.0 7.855950000e-01 -1.945461000e+00
64900000.0 8.230540000e-01 -1.936525000e+00
65800000.0 8.606510000e-01 -1.926831000e+00
66700000.0 8.982020000e-01 -1.914913000e+00
67600000.0 9.348530000e-01 -1.905105000e+00
68500000.0 9.715760000e-01 -1.891654000e+00
69400000.0 1.008628000e+00 -1.876304000e+00
70300000.0 1.043295000e+00 -1.858892000e+00
71200000.0 1.079287000e+00 -1.837843000e+00
72100000.0 1.114007000e+00 -1.818809000e+00
73000000.0 1.146352000e+00 -1.794930000e+00
73900000.0 1.177657000e+00 -1.772359000e+00
74800000.0 1.207925000e+00 -1.747766000e+00
75700000.0 1.239318000e+00 -1.718915000e+00
76600000.0 1.267451000e+00 -1.696524000e+00
77500000.0 1.291955000e+00 -1.666071000e+00
78400000.0 1.318960000e+00 -1.635227000e+00
79300000.0 1.344786000e+00 -1.604157000e+00
80200000.0 1.367903000e+00 -1.572083000e+00
81100000.0 1.386492000e+00 -1.539591000e+00
82000000.0 1.403230000e+00 -1.508231000e+00
82900000.0 1.422158000e+00 -1.474270000e+00
83800000.0 1.438485000e+00 -1.441988000e+00
84700000.0 1.453831000e+00 -1.408018000e+00
85600000.0 1.464696000e+00 -1.374245000e+00
86500000.0 1.476239000e+00 -1.340242000e+00
87400000.0 1.484753000e+00 -1.306310000e+00
88300000.0 1.494112000e+00 -1.272258000e+00
89200000.0 1.502648000e+00 -1.239809000e+00
90100000.0 1.507426000e+00 -1.206450000e+00
91000000.0 1.511980000e+00 -1.171636000e+00
91900000.0 1.512482000e+00 -1.142818000e+00
92800000.0 1.513716000e+00 -1.109367000e+00
93700000.0 1.515742000e+00 -1.078954000e+00
94600000.0 1.514016000e+00 -1.048560000e+00
95500000.0 1.514121000e+00 -1.019681000e+00
96400000.0 1.512742000e+00 -9.898000000e-01
97300000.0 1.506364000e+00 -9.627230000e-01
98200000.0 1.505601000e+00 -9.335370000e-01
99100000.0 1.500372000e+00 -9.072020000e-01
100000000.0 1.494109000e+00 -8.799620000e-01
109000000.0 1.411592000e+00 -6.541250000e-01
118000000.0 1.305379000e+00 -4.941030000e-01
127000000.0 1.199729000e+00 -3.784570000e-01
136000000.0 1.099914000e+00 -3.072160000e-01
145000000.0 1.009734000e+00 -2.513070000e-01
154000000.0 9.576520000e-01 -2.307300000e-01
163000000.0 9.514720000e-01 -2.368830000e-01
172000000.0 9.501060000e-01 -2.562780000e-01
181000000.0 9.492650000e-01 -2.718340000e-01
190000000.0 9.458750000e-01 -2.866790000e-01
199000000.0 9.406550000e-01 -2.967410000e-01
208000000.0 9.324610000e-01 -3.055130000e-01
217000000.0 9.312470000e-01 -3.205760000e-01
226000000.0 9.272490000e-01 -3.350160000e-01
235000000.0 9.222540000e-01 -3.446820000e-01
244000000.0 9.174790000e-01 -3.564690000e-01
253000000.0 9.056440000e-01 -3.602920000e-01
262000000.0 9.007870000e-01 -3.747800000e-01
271000000.0 8.995540000e-01 -3.925020000e-01
280000000.0 8.869320000e-01 -3.764390000e-01
289000000.0 8.814770000e-01 -4.079600000e-01
298000000.0 8.725260000e-01 -4.063510000e-01
307000000.0 8.656480000e-01 -4.243190000e-01
316000000.0 8.641260000e-01 -4.415040000e-01
325000000.0 8.603060000e-01 -4.542700000e-01
334000000.0 8.503960000e-01 -4.620320000e-01
343000000.0 8.177940000e-01 -4.882100000e-01
352000000.0 8.502030000e-01 -4.685420000e-01
361000000.0 8.324280000e-01 -4.947120000e-01
370000000.0 8.280840000e-01 -5.079410000e-01
379000000.0 7.955140000e-01 -5.411840000e-01
388000000.0 8.151870000e-01 -5.291520000e-01
397000000.0 7.957030000e-01 -5.518790000e-01
406000000.0 8.074100000e-01 -5.278850000e-01
415000000.0 7.890020000e-01 -5.576690000e-01
424000000.0 7.808580000e-01 -5.654390000e-01
433000000.0 7.730270000e-01 -5.744700000e-01
442000000.0 7.629450000e-01 -5.860490000e-01
451000000.0 7.542470000e-01 -5.952640000e-01
460000000.0 7.489570000e-01 -6.056130000e-01
469000000.0 7.412380000e-01 -6.118590000e-01
478000000.0 7.348100000e-01 -6.232470000e-01
487000000.0 7.292140000e-01 -6.306180000e-01
496000000.0 7.216590000e-01 -6.394970000e-01
505000000.0 7.159340000e-01 -6.499610000e-01
514000000.0 7.086300000e-01 -6.628360000e-01
523000000.0 7.015340000e-01 -6.717850000e-01
532000000.0 6.935210000e-01 -6.817000000e-01
541000000.0 6.997030000e-01 -6.785800000e-01
550000000.0 6.746290000e-01 -6.959700000e-01
559000000.0 6.647810000e-01 -7.054620000e-01
568000000.0 6.527460000e-01 -7.116120000e-01
577000000.0 6.416490000e-01 -7.207740000e-01
586000000.0 6.283700000e-01 -7.278080000e-01
595000000.0 6.184610000e-01 -7.364620000e-01
604000000.0 6.100850000e-01 -7.418260000e-01
613000000.0 6.193270000e-01 -7.413260000e-01
622000000.0 5.953540000e-01 -7.635430000e-01
631000000.0 5.856580000e-01 -7.736680000e-01
640000000.0 5.797820000e-01 -7.773330000e-01
649000000.0 5.681790000e-01 -7.865680000e-01
658000000.0 5.591550000e-01 -7.961810000e-01
667000000.0 5.450190000e-01 -8.022940000e-01
676000000.0 5.375420000e-01 -8.098120000e-01
685000000.0 5.280210000e-01 -8.159700000e-01
694000000.0 5.347430000e-01 -8.123600000e-01
703000000.0 5.047640000e-01 -8.240050000e-01
712000000.0 4.941900000e-01 -8.249240000e-01
721000000.0 4.821430000e-01 -8.313320000e-01
730000000.0 4.669270000e-01 -8.342590000e-01
739000000.0 4.556950000e-01 -8.326680000e-01
748000000.0 4.436500000e-01 -8.347080000e-01
757000000.0 4.308120000e-01 -8.387270000e-01
766000000.0 4.169450000e-01 -8.492490000e-01
775000000.0 4.038240000e-01 -8.582170000e-01
784000000.0 3.933810000e-01 -8.632600000e-01
793000000.0 3.791330000e-01 -8.718100000e-01
802000000.0 3.738800000e-01 -8.502710000e-01
811000000.0 3.764040000e-01 -8.357640000e-01
820000000.0 3.592410000e-01 -8.533400000e-01
829000000.0 3.446910000e-01 -8.606920000e-01
838000000.0 3.340920000e-01 -8.649790000e-01
847000000.0 3.367680000e-01 -8.465910000e-01
856000000.0 3.237940000e-01 -8.569010000e-01
865000000.0 3.076820000e-01 -8.679600000e-01
874000000.0 2.925750000e-01 -8.798380000e-01
883000000.0 2.889420000e-01 -8.632490000e-01
892000000.0 2.881690000e-01 -8.543570000e-01
901000000.0 2.698930000e-01 -8.671720000e-01
910000000.0 2.614050000e-01 -8.699540000e-01
919000000.0 2.463830000e-01 -8.751670000e-01
928000000.0 2.290640000e-01 -8.851540000e-01
937000000.0 2.146080000e-01 -8.850900000e-01
946000000.0 2.068910000e-01 -8.884490000e-01
955000000.0 1.925650000e-01 -8.937010000e-01
964000000.0 1.949580000e-01 -8.842090000e-01
973000000.0 1.800120000e-01 -8.882440000e-01
982000000.0 1.658070000e-01 -8.905640000e-01
991000000.0 1.533590000e-01 -8.946230000e-01
1000000000.0 1.440630000e-01 -9.000340000e-01
1004500000.0 1.286920000e-01 -9.336350000e-01
1009000000.0 1.236030000e-01 -9.336700000e-01
1013500000.0 1.188160000e-01 -9.354110000e-01
1018000000.0 1.154430000e-01 -9.371590000e-01
1022500000.0 9.137300000e-02 -9.364870000e-01
1027000000.0 1.044360000e-01 -9.377620000e-01
1031500000.0 1.181450000e-01 -9.365560000e-01
1036000000.0 9.537400000e-02 -9.380630000e-01
1040500000.0 6.874900000e-02 -9.395710000e-01
1045000000.0 8.608700000e-02 -9.409670000e-01
1049500000.0 9.292500000e-02 -9.410040000e-01
1054000000.0 7.239500000e-02 -9.397980000e-01
1058500000.0 4.887900000e-02 -9.402860000e-01
1063000000.0 6.079200000e-02 -9.411640000e-01
1067500000.0 7.545200000e-02 -9.426400000e-01
1072000000.0 4.994000000e-02 -9.408300000e-01
1076500000.0 4.419900000e-02 -9.415860000e-01
1081000000.0 3.917500000e-02 -9.416140000e-01
1085500000.0 3.878400000e-02 -9.412350000e-01
1090000000.0 3.447800000e-02 -9.406390000e-01
1094500000.0 2.994800000e-02 -9.408340000e-01
1099000000.0 1.928200000e-02 -9.443320000e-01
1103500000.0 2.004800000e-02 -9.438470000e-01
1108000000.0 1.233500000e-02 -9.433630000e-01
1112500000.0 4.191000000e-03 -9.432480000e-01
1117000000.0 -2.520000000e-03 -9.412850000e-01
1121500000.0 -5.753000000e-03 -9.426350000e-01
1126000000.0 -1.121800000e-02 -9.449970000e-01
1130500000.0 -2.107600000e-02 -9.437000000e-01
1135000000.0 -2.009400000e-02 -9.397740000e-01
1139500000.0 -2.900300000e-02 -9.406520000e-01
1144000000.0 -7.637300000e-02 -9.190760000e-01
1148500000.0 -4.171700000e-02 -9.410790000e-01
1153000000.0 -4.596400000e-02 -9.416660000e-01
1157500000.0 -3.386400000e-02 -9.433500000e-01
1162000000.0 -6.177500000e-02 -9.340430000e-01
1166500000.0 -6.453600000e-02 -9.324750000e-01
1171000000.0 -7.142200000e-02 -9.399710000e-01
1175500000.0 -7.162500000e-02 -9.352100000e-01
1180000000.0 -7.908500000e-02 -9.360820000e-01
1184500000.0 -8.819500000e-02 -9.334520000e-01
1189000000.0 -9.429400000e-02 -9.357050000e-01
1193500000.0 -1.001850000e-01 -9.320350000e-01
1198000000.0 -1.043480000e-01 -9.321090000e-01
1202500000.0 -1.051190000e-01 -9.313930000e-01
1207000000.0 -1.125280000e-01 -9.321950000e-01
1211500000.0 -1.166300000e-01 -9.317630000e-01
1216000000.0 -1.238370000e-01 -9.325480000e-01
1220500000.0 -1.257290000e-01 -9.338690000e-01
1225000000.0 -1.342550000e-01 -9.289980000e-01
1229500000.0 -1.370340000e-01 -9.313230000e-01
1234000000.0 -1.413070000e-01 -9.287860000e-01
1238500000.0 -1.437360000e-01 -9.283340000e-01
1243000000.0 -1.498900000e-01 -9.253200000e-01
1247500000.0 -1.549630000e-01 -9.281760000e-01
1252000000.0 -1.575720000e-01 -9.276080000e-01
1256500000.0 -1.663090000e-01 -9.259810000e-01
1261000000.0 -1.632590000e-01 -9.268240000e-01
1265500000.0 -1.798670000e-01 -9.221950000e-01
1270000000.0 -1.831510000e-01 -9.214540000e-01
1274500000.0 -1.872680000e-01 -9.224620000e-01
1279000000.0 -1.915880000e-01 -9.152460000e-01
1283500000.0 -1.914190000e-01 -9.219170000e-01
1288000000.0 -2.015510000e-01 -9.109810000e-01
1292500000.0 -2.039680000e-01 -9.114970000e-01
1297000000.0 -2.107290000e-01 -9.114830000e-01
1301500000.0 -2.177430000e-01 -9.113570000e-01
1306000000.0 -2.216430000e-01 -9.099290000e-01
1310500000.0 -2.254460000e-01 -9.133660000e-01
1315000000.0 -2.269390000e-01 -9.081100000e-01
1319500000.0 -2.383130000e-01 -9.063460000e-01
1324000000.0 -2.395960000e-01 -9.038990000e-01
1328500000.0 -2.469090000e-01 -9.007900000e-01
1333000000.0 -2.514540000e-01 -9.048360000e-01
1337500000.0 -2.610910000e-01 -8.941960000e-01
1342000000.0 -2.665350000e-01 -8.992630000e-01
1346500000.0 -2.712440000e-01 -8.887830000e-01
1351000000.0 -2.756230000e-01 -8.925880000e-01
1355500000.0 -2.736290000e-01 -8.928350000e-01
1360000000.0 -2.834550000e-01 -8.933470000e-01
1364500000.0 -2.958270000e-01 -8.915960000e-01
1369000000.0 -2.964380000e-01 -8.884650000e-01
1373500000.0 -2.970910000e-01 -8.886790000e-01
1378000000.0 -3.018340000e-01 -8.910190000e-01
1382500000.0 -3.068820000e-01 -8.822940000e-01
1387000000.0 -3.045320000e-01 -8.825300000e-01
1391500000.0 -3.220170000e-01 -8.840090000e-01
1396000000.0 -3.122990000e-01 -8.944190000e-01
1400500000.0 -3.184580000e-01 -8.933180000e-01
1405000000.0 -3.371040000e-01 -8.822750000e-01
1409500000.0 -3.265110000e-01 -8.810600000e-01
1414000000.0 -3.383450000e-01 -8.830660000e-01
1418500000.0 -3.447970000e-01 -8.799410000e-01
1423000000.0 -3.575250000e-01 -8.824280000e-01
1427500000.0 -3.561510000e-01 -8.820130000e-01
1432000000.0 -3.534080000e-01 -8.801320000e-01
1436500000.0 -3.595590000e-01 -8.775180000e-01
1441000000.0 -3.619390000e-01 -8.686150000e-01
1445500000.0 -3.713180000e-01 -8.641500000e-01
1450000000.0 -3.719710000e-01 -8.650580000e-01
