! piloto_corto / corto_aluminio / r03
# HZ S RI R 50
50000.0 -9.933060000e-01 -3.599100000e-02
59500.0 -9.985060000e-01 -1.739500000e-02
69000.0 -9.960020000e-01 -8.046000000e-03
78500.0 -9.981000000e-01 -8.750000000e-04
88000.0 -9.969550000e-01 1.008000000e-03
97500.0 -9.976980000e-01 4.820000000e-04
107000.0 -9.990280000e-01 -9.740000000e-04
116500.0 -9.982400000e-01 -4.475000000e-03
126000.0 -9.987950000e-01 -9.342000000e-03
135500.0 -9.975280000e-01 -1.538200000e-02
145000.0 -9.978470000e-01 -2.069700000e-02
154500.0 -9.990200000e-01 -2.743400000e-02
164000.0 -9.987340000e-01 -5.300000000e-02
173500.0 -9.991020000e-01 -5.953600000e-02
183000.0 -9.695590000e-01 -1.620300000e-02
192500.0 -1.010160000e+00 -9.276600000e-02
202000.0 -9.868190000e-01 -1.035760000e-01
211500.0 -9.988250000e-01 -7.486500000e-02
221000.0 -9.984040000e-01 -8.276600000e-02
230500.0 -9.977310000e-01 -9.195000000e-02
240000.0 -9.985650000e-01 -1.010180000e-01
249500.0 -9.986550000e-01 -1.098460000e-01
259000.0 -9.991420000e-01 -1.188740000e-01
268500.0 -9.988790000e-01 -1.280010000e-01
278000.0 -9.994230000e-01 -1.374060000e-01
287500.0 -9.995250000e-01 -1.461130000e-01
297000.0 -9.995840000e-01 -1.552450000e-01
306500.0 -9.999740000e-01 -1.637100000e-01
316000.0 -1.000501000e+00 -1.734670000e-01
325500.0 -9.999970000e-01 -1.829080000e-01
335000.0 -1.000677000e+00 -1.915920000e-01
344500.0 -1.001156000e+00 -2.004780000e-01
354000.0 -1.001004000e+00 -2.108060000e-01
363500.0 -1.001444000e+00 -2.195040000e-01
373000.0 -1.001259000e+00 -2.285720000e-01
382500.0 -1.001940000e+00 -2.381050000e-01
392000.0 -1.001721000e+00 -2.461810000e-01
401500.0 -1.000961000e+00 -2.555070000e-01
411000.0 -1.002530000e+00 -2.650870000e-01
420500.0 -1.001867000e+00 -2.745820000e-01
430000.0 -1.001256000e+00 -2.835840000e-01
439500.0 -9.988530000e-01 -2.911970000e-01
449000.0 -1.010194000e+00 -3.174230000e-01
458500.0 -1.059828000e+00 -1.943710000e-01
468000.0 -1.002813000e+00 -3.201700000e-01
477500.0 -1.002175000e+00 -3.294860000e-01
487000.0 -1.003660000e+00 -3.395130000e-01
496500.0 -1.003569000e+00 -3.479460000e-01
506000.0 -1.003645000e+00 -3.569580000e-01
515500.0 -9.955060000e-01 -3.629310000e-01
525000.0 -1.000693000e+00 -3.748030000e-01
534500.0 -1.002831000e+00 -3.838450000e-01
544000.0 -1.004616000e+00 -3.923050000e-01
553500.0 -1.004000000e+00 -4.018430000e-01
563000.0 -1.004589000e+00 -4.103690000e-01
572500.0 -1.005455000e+00 -4.191100000e-01
582000.0 -1.004364000e+00 -4.285050000e-01
591500.0 -1.004510000e+00 -4.388500000e-01
601000.0 -1.007099000e+00 -4.471440000e-01
610500.0 -1.007187000e+00 -4.565710000e-01
620000.0 -1.007794000e+00 -4.653310000e-01
629500.0 -1.007449000e+00 -4.734370000e-01
639000.0 -1.007636000e+00 -4.837820000e-01
648500.0 -1.008124000e+00 -4.920620000e-01
658000.0 -1.009250000e+00 -5.007880000e-01
667500.0 -1.010462000e+00 -5.099060000e-01
677000.0 -1.011241000e+00 -5.195860000e-01
686500.0 -1.012242000e+00 -5.267660000e-01
696000.0 -1.012653000e+00 -5.369200000e-01
705500.0 -1.013483000e+00 -5.448340000e-01
715000.0 -1.014556000e+00 -5.541980000e-01
724500.0 -1.015621000e+00 -5.627910000e-01
734000.0 -1.015848000e+00 -5.715010000e-01
743500.0 -1.015855000e+00 -5.808120000e-01
753000.0 -1.017003000e+00 -5.899810000e-01
762500.0 -1.019195000e+00 -5.987910000e-01
772000.0 -1.019827000e+00 -6.075810000e-01
781500.0 -1.020859000e+00 -6.153000000e-01
791000.0 -1.020892000e+00 -6.238860000e-01
800500.0 -1.024239000e+00 -6.330860000e-01
810000.0 -1.024988000e+00 -6.425880000e-01
819500.0 -1.025618000e+00 -6.486530000e-01
829000.0 -1.027049000e+00 -6.598940000e-01
838500.0 -1.029451000e+00 -6.671210000e-01
848000.0 -1.029318000e+00 -6.758030000e-01
857500.0 -1.030733000e+00 -6.842260000e-01
867000.0 -1.031442000e+00 -6.940440000e-01
876500.0 -1.034429000e+00 -7.029480000e-01
886000.0 -1.036002000e+00 -7.103470000e-01
895500.0 -1.036940000e+00 -7.181840000e-01
905000.0 -1.038183000e+00 -7.280880000e-01
914500.0 -1.040775000e+00 -7.360760000e-01
924000.0 -1.043494000e+00 -7.452190000e-01
933500.0 -1.044874000e+00 -7.524810000e-01
943000.0 -1.047995000e+00 -7.610950000e-01
952500.0 -1.048586000e+00 -7.707740000e-01
962000.0 -1.049497000e+00 -7.774180000e-01
971500.0 -1.052822000e+00 -7.861770000e-01
981000.0 -1.055676000e+00 -7.947020000e-01
990500.0 -1.056644000e+00 -8.016270000e-01
1000000.0 -1.058753000e+00 -8.104520000e-01
1090000.0 -1.081957000e+00 -8.850160000e-01
1180000.0 -1.118070000e+00 -9.558430000e-01
1270000.0 -1.162492000e+00 -1.025189000e+00
1360000.0 -1.215681000e+00 -1.084264000e+00
1450000.0 -1.279901000e+00 -1.137772000e+00
1540000.0 -1.353349000e+00 -1.177441000e+00
1630000.0 -1.435003000e+00 -1.199455000e+00
1720000.0 -1.521760000e+00 -1.207261000e+00
1810000.0 -1.609348000e+00 -1.192420000e+00
1900000.0 -1.694154000e+00 -1.154966000e+00
1990000.0 -1.769217000e+00 -1.095307000e+00
2080000.0 -1.829666000e+00 -1.024594000e+00
2170000.0 -1.872255000e+00 -9.401550000e-01
2260000.0 -1.897218000e+00 -8.495040000e-01
2350000.0 -1.904764000e+00 -7.590270000e-01
2440000.0 -1.894430000e+00 -6.705880000e-01
2530000.0 -1.875139000e+00 -5.914760000e-01
2620000.0 -1.843347000e+00 -5.173430000e-01
2710000.0 -1.808130000e+00 -4.544600000e-01
2800000.0 -1.768162000e+00 -3.991830000e-01
2890000.0 -1.725431000e+00 -3.496460000e-01
2980000.0 -1.681316000e+00 -3.090230000e-01
3070000.0 -1.643697000e+00 -2.765940000e-01
3160000.0 -1.603218000e+00 -2.430640000e-01
3250000.0 -1.564727000e+00 -2.150740000e-01
3340000.0 -1.528140000e+00 -1.908340000e-01
3430000.0 -1.494616000e+00 -1.706090000e-01
3520000.0 -1.464228000e+00 -1.511570000e-01
3610000.0 -1.435166000e+00 -1.337880000e-01
3700000.0 -1.405667000e+00 -1.179800000e-01
3790000.0 -1.381188000e+00 -1.009900000e-01
3880000.0 -1.358747000e+00 -8.713800000e-02
3970000.0 -1.336185000e+00 -7.219800000e-02
4060000.0 -1.315236000e+00 -6.026600000e-02
4150000.0 -1.296735000e+00 -4.787900000e-02
4240000.0 -1.279610000e+00 -3.574800000e-02
4330000.0 -1.265770000e+00 -2.289000000e-02
4420000.0 -1.249372000e+00 -1.119200000e-02
4510000.0 -1.236100000e+00 1.491000000e-03
4600000.0 -1.223179000e+00 1.120800000e-02
4690000.0 -1.212883000e+00 2.334900000e-02
4780000.0 -1.201868000e+00 3.401700000e-02
4870000.0 -1.192657000e+00 4.466200000e-02
4960000.0 -1.186220000e+00 5.627900000e-02
5050000.0 -1.169592000e+00 6.503000000e-02
5140000.0 -1.164254000e+00 7.638200000e-02
5230000.0 -1.158928000e+00 8.982000000e-02
5320000.0 -1.153928000e+00 1.001510000e-01
5410000.0 -1.149021000e+00 1.093920000e-01
5500000.0 -1.144641000e+00 1.191300000e-01
5590000.0 -1.139024000e+00 1.304980000e-01
5680000.0 -1.137089000e+00 1.407250000e-01
5770000.0 -1.130098000e+00 1.491800000e-01
5860000.0 -1.128139000e+00 1.578700000e-01
5950000.0 -1.123423000e+00 1.664330000e-01
6040000.0 -1.121291000e+00 1.755840000e-01
6130000.0 -1.118974000e+00 1.849240000e-01
6220000.0 -1.115267000e+00 1.917840000e-01
6310000.0 -1.111799000e+00 2.005980000e-01
6400000.0 -1.109399000e+00 2.071010000e-01
6490000.0 -1.106082000e+00 2.140880000e-01
6580000.0 -1.105843000e+00 2.200770000e-01
6670000.0 -1.103730000e+00 2.259110000e-01
6760000.0 -1.102850000e+00 2.314870000e-01
6850000.0 -1.101158000e+00 2.376350000e-01
6940000.0 -1.101281000e+00 2.404600000e-01
7030000.0 -1.098507000e+00 2.436850000e-01
7120000.0 -1.098575000e+00 2.467800000e-01
7210000.0 -1.097707000e+00 2.486350000e-01
7300000.0 -1.097791000e+00 2.509270000e-01
7390000.0 -1.097294000e+00 2.508360000e-01
7480000.0 -1.097643000e+00 2.515600000e-01
7570000.0 2.037270000e-01 1.069024000e+00
7660000.0 2.032850000e-01 1.070029000e+00
7750000.0 2.026640000e-01 1.070209000e+00
7840000.0 2.020340000e-01 1.070873000e+00
7930000.0 2.003640000e-01 1.070411000e+00
8020000.0 2.013010000e-01 1.070112000e+00
8110000.0 2.000320000e-01 1.071628000e+00
8200000.0 1.982700000e-01 1.071353000e+00
8290000.0 1.978480000e-01 1.072856000e+00
8380000.0 1.985570000e-01 1.072488000e+00
8470000.0 1.973610000e-01 1.072382000e+00
8560000.0 1.959310000e-01 1.074025000e+00
8650000.0 1.960810000e-01 1.074031000e+00
8740000.0 1.947100000e-01 1.074780000e+00
8830000.0 1.944970000e-01 1.075226000e+00
8920000.0 1.947340000e-01 1.075198000e+00
9010000.0 1.937310000e-01 1.076451000e+00
9100000.0 1.929210000e-01 1.077072000e+00
9190000.0 1.927070000e-01 1.077138000e+00
9280000.0 1.914950000e-01 1.077308000e+00
9370000.0 1.915840000e-01 1.078194000e+00
9460000.0 1.899780000e-01 1.078705000e+00
9550000.0 1.901310000e-01 1.078579000e+00
9640000.0 1.899460000e-01 1.079545000e+00
9730000.0 1.888450000e-01 1.080009000e+00
9820000.0 1.885730000e-01 1.080668000e+00
9910000.0 1.871800000e-01 1.082453000e+00
10000000.0 1.863510000e-01 1.081448000e+00
10900000.0 1.809570000e-01 1.091450000e+00
11800000.0 1.765240000e-01 1.098204000e+00
12700000.0 1.702360000e-01 1.107113000e+00
13600000.0 1.657110000e-01 1.114223000e+00
14500000.0 1.598820000e-01 1.122778000e+00
15400000.0 1.540850000e-01 1.132262000e+00
16300000.0 1.480300000e-01 1.140926000e+00
17200000.0 1.427540000e-01 1.148939000e+00
18100000.0 1.352000000e-01 1.160185000e+00
19000000.0 1.300220000e-01 1.167788000e+00
19900000.0 1.232740000e-01 1.178746000e+00
20800000.0 1.163300000e-01 1.187174000e+00
21700000.0 1.076100000e-01 1.197826000e+00
22600000.0 1.003080000e-01 1.207399000e+00
23500000.0 9.228400000e-02 1.216749000e+00
24400000.0 8.458900000e-02 1.228720000e+00
25300000.0 7.608700000e-02 1.236770000e+00
26200000.0 6.563300000e-02 1.247074000e+00
27100000.0 5.631000000e-02 1.257572000e+00
28000000.0 4.699800000e-02 1.268988000e+00
28900000.0 3.693900000e-02 1.278790000e+00
29800000.0 2.516300000e-02 1.289495000e+00
30700000.0 1.413800000e-02 1.297877000e+00
31600000.0 2.887000000e-03 1.310910000e+00
32500000.0 -8.835000000e-03 1.318436000e+00
33400000.0 -2.151100000e-02 1.329365000e+00
34300000.0 -3.474100000e-02 1.341341000e+00
35200000.0 -4.841200000e-02 1.352101000e+00
36100000.0 -6.132100000e-02 1.359658000e+00
37000000.0 -7.656500000e-02 1.371056000e+00
37900000.0 -9.063300000e-02 1.380561000e+00
38800000.0 -1.072210000e-01 1.390856000e+00
39700000.0 -1.212140000e-01 1.397701000e+00
40600000.0 -1.380790000e-01 1.407535000e+00
41500000.0 -1.529620000e-01 1.415979000e+00
42400000.0 -1.699930000e-01 1.425157000e+00
43300000.0 -1.859250000e-01 1.433524000e+00
44200000.0 -2.061560000e-01 1.441871000e+00
45100000.0 -2.251360000e-01 1.449072000e+00
46000000.0 -2.427250000e-01 1.454828000e+00
46900000.0 -2.628840000e-01 1.462589000e+00
47800000.0 -2.810320000e-01 1.468565000e+00
48700000.0 -3.012930000e-01 1.474808000e+00
49600000.0 -3.223260000e-01 1.479933000e+00
50500000.0 -3.430040000e-01 1.484008000e+00
51400000.0 -3.646030000e-01 1.489044000e+00
52300000.0 -3.851410000e-01 1.492320000e+00
53200000.0 -4.052640000e-01 1.495288000e+00
54100000.0 -4.281530000e-01 1.497960000e+00
55000000.0 -4.527730000e-01 1.501652000e+00
55900000.0 -4.740650000e-01 1.502291000e+00
56800000.0 -4.967790000e-01 1.502077000e+00
57700000.0 -5.182910000e-01 1.503142000e+00
58600000.0 -5.415010000e-01 1.501795000e+00
59500000.0 -5.657920000e-01 1.502170000e+00
60400000.0 -5.893740000e-01 1.499754000e+00
61300000.0 -6.115790000e-01 1.496046000e+00
62200000.0 -6.331310000e-01 1.492997000e+00
63100000.0 -6.580940000e-01 1.489220000e+00
64000000.0 -6.817140000e-01 1.483758000e+00
64900000.0 -7.044780000e-01 1.479713000e+00
65800000.0 -7.265980000e-01 1.473226000e+00
66700000.0 -7.521300000e-01 1.467210000e+00
67600000.0 -7.742610000e-01 1.458018000e+00
68500000.0 -7.955940000e-01 1.451005000e+00
69400000.0 -8.175400000e-01 1.442324000e+00
70300000.0 -8.413240000e-01 1.433164000e+00
71200000.0 -8.627080000e-01 1.422868000e+00
72100000.0 -8.849360000e-01 1.411121000e+00
73000000.0 -9.062180000e-01 1.401843000e+00
73900000.0 -9.275210000e-01 1.388389000e+00
74800000.0 -9.484420000e-01 1.374218000e+00
75700000.0 -9.687770000e-01 1.362501000e+00
76600000.0 -9.897060000e-01 1.348449000e+00
77500000.0 -1.007000000e+00 1.333694000e+00
78400000.0 -1.028139000e+00 1.319096000e+00
79300000.0 -1.045958000e+00 1.302018000e+00
80200000.0 -1.063183000e+00 1.287820000e+00
81100000.0 -1.081903000e+00 1.270151000e+00
82000000.0 -1.098859000e+00 1.253464000e+00
82900000.0 -1.115091000e+00 1.235739000e+00
83800000.0 -1.131508000e+00 1.219565000e+00
84700000.0 -1.145320000e+00 1.200403000e+00
85600000.0 -1.159891000e+00 1.181820000e+00
86500000.0 -1.176430000e+00 1.160784000e+00
87400000.0 -1.187648000e+00 1.143035000e+00
88300000.0 -1.202256000e+00 1.123574000e+00
89200000.0 -1.214676000e+00 1.103231000e+00
90100000.0 -1.226840000e+00 1.083313000e+00
91000000.0 -1.234952000e+00 1.061614000e+00
91900000.0 -1.244884000e+00 1.041632000e+00
92800000.0 -1.255862000e+00 1.021323000e+00
93700000.0 -1.262544000e+00 1.000868000e+00
94600000.0 -1.273240000e+00 9.796280000e-01
95500000.0 -1.279662000e+00 9.580070000e-01
96400000.0 -1.286639000e+00 9.359310000e-01
97300000.0 -1.291909000e+00 9.152700000e-01
98200000.0 -1.296711000e+00 8.931360000e-01
99100000.0 -1.302667000e+00 8.733610000e-01
100000000.0 -1.306962000e+00 8.511610000e-01
109000000.0 -1.314347000e+00 6.491430000e-01
118000000.0 -1.275526000e+00 4.776420000e-01
127000000.0 -1.206553000e+00 3.435930000e-01
136000000.0 -1.104695000e+00 2.398620000e-01
145000000.0 -1.026944000e+00 1.678160000e-01
154000000.0 -9.854590000e-01 1.417390000e-01
163000000.0 -9.859590000e-01 1.476330000e-01
172000000.0 -9.883310000e-01 1.532130000e-01
181000000.0 -9.885410000e-01 1.595160000e-01
190000000.0 -9.887670000e-01 1.670960000e-01
199000000.0 -9.890870000e-01 1.732280000e-01
208000000.0 -9.872990000e-01 1.819740000e-01
217000000.0 -9.873070000e-01 1.890360000e-01
226000000.0 -9.859270000e-01 1.963280000e-01
235000000.0 -9.822290000e-01 2.069430000e-01
244000000.0 -9.806710000e-01 2.147000000e-01
253000000.0 -9.766300000e-01 2.232120000e-01
262000000.0 -9.728800000e-01 2.324430000e-01
271000000.0 -9.702330000e-01 2.423480000e-01
280000000.0 -9.654140000e-01 2.508110000e-01
289000000.0 -9.609700000e-01 2.607370000e-01
298000000.0 -9.554290000e-01 2.701220000e-01
307000000.0 -9.543460000e-01 2.759380000e-01
316000000.0 -9.561410000e-01 2.864880000e-01
325000000.0 -9.534030000e-01 2.943300000e-01
334000000.0 -9.554080000e-01 3.028420000e-01
343000000.0 -9.543030000e-01 3.087620000e-01
352000000.0 -9.549270000e-01 3.167990000e-01
361000000.0 -9.603420000e-01 3.101240000e-01
370000000.0 -9.691920000e-01 3.021640000e-01
379000000.0 -9.106070000e-01 3.787690000e-01
388000000.0 -9.233800000e-01 3.754920000e-01
397000000.0 -9.383130000e-01 3.553060000e-01
406000000.0 -9.550250000e-01 3.332000000e-01
415000000.0 -9.285480000e-01 3.708710000e-01
424000000.0 -9.245220000e-01 3.766970000e-01
433000000.0 -9.198600000e-01 3.836200000e-01
442000000.0 -9.135250000e-01 3.912690000e-01
451000000.0 -9.098240000e-01 3.963800000e-01
460000000.0 -9.072620000e-01 4.066840000e-01
469000000.0 -9.059790000e-01 4.159630000e-01
478000000.0 -9.032550000e-01 4.244580000e-01
487000000.0 -9.007970000e-01 4.351850000e-01
496000000.0 -8.981030000e-01 4.427880000e-01
505000000.0 -8.966300000e-01 4.493870000e-01
514000000.0 -8.915290000e-01 4.585930000e-01
523000000.0 -8.881390000e-01 4.635060000e-01
532000000.0 -8.847070000e-01 4.730090000e-01
541000000.0 -8.803350000e-01 4.814010000e-01
550000000.0 -8.794240000e-01 4.829830000e-01
559000000.0 -8.683930000e-01 4.914230000e-01
568000000.0 -8.643140000e-01 4.979040000e-01
577000000.0 -8.583900000e-01 5.045590000e-01
586000000.0 -8.512040000e-01 5.078810000e-01
595000000.0 -8.442350000e-01 5.114580000e-01
604000000.0 -8.392740000e-01 5.192010000e-01
613000000.0 -8.342350000e-01 5.315120000e-01
622000000.0 -8.314460000e-01 5.399890000e-01
631000000.0 -8.237090000e-01 5.450860000e-01
640000000.0 -8.198250000e-01 5.556510000e-01
649000000.0 -8.150940000e-01 5.641540000e-01
658000000.0 -8.066380000e-01 5.690810000e-01
667000000.0 -8.043780000e-01 5.753120000e-01
676000000.0 -8.033150000e-01 5.849260000e-01
685000000.0 -7.945230000e-01 5.919440000e-01
694000000.0 -7.921600000e-01 5.976520000e-01
703000000.0 -7.841110000e-01 6.065410000e-01
712000000.0 -7.772030000e-01 6.048010000e-01
721000000.0 -7.710350000e-01 6.158970000e-01
730000000.0 -7.700820000e-01 6.182270000e-01
739000000.0 -7.610240000e-01 6.229260000e-01
748000000.0 -7.595120000e-01 6.261840000e-01
757000000.0 -7.514300000e-01 6.329260000e-01
766000000.0 -7.463020000e-01 6.402990000e-01
775000000.0 -7.394000000e-01 6.480630000e-01
784000000.0 -7.340700000e-01 6.543680000e-01
793000000.0 -7.288450000e-01 6.620620000e-01
802000000.0 -7.264280000e-01 6.631210000e-01
811000000.0 -7.221410000e-01 6.685130000e-01
820000000.0 -7.159300000e-01 6.769910000e-01
829000000.0 -7.106210000e-01 6.823440000e-01
838000000.0 -7.021030000e-01 6.872080000e-01
847000000.0 -6.970360000e-01 6.952680000e-01
856000000.0 -6.943800000e-01 6.957990000e-01
865000000.0 -6.915940000e-01 7.035060000e-01
874000000.0 -6.800520000e-01 7.111530000e-01
883000000.0 -6.763910000e-01 7.139130000e-01
892000000.0 -6.647020000e-01 7.209370000e-01
901000000.0 -6.638230000e-01 7.237690000e-01
910000000.0 -6.567270000e-01 7.284530000e-01
919000000.0 -6.525190000e-01 7.380080000e-01
928000000.0 -6.484790000e-01 7.443960000e-01
937000000.0 -6.407150000e-01 7.519010000e-01
946000000.0 -6.369420000e-01 7.537690000e-01
955000000.0 -6.310880000e-01 7.615890000e-01
964000000.0 -6.234150000e-01 7.664980000e-01
973000000.0 -6.186930000e-01 7.728670000e-01
982000000.0 -6.124360000e-01 7.773940000e-01
991000000.0 -6.062930000e-01 7.828530000e-01
1000000000.0 -5.964700000e-01 7.888610000e-01
1004500000.0 -5.799790000e-01 7.981270000e-01
1009000000.0 -5.761980000e-01 8.017690000e-01
1013500000.0 -5.715010000e-01 8.038350000e-01
1018000000.0 -5.671780000e-01 8.055940000e-01
1022500000.0 -5.674770000e-01 8.064020000e-01
1027000000.0 -5.594700000e-01 8.111190000e-01
1031500000.0 -5.524860000e-01 8.129770000e-01
1036000000.0 -5.491060000e-01 8.173690000e-01
1040500000.0 -5.458440000e-01 8.154610000e-01
1045000000.0 -5.426750000e-01 8.172430000e-01
1049500000.0 -5.354090000e-01 8.194050000e-01
1054000000.0 -5.344010000e-01 8.178680000e-01
1058500000.0 -5.311740000e-01 8.207640000e-01
1063000000.0 -5.266950000e-01 8.254180000e-01
1067500000.0 -5.269910000e-01 8.282310000e-01
1072000000.0 -5.280490000e-01 8.265210000e-01
1076500000.0 -5.172160000e-01 8.333110000e-01
1081000000.0 -5.159390000e-01 8.337350000e-01
1085500000.0 -5.155420000e-01 8.368480000e-01
1090000000.0 -5.135690000e-01 8.398880000e-01
1094500000.0 -5.089110000e-01 8.408190000e-01
1099000000.0 -5.008860000e-01 8.477780000e-01
1103500000.0 -4.963410000e-01 8.528000000e-01
1108000000.0 -4.934240000e-01 8.565950000e-01
1112500000.0 -4.944360000e-01 8.533070000e-01
1117000000.0 -4.871180000e-01 8.559500000e-01
1121500000.0 -4.821500000e-01 8.592340000e-01
1126000000.0 -5.156510000e-01 8.500000000e-01
1130500000.0 -4.767640000e-01 8.600350000e-01
1135000000.0 -4.694750000e-01 8.640590000e-01
1139500000.0 -4.727310000e-01 8.596890000e-01
1144000000.0 -4.664960000e-01 8.634660000e-01
1148500000.0 -4.653620000e-01 8.636690000e-01
1153000000.0 -4.586450000e-01 8.655870000e-01
1157500000.0 -4.896920000e-01 8.571540000e-01
1162000000.0 -4.526050000e-01 8.697400000e-01
1166500000.0 -4.513690000e-01 8.686800000e-01
1171000000.0 -4.488530000e-01 8.704610000e-01
1175500000.0 -4.387450000e-01 8.717900000e-01
1180000000.0 -4.410540000e-01 8.719440000e-01
1184500000.0 -4.408010000e-01 8.731500000e-01
1189000000.0 -4.306510000e-01 8.760740000e-01
1193500000.0 -4.237920000e-01 8.787980000e-01
1198000000.0 -4.268970000e-01 8.776300000e-01
1202500000.0 -4.234820000e-01 8.791130000e-01
1207000000.0 -4.151410000e-01 8.857050000e-01
1211500000.0 -4.141840000e-01 8.845650000e-01
1216000000.0 -4.107600000e-01 8.889120000e-01
1220500000.0 -4.018280000e-01 8.907580000e-01
1225000000.0 -4.022600000e-01 8.928380000e-01
1229500000.0 -3.990230000e-01 8.961670000e-01
1234000000.0 -3.925110000e-01 8.966000000e-01
1238500000.0 -3.870910000e-01 8.984950000e-01
1243000000.0 -3.840090000e-01 9.012770000e-01
1247500000.0 -3.821390000e-01 9.006680000e-01
1252000000.0 -3.794150000e-01 9.023670000e-01
1256500000.0 -3.723270000e-01 9.040780000e-01
1261000000.0 -3.699900000e-01 9.048940000e-01
1265500000.0 -3.608870000e-01 9.086700000e-01
1270000000.0 -3.632770000e-01 9.096660000e-01
1274500000.0 -3.504620000e-01 9.132010000e-01
1279000000.0 -3.565510000e-01 9.096150000e-01
1283500000.0 -3.464720000e-01 9.159280000e-01
1288000000.0 -3.474720000e-01 9.148360000e-01
1292500000.0 -3.378050000e-01 9.175570000e-01
1297000000.0 -3.319510000e-01 9.108640000e-01
1301500000.0 -3.469030000e-01 9.132880000e-01
1306000000.0 -3.500520000e-01 9.124030000e-01
1310500000.0 -3.250020000e-01 9.204460000e-01
1315000000.0 -3.178670000e-01 9.184640000e-01
1319500000.0 -3.323130000e-01 9.156490000e-01
1324000000.0 -3.164630000e-01 9.187950000e-01
1328500000.0 -2.912630000e-01 9.266200000e-01
1333000000.0 -2.974790000e-01 9.272010000e-01
1337500000.0 -3.152550000e-01 9.170420000e-01
1342000000.0 -3.012600000e-01 9.278010000e-01
1346500000.0 -2.720960000e-01 9.241990000e-01
1351000000.0 -2.859170000e-01 9.248990000e-01
1355500000.0 -2.830580000e-01 9.275930000e-01
1360000000.0 -2.767770000e-01 9.283510000e-01
1364500000.0 -2.701340000e-01 9.315690000e-01
1369000000.0 -2.715200000e-01 9.345340000e-01
1373500000.0 -2.620160000e-01 9.340250000e-01
1378000000.0 -2.574420000e-01 9.364930000e-01
1382500000.0 -2.548140000e-01 9.379100000e-01
1387000000.0 -2.453350000e-01 9.411700000e-01
1391500000.0 -2.427150000e-01 9.415440000e-01
1396000000.0 -2.365380000e-01 9.426780000e-01
1400500000.0 -2.409070000e-01 9.461590000e-01
1405000000.0 -2.329260000e-01 9.408340000e-01
1409500000.0 -2.249260000e-01 9.457700000e-01
1414000000.0 -2.241640000e-01 9.542030000e-01
1418500000.0 -2.222590000e-01 9.424940000e-01
1423000000.0 -2.197400000e-01 9.527480000e-01
1427500000.0 -2.120680000e-01 9.591390000e-01
1432000000.0 -2.048900000e-01 9.509030000e-01
1436500000.0 -1.983650000e-01 9.532290000e-01
1441000000.0 -1.913940000e-01 9.589740000e-01
1445500000.0 -1.886700000e-01 9.512120000e-01
1450000000.0 -1.875600000e-01 9.562150000e-01
