! piloto_corto / corto_cobre / r02
# HZ S RI R 50
50000.0 -9.961330000e-01 -3.935400000e-02
59500.0 -9.953000000e-01 -1.884100000e-02
69000.0 -9.931930000e-01 -9.365000000e-03
78500.0 -9.935230000e-01 -1.066000000e-03
88000.0 -9.949400000e-01 1.351000000e-03
97500.0 -9.962850000e-01 1.197000000e-03
107000.0 -9.953090000e-01 -5.470000000e-04
116500.0 -9.960940000e-01 -4.255000000e-03
126000.0 -9.958200000e-01 -8.138000000e-03
135500.0 -9.956650000e-01 -1.327600000e-02
145000.0 -9.953180000e-01 -1.889900000e-02
154500.0 -9.926620000e-01 -2.553400000e-02
164000.0 -9.866240000e-01 -3.203100000e-02
173500.0 -9.863870000e-01 -3.969000000e-02
183000.0 -9.872470000e-01 -4.614800000e-02
192500.0 -9.896420000e-01 -5.414400000e-02
202000.0 -9.899060000e-01 -6.216300000e-02
211500.0 -9.902090000e-01 -7.117900000e-02
221000.0 -9.904780000e-01 -7.912800000e-02
230500.0 -9.883480000e-01 -8.712300000e-02
240000.0 -9.874680000e-01 -9.591700000e-02
249500.0 -9.902520000e-01 -1.044730000e-01
259000.0 -9.917120000e-01 -1.133660000e-01
268500.0 -9.930080000e-01 -1.221330000e-01
278000.0 -9.943300000e-01 -1.322410000e-01
287500.0 -9.946960000e-01 -1.408580000e-01
297000.0 -9.924540000e-01 -1.489650000e-01
306500.0 -8.918200000e-01 -1.428210000e-01
316000.0 -3.697220000e-01 -5.643200000e-02
325500.0 -2.170880000e-01 -2.844200000e-02
335000.0 -8.152000000e-01 -1.524040000e-01
344500.0 -9.767690000e-01 -1.897430000e-01
354000.0 -9.902750000e-01 -2.024480000e-01
363500.0 -9.924740000e-01 -2.107560000e-01
373000.0 -9.906000000e-01 -2.195170000e-01
382500.0 -9.794990000e-01 -2.263060000e-01
392000.0 -7.508280000e-01 -1.802330000e-01
401500.0 -6.706890000e-01 -1.670990000e-01
411000.0 -8.135000000e-01 -2.107060000e-01
420500.0 -9.404520000e-01 -2.516650000e-01
430000.0 -9.679550000e-01 -2.668870000e-01
439500.0 -9.737830000e-01 -2.775090000e-01
449000.0 -9.746110000e-01 -2.870900000e-01
458500.0 -9.688550000e-01 -2.937040000e-01
468000.0 -9.554010000e-01 -2.980380000e-01
477500.0 -9.617720000e-01 -3.086170000e-01
487000.0 -9.677120000e-01 -3.196020000e-01
496500.0 -9.758300000e-01 -3.303320000e-01
506000.0 -9.847300000e-01 -3.425620000e-01
515500.0 -9.926140000e-01 -3.544000000e-01
525000.0 -9.960340000e-01 -3.632890000e-01
534500.0 -9.965480000e-01 -3.720480000e-01
544000.0 -9.964000000e-01 -3.813550000e-01
553500.0 -9.899580000e-01 -3.876160000e-01
563000.0 -7.546890000e-01 -3.015810000e-01
572500.0 1.007101000e+00 5.146240000e-01
582000.0 1.008032000e+00 5.249120000e-01
591500.0 1.007730000e+00 5.340750000e-01
601000.0 9.585470000e-01 5.162950000e-01
610500.0 6.698200000e-02 5.331500000e-02
620000.0 2.852780000e-01 1.666760000e-01
629500.0 4.516530000e-01 2.598860000e-01
639000.0 4.832100000e-01 2.802790000e-01
648500.0 2.001120000e-01 1.284860000e-01
658000.0 -9.082000000e-01 -4.427460000e-01
667500.0 -9.736730000e-01 -4.811830000e-01
677000.0 -9.868180000e-01 -4.959650000e-01
686500.0 -9.919210000e-01 -5.063390000e-01
696000.0 -9.916670000e-01 -5.156020000e-01
705500.0 -9.772730000e-01 -5.158010000e-01
715000.0 -4.003670000e-01 -2.095970000e-01
724500.0 1.014674000e+00 6.633330000e-01
734000.0 9.051130000e-01 5.967880000e-01
743500.0 1.017977000e+00 6.824680000e-01
753000.0 9.850580000e-01 6.663960000e-01
762500.0 9.669930000e-01 6.628890000e-01
772000.0 -9.962890000e-01 -5.832040000e-01
781500.0 -1.008613000e+00 -5.975550000e-01
791000.0 -1.012017000e+00 -6.070400000e-01
800500.0 -1.013332000e+00 -6.174460000e-01
810000.0 -1.013687000e+00 -6.254630000e-01
819500.0 -1.014583000e+00 -6.318660000e-01
829000.0 -1.012400000e+00 -6.394190000e-01
838500.0 -9.975050000e-01 -6.371940000e-01
848000.0 -8.043010000e-01 -5.203100000e-01
857500.0 -9.322170000e-01 -6.107050000e-01
867000.0 -9.570810000e-01 -6.328530000e-01
876500.0 -9.476170000e-01 -6.334740000e-01
886000.0 -8.743060000e-01 -5.907890000e-01
895500.0 -8.444410000e-01 -5.765620000e-01
905000.0 4.965130000e-01 4.018680000e-01
914500.0 -6.753110000e-01 -4.714840000e-01
924000.0 -8.450620000e-01 -5.954370000e-01
933500.0 -8.564330000e-01 -6.094590000e-01
943000.0 -8.863350000e-01 -6.357920000e-01
952500.0 -9.368720000e-01 -6.797320000e-01
962000.0 -9.596480000e-01 -7.021930000e-01
971500.0 -8.916690000e-01 -6.580230000e-01
981000.0 -1.660700000e-02 1.730700000e-02
990500.0 1.054491000e+00 9.102960000e-01
1000000.0 1.055907000e+00 9.174640000e-01
1090000.0 -1.062849000e+00 -8.594780000e-01
1180000.0 -1.091182000e+00 -9.316420000e-01
1270000.0 -1.128820000e+00 -9.962940000e-01
1360000.0 -1.177650000e+00 -1.058570000e+00
1450000.0 -1.229127000e+00 -1.107126000e+00
1540000.0 -1.291129000e+00 -1.146912000e+00
1630000.0 -1.363048000e+00 -1.175789000e+00
1720000.0 -1.455163000e+00 -1.198206000e+00
1810000.0 -1.542472000e+00 -1.192693000e+00
1900000.0 -1.624837000e+00 -1.167168000e+00
1990000.0 -1.703196000e+00 -1.124504000e+00
2080000.0 -1.771868000e+00 -1.061951000e+00
2170000.0 -1.790190000e+00 -9.716790000e-01
2260000.0 -1.655531000e+00 -8.086740000e-01
2350000.0 -1.354951000e+00 -5.959170000e-01
2440000.0 1.457372000e+00 6.462600000e-01
2530000.0 1.949698000e+00 8.029510000e-01
2620000.0 -1.552605000e+00 -4.794610000e-01
2710000.0 -1.705121000e+00 -4.688940000e-01
2800000.0 -1.774003000e+00 -4.335970000e-01
2890000.0 -1.741365000e+00 -3.813420000e-01
2980000.0 -1.701345000e+00 -3.359720000e-01
3070000.0 -1.661514000e+00 -2.973000000e-01
3160000.0 -1.622750000e+00 -2.616970000e-01
3250000.0 -1.565579000e+00 -2.653150000e-01
3340000.0 -1.483354000e+00 -1.949590000e-01
3430000.0 -1.467155000e+00 -1.767740000e-01
3520000.0 -1.295604000e+00 -1.412140000e-01
3610000.0 -1.366236000e+00 -1.331330000e-01
3700000.0 -1.371146000e+00 -1.194870000e-01
3790000.0 -1.348114000e+00 -1.024310000e-01
3880000.0 -1.342032000e+00 -8.646400000e-02
3970000.0 -1.322528000e+00 -7.313500000e-02
4060000.0 -1.300962000e+00 -6.235800000e-02
4150000.0 -1.262620000e+00 -4.889100000e-02
4240000.0 -1.240300000e+00 -3.506900000e-02
4330000.0 -1.198166000e+00 -2.301600000e-02
4420000.0 -1.180267000e+00 -1.114700000e-02
4510000.0 -1.170439000e+00 -1.069000000e-03
4600000.0 -1.163013000e+00 1.082100000e-02
4690000.0 -1.155157000e+00 2.296900000e-02
4780000.0 -1.145240000e+00 3.223200000e-02
4870000.0 -1.135823000e+00 4.400000000e-02
4960000.0 -1.100536000e+00 5.315000000e-02
5050000.0 -4.549400000e-01 2.506000000e-02
5140000.0 8.602200000e-01 -2.302900000e-02
5230000.0 1.275372000e+00 -3.639000000e-02
5320000.0 9.566870000e-01 -4.384200000e-02
5410000.0 -9.995850000e-01 9.347500000e-02
5500000.0 -1.054982000e+00 1.102420000e-01
5590000.0 -1.071887000e+00 1.221150000e-01
5680000.0 -1.074179000e+00 1.319860000e-01
5770000.0 -1.070536000e+00 1.423300000e-01
5860000.0 -1.012239000e+00 1.426880000e-01
5950000.0 1.241875000e+00 -1.288220000e-01
6040000.0 1.239808000e+00 -1.376450000e-01
6130000.0 1.236753000e+00 -1.488920000e-01
6220000.0 1.226181000e+00 -1.605670000e-01
6310000.0 -9.869570000e-01 1.767590000e-01
6400000.0 -1.067470000e+00 1.996570000e-01
6490000.0 -1.093183000e+00 2.121480000e-01
6580000.0 -1.095365000e+00 2.186010000e-01
6670000.0 -1.067313000e+00 2.198210000e-01
6760000.0 -7.778890000e-01 1.608540000e-01
6850000.0 1.221146000e+00 -2.086910000e-01
6940000.0 1.219256000e+00 -2.119850000e-01
7030000.0 1.219706000e+00 -2.162260000e-01
7120000.0 1.218531000e+00 -2.192430000e-01
7210000.0 1.217100000e+00 -2.221330000e-01
7300000.0 1.218820000e+00 -2.254300000e-01
7390000.0 1.217175000e+00 -2.302730000e-01
7480000.0 9.608210000e-01 -1.911430000e-01
7570000.0 9.558100000e-02 5.651520000e-01
7660000.0 1.208900000e-01 6.830470000e-01
7750000.0 5.420100000e-02 3.717050000e-01
7840000.0 -2.516370000e-01 -1.090427000e+00
7930000.0 -2.799350000e-01 -1.254543000e+00
8020000.0 -2.787090000e-01 -1.257190000e+00
8110000.0 -2.792650000e-01 -1.256567000e+00
8200000.0 -2.797200000e-01 -1.256385000e+00
8290000.0 -2.830480000e-01 -1.257828000e+00
8380000.0 -2.059690000e-01 -8.613110000e-01
8470000.0 1.538800000e-02 1.985660000e-01
8560000.0 8.220000000e-02 5.254340000e-01
8650000.0 5.433100000e-02 3.919720000e-01
8740000.0 -2.800700000e-01 -1.260188000e+00
8830000.0 -2.733250000e-01 -1.260797000e+00
8920000.0 -2.717340000e-01 -1.260734000e+00
9010000.0 -2.712220000e-01 -1.262839000e+00
9100000.0 -2.702600000e-01 -1.262611000e+00
9190000.0 -2.699920000e-01 -1.263485000e+00
9280000.0 -2.712230000e-01 -1.264481000e+00
9370000.0 -2.722180000e-01 -1.264794000e+00
9460000.0 -2.826350000e-01 -1.262025000e+00
9550000.0 7.550900000e-02 5.118690000e-01
9640000.0 1.378150000e-01 8.171520000e-01
9730000.0 1.430190000e-01 8.539930000e-01
9820000.0 1.248720000e-01 7.611950000e-01
9910000.0 4.186600000e-02 3.453940000e-01
10000000.0 -2.744850000e-01 -1.269675000e+00
10900000.0 -2.708340000e-01 -1.277354000e+00
11800000.0 -2.662310000e-01 -1.287029000e+00
12700000.0 -2.629520000e-01 -1.296364000e+00
13600000.0 -2.632630000e-01 -1.307679000e+00
14500000.0 3.358300000e-02 3.679150000e-01
15400000.0 1.284270000e-01 9.769070000e-01
16300000.0 1.407620000e-01 1.093281000e+00
17200000.0 1.341330000e-01 1.103288000e+00
18100000.0 1.287420000e-01 1.111342000e+00
19000000.0 1.199310000e-01 1.111442000e+00
19900000.0 9.730400000e-02 9.855280000e-01
20800000.0 -2.491040000e-01 -1.398516000e+00
21700000.0 -2.415400000e-01 -1.410894000e+00
22600000.0 -2.374030000e-01 -1.423394000e+00
23500000.0 -2.323750000e-01 -1.438545000e+00
24400000.0 -2.329590000e-01 -1.451315000e+00
25300000.0 3.555400000e-02 7.431550000e-01
26200000.0 5.119900000e-02 1.062782000e+00
27100000.0 4.811000000e-02 1.157720000e+00
28000000.0 4.118600000e-02 1.203002000e+00
28900000.0 3.145200000e-02 1.213546000e+00
29800000.0 2.090900000e-02 1.218371000e+00
30700000.0 1.000800000e-02 1.222451000e+00
31600000.0 -4.250000000e-04 1.242660000e+00
32500000.0 -1.776600000e-01 -1.581032000e+00
33400000.0 -1.602000000e-01 -1.598059000e+00
34300000.0 -1.460200000e-01 -1.613621000e+00
35200000.0 -1.356890000e-01 -1.630046000e+00
36100000.0 -1.221880000e-01 -1.647146000e+00
37000000.0 -1.115830000e-01 -1.662508000e+00
37900000.0 -1.005070000e-01 -1.677802000e+00
38800000.0 -8.910600000e-02 -1.694067000e+00
39700000.0 -7.042400000e-02 -1.269986000e+00
40600000.0 -7.449900000e-02 -1.727118000e+00
41500000.0 -6.963900000e-02 -1.743374000e+00
42400000.0 -7.274800000e-02 -1.757306000e+00
43300000.0 -6.428200000e-02 -1.772918000e+00
44200000.0 -3.841900000e-02 -1.790514000e+00
45100000.0 1.455000000e-03 -1.808045000e+00
46000000.0 3.115000000e-02 -1.823790000e+00
46900000.0 6.148400000e-02 -1.838820000e+00
47800000.0 8.944100000e-02 -1.854054000e+00
48700000.0 1.172920000e-01 -1.868908000e+00
49600000.0 1.432410000e-01 -1.882825000e+00
50500000.0 1.705760000e-01 -1.896711000e+00
51400000.0 1.969230000e-01 -1.909498000e+00
52300000.0 2.203020000e-01 -1.922124000e+00
53200000.0 2.443620000e-01 -1.934213000e+00
54100000.0 2.692360000e-01 -1.946581000e+00
55000000.0 2.906060000e-01 -1.957938000e+00
55900000.0 3.162510000e-01 -1.968326000e+00
56800000.0 3.407610000e-01 -1.976997000e+00
57700000.0 3.697380000e-01 -1.985897000e+00
58600000.0 4.027740000e-01 -1.994043000e+00
59500000.0 4.339260000e-01 -2.001363000e+00
60400000.0 4.671870000e-01 -2.004948000e+00
61300000.0 4.994710000e-01 -2.008511000e+00
62200000.0 5.337890000e-01 -2.010403000e+00
63100000.0 5.665030000e-01 -2.010803000e+00
64000000.0 5.964860000e-01 -2.012090000e+00
64900000.0 6.318090000e-01 -2.011402000e+00
65800000.0 6.640350000e-01 -2.007388000e+00
66700000.0 7.003480000e-01 -1.998554000e+00
67600000.0 7.392370000e-01 -1.994469000e+00
68500000.0 7.807430000e-01 -1.980895000e+00
69400000.0 8.211460000e-01 -1.969562000e+00
70300000.0 8.598650000e-01 -1.956507000e+00
71200000.0 8.912070000e-01 -1.944290000e+00
72100000.0 9.214900000e-01 -1.932331000e+00
73000000.0 9.439540000e-01 -1.918034000e+00
73900000.0 9.675730000e-01 -1.904477000e+00
74800000.0 9.903330000e-01 -1.892290000e+00
75700000.0 1.013960000e+00 -1.874958000e+00
76600000.0 1.042059000e+00 -1.855570000e+00
77500000.0 1.071669000e+00 -1.830807000e+00
78400000.0 1.108395000e+00 -1.800022000e+00
79300000.0 1.139894000e+00 -1.771290000e+00
80200000.0 1.168633000e+00 -1.739229000e+00
81100000.0 1.193332000e+00 -1.710956000e+00
82000000.0 1.214172000e+00 -1.683792000e+00
82900000.0 1.231583000e+00 -1.657171000e+00
83800000.0 1.243291000e+00 -1.630430000e+00
84700000.0 1.258285000e+00 -1.603759000e+00
85600000.0 1.274983000e+00 -1.574125000e+00
86500000.0 1.297862000e+00 -1.537704000e+00
87400000.0 1.319176000e+00 -1.497602000e+00
88300000.0 1.337892000e+00 -1.456139000e+00
89200000.0 1.354236000e+00 -1.419945000e+00
90100000.0 1.364085000e+00 -1.388332000e+00
91000000.0 1.366309000e+00 -1.363107000e+00
91900000.0 1.357110000e+00 -1.349270000e+00
92800000.0 1.334778000e+00 -1.348716000e+00
93700000.0 1.258577000e+00 -1.405092000e+00
94600000.0 1.181660000e-01 -3.306670000e-01
95500000.0 -2.006700000e-01 -1.752300000e-02
96400000.0 1.272737000e+00 -1.317582000e+00
97300000.0 1.354028000e+00 -1.199251000e+00
98200000.0 1.373177000e+00 -1.146596000e+00
99100000.0 1.380337000e+00 -1.106824000e+00
100000000.0 1.381509000e+00 -1.078048000e+00
109000000.0 1.367316000e+00 -7.726290000e-01
118000000.0 1.267978000e+00 -6.102510000e-01
127000000.0 1.166593000e+00 -4.967670000e-01
136000000.0 1.059679000e+00 -4.409530000e-01
145000000.0 9.778100000e-01 -3.647860000e-01
154000000.0 9.212660000e-01 -3.671610000e-01
163000000.0 9.043570000e-01 -4.040070000e-01
172000000.0 9.028330000e-01 -4.098760000e-01
181000000.0 8.945190000e-01 -4.291280000e-01
190000000.0 8.848690000e-01 -4.471800000e-01
199000000.0 8.755250000e-01 -4.620230000e-01
208000000.0 8.699770000e-01 -4.772550000e-01
217000000.0 8.613040000e-01 -4.909340000e-01
226000000.0 8.531550000e-01 -5.028330000e-01
235000000.0 8.447570000e-01 -5.136280000e-01
244000000.0 8.360520000e-01 -5.273610000e-01
253000000.0 8.273030000e-01 -5.408360000e-01
262000000.0 8.174910000e-01 -5.548730000e-01
271000000.0 8.044840000e-01 -5.706630000e-01
280000000.0 7.918010000e-01 -5.872830000e-01
289000000.0 7.801720000e-01 -6.041470000e-01
298000000.0 7.632810000e-01 -6.190620000e-01
307000000.0 7.506340000e-01 -6.359870000e-01
316000000.0 7.408200000e-01 -6.522370000e-01
325000000.0 7.253810000e-01 -6.655760000e-01
334000000.0 7.120890000e-01 -6.800000000e-01
343000000.0 7.006040000e-01 -6.973490000e-01
352000000.0 6.822520000e-01 -7.108500000e-01
361000000.0 6.676970000e-01 -7.282430000e-01
370000000.0 6.512400000e-01 -7.406880000e-01
379000000.0 6.187550000e-01 -7.597580000e-01
388000000.0 5.760250000e-01 -7.890700000e-01
397000000.0 6.153720000e-01 -7.693270000e-01
406000000.0 5.863500000e-01 -7.805330000e-01
415000000.0 5.991910000e-01 -7.787770000e-01
424000000.0 5.909010000e-01 -7.827710000e-01
433000000.0 5.794480000e-01 -7.893870000e-01
442000000.0 5.687940000e-01 -7.951510000e-01
451000000.0 5.568000000e-01 -8.029900000e-01
460000000.0 5.453600000e-01 -8.127860000e-01
469000000.0 5.337260000e-01 -8.232170000e-01
478000000.0 5.187420000e-01 -8.356330000e-01
487000000.0 5.089150000e-01 -8.447130000e-01
496000000.0 4.941820000e-01 -8.528940000e-01
505000000.0 4.796370000e-01 -8.645300000e-01
514000000.0 4.625280000e-01 -8.749820000e-01
523000000.0 4.457530000e-01 -8.829320000e-01
532000000.0 4.326530000e-01 -8.896440000e-01
541000000.0 4.170890000e-01 -8.975850000e-01
550000000.0 4.043380000e-01 -9.038530000e-01
559000000.0 3.883120000e-01 -9.096080000e-01
568000000.0 3.788940000e-01 -9.128790000e-01
577000000.0 3.666950000e-01 -9.130880000e-01
586000000.0 3.564870000e-01 -9.170400000e-01
595000000.0 3.408950000e-01 -9.231500000e-01
604000000.0 3.249240000e-01 -9.278010000e-01
613000000.0 3.123500000e-01 -9.363520000e-01
622000000.0 2.951560000e-01 -9.443580000e-01
631000000.0 2.758310000e-01 -9.535360000e-01
640000000.0 2.569210000e-01 -9.605270000e-01
649000000.0 2.398330000e-01 -9.696760000e-01
658000000.0 2.147650000e-01 -9.753850000e-01
667000000.0 1.923990000e-01 -9.809490000e-01
676000000.0 1.732170000e-01 -9.816880000e-01
685000000.0 1.545910000e-01 -9.855320000e-01
694000000.0 1.372560000e-01 -9.864200000e-01
703000000.0 1.217290000e-01 -9.891650000e-01
712000000.0 1.103430000e-01 -9.899410000e-01
721000000.0 9.411500000e-02 -9.825200000e-01
730000000.0 8.281700000e-02 -9.827440000e-01
739000000.0 7.223200000e-02 -9.785490000e-01
748000000.0 6.317600000e-02 -9.737370000e-01
757000000.0 5.641100000e-02 -9.743770000e-01
766000000.0 4.418600000e-02 -9.765210000e-01
775000000.0 2.930900000e-02 -9.784090000e-01
784000000.0 1.450500000e-02 -9.798800000e-01
793000000.0 -8.760000000e-04 -9.804110000e-01
802000000.0 -2.157700000e-02 -9.817670000e-01
811000000.0 -4.751700000e-02 -9.800800000e-01
820000000.0 -6.962000000e-02 -9.775150000e-01
829000000.0 -9.556200000e-02 -9.759500000e-01
838000000.0 -1.187120000e-01 -9.728350000e-01
847000000.0 -1.415330000e-01 -9.674320000e-01
856000000.0 -1.576160000e-01 -9.648990000e-01
865000000.0 -1.630530000e-01 -9.636080000e-01
874000000.0 -1.708670000e-01 -9.614240000e-01
883000000.0 -1.813140000e-01 -9.569690000e-01
892000000.0 -1.847790000e-01 -9.560870000e-01
901000000.0 -1.916740000e-01 -9.532870000e-01
910000000.0 -2.037190000e-01 -9.500540000e-01
919000000.0 -2.157940000e-01 -9.460140000e-01
928000000.0 -2.301830000e-01 -9.420610000e-01
937000000.0 -2.449700000e-01 -9.385840000e-01
946000000.0 -2.581330000e-01 -9.346120000e-01
955000000.0 -2.780690000e-01 -9.289340000e-01
964000000.0 -2.946430000e-01 -9.224460000e-01
973000000.0 -3.062000000e-01 -9.197320000e-01
982000000.0 -3.323330000e-01 -9.100310000e-01
991000000.0 -3.546380000e-01 -9.032630000e-01
1000000000.0 -3.838100000e-01 -8.915980000e-01
1004500000.0 -6.440700000e-01 7.646800000e-01
1009000000.0 -6.389760000e-01 7.681260000e-01
1013500000.0 -6.374740000e-01 7.695090000e-01
1018000000.0 -6.324550000e-01 7.712800000e-01
1022500000.0 -6.300750000e-01 7.749090000e-01
1027000000.0 -6.248260000e-01 7.786710000e-01
1031500000.0 -6.242470000e-01 7.767110000e-01
1036000000.0 -6.140810000e-01 7.823680000e-01
1040500000.0 -6.096190000e-01 7.875970000e-01
1045000000.0 -6.116480000e-01 7.836320000e-01
1049500000.0 -6.035950000e-01 7.889130000e-01
1054000000.0 -6.020300000e-01 7.916470000e-01
1058500000.0 -5.989780000e-01 7.943880000e-01
1063000000.0 -5.957510000e-01 7.986340000e-01
1067500000.0 -5.915250000e-01 8.016450000e-01
1072000000.0 -5.914400000e-01 8.034630000e-01
1076500000.0 -5.859510000e-01 8.097880000e-01
1081000000.0 -5.843500000e-01 8.125890000e-01
1085500000.0 -5.808750000e-01 8.134780000e-01
1090000000.0 -5.794170000e-01 8.151340000e-01
1094500000.0 -5.771660000e-01 8.187340000e-01
1099000000.0 -5.702370000e-01 8.244260000e-01
1103500000.0 -5.674400000e-01 8.254640000e-01
1108000000.0 -5.663210000e-01 8.280840000e-01
1112500000.0 -5.633820000e-01 8.305300000e-01
1117000000.0 -5.535010000e-01 8.352930000e-01
1121500000.0 -5.583690000e-01 8.358470000e-01
1126000000.0 -5.567480000e-01 8.368240000e-01
1130500000.0 -5.459720000e-01 8.418590000e-01
1135000000.0 -5.441710000e-01 8.420040000e-01
1139500000.0 -5.333430000e-01 8.471960000e-01
1144000000.0 -5.354440000e-01 8.471770000e-01
1148500000.0 -5.315090000e-01 8.482850000e-01
1153000000.0 -5.276430000e-01 8.509510000e-01
1157500000.0 -5.194850000e-01 8.561390000e-01
1162000000.0 -5.356930000e-01 8.555070000e-01
1166500000.0 -5.144040000e-01 8.576720000e-01
1171000000.0 -5.098250000e-01 8.556760000e-01
1175500000.0 -5.014690000e-01 8.633330000e-01
1180000000.0 -5.012450000e-01 8.610350000e-01
1184500000.0 -4.896120000e-01 8.660140000e-01
1189000000.0 -4.892270000e-01 8.633380000e-01
1193500000.0 -4.851060000e-01 8.655320000e-01
1198000000.0 -4.780220000e-01 8.645940000e-01
1202500000.0 -4.819670000e-01 8.674220000e-01
1207000000.0 -4.771170000e-01 8.665230000e-01
1211500000.0 -4.736110000e-01 8.695630000e-01
1216000000.0 -4.710610000e-01 8.738690000e-01
1220500000.0 -4.620270000e-01 8.775100000e-01
1225000000.0 -4.605730000e-01 8.785650000e-01
1229500000.0 -4.572750000e-01 8.829850000e-01
1234000000.0 -4.515510000e-01 8.848380000e-01
1238500000.0 -4.443810000e-01 8.922290000e-01
1243000000.0 -4.463760000e-01 8.890740000e-01
1247500000.0 -4.398940000e-01 8.921320000e-01
1252000000.0 -4.357540000e-01 8.950890000e-01
1256500000.0 -4.358010000e-01 8.967280000e-01
1261000000.0 -4.372190000e-01 8.973980000e-01
1265500000.0 -4.290460000e-01 8.996110000e-01
1270000000.0 -4.185670000e-01 9.014120000e-01
1274500000.0 -4.145530000e-01 9.006820000e-01
1279000000.0 -4.123790000e-01 9.032730000e-01
1283500000.0 -4.075880000e-01 9.044070000e-01
1288000000.0 -3.992590000e-01 9.075250000e-01
1292500000.0 -3.968360000e-01 9.086870000e-01
1297000000.0 -3.948450000e-01 9.086680000e-01
1301500000.0 -3.929480000e-01 9.129580000e-01
1306000000.0 -3.870590000e-01 9.104250000e-01
1310500000.0 -3.828560000e-01 9.134260000e-01
1315000000.0 -3.795080000e-01 9.120690000e-01
1319500000.0 -3.778440000e-01 9.143280000e-01
1324000000.0 -3.686990000e-01 9.138720000e-01
1328500000.0 -3.622440000e-01 9.158060000e-01
1333000000.0 -3.644480000e-01 9.155600000e-01
1337500000.0 -3.589160000e-01 9.110380000e-01
1342000000.0 -3.524070000e-01 9.184540000e-01
1346500000.0 -3.409770000e-01 9.173650000e-01
1351000000.0 -3.391630000e-01 9.168240000e-01
1355500000.0 -3.430680000e-01 9.212340000e-01
1360000000.0 -3.267620000e-01 9.244320000e-01
1364500000.0 -3.314330000e-01 9.285790000e-01
1369000000.0 -3.290700000e-01 9.256450000e-01
1373500000.0 -3.227340000e-01 9.281760000e-01
1378000000.0 -3.155840000e-01 9.334460000e-01
1382500000.0 -3.143460000e-01 9.267720000e-01
1387000000.0 -2.983480000e-01 9.348600000e-01
1391500000.0 -3.057700000e-01 9.335320000e-01
1396000000.0 -2.965920000e-01 9.368080000e-01
1400500000.0 -2.951610000e-01 9.407410000e-01
1405000000.0 -2.922590000e-01 9.427010000e-01
1409500000.0 -2.832130000e-01 9.397400000e-01
1414000000.0 -2.769130000e-01 9.472980000e-01
1418500000.0 -2.714060000e-01 9.472180000e-01
1423000000.0 -2.633200000e-01 9.425660000e-01
1427500000.0 -2.669570000e-01 9.417430000e-01
1432000000.0 -2.655690000e-01 9.515980000e-01
1436500000.0 -2.611890000e-01 9.525150000e-01
1441000000.0 -2.552280000e-01 9.527160000e-01
1445500000.0 -2.528180000e-01 9.555930000e-01
1450000000.0 -2.429230000e-01 9.567540000e-01
