! piloto_corto / aire / r19
# HZ S RI R 50
50000.0 1.005404000e+00 -7.155900000e-02
59500.0 1.002655000e+00 -5.710000000e-02
69000.0 1.003551000e+00 -4.481900000e-02
78500.0 1.002476000e+00 -3.134700000e-02
88000.0 1.001197000e+00 -1.799800000e-02
97500.0 1.000251000e+00 -7.427000000e-03
107000.0 9.995660000e-01 6.237000000e-03
116500.0 9.999310000e-01 1.810600000e-02
126000.0 1.002480000e+00 3.000900000e-02
135500.0 1.000110000e+00 4.150900000e-02
145000.0 1.001490000e+00 5.394900000e-02
154500.0 1.001376000e+00 6.693900000e-02
164000.0 1.000878000e+00 7.809200000e-02
173500.0 1.001641000e+00 8.993700000e-02
183000.0 1.002497000e+00 1.015220000e-01
192500.0 1.002885000e+00 1.122940000e-01
202000.0 1.002963000e+00 1.243540000e-01
211500.0 1.003372000e+00 1.363120000e-01
221000.0 1.003817000e+00 1.473130000e-01
230500.0 1.003751000e+00 1.585350000e-01
240000.0 1.003932000e+00 1.699880000e-01
249500.0 1.003922000e+00 1.808340000e-01
259000.0 1.004652000e+00 1.920190000e-01
268500.0 1.004341000e+00 2.038760000e-01
278000.0 1.004430000e+00 2.146850000e-01
287500.0 1.004508000e+00 2.254120000e-01
297000.0 1.005524000e+00 2.364010000e-01
306500.0 1.005881000e+00 2.471630000e-01
316000.0 1.005780000e+00 2.579630000e-01
325500.0 1.006320000e+00 2.682940000e-01
335000.0 1.006097000e+00 2.794700000e-01
344500.0 1.006013000e+00 2.899520000e-01
354000.0 1.006494000e+00 3.001030000e-01
363500.0 1.006507000e+00 3.112110000e-01
373000.0 1.005914000e+00 3.208290000e-01
382500.0 1.007350000e+00 3.312070000e-01
392000.0 1.006892000e+00 3.421000000e-01
401500.0 1.007341000e+00 3.521350000e-01
411000.0 1.007357000e+00 3.625260000e-01
420500.0 1.007930000e+00 3.724670000e-01
430000.0 1.008142000e+00 3.835150000e-01
439500.0 1.008601000e+00 3.927580000e-01
449000.0 1.008412000e+00 4.027010000e-01
458500.0 1.009016000e+00 4.140330000e-01
468000.0 1.008921000e+00 4.231300000e-01
477500.0 1.010005000e+00 4.335150000e-01
487000.0 1.009661000e+00 4.429280000e-01
496500.0 1.010018000e+00 4.540400000e-01
506000.0 1.010060000e+00 4.634900000e-01
515500.0 1.010878000e+00 4.737080000e-01
525000.0 1.010956000e+00 4.835070000e-01
534500.0 1.010380000e+00 4.931700000e-01
544000.0 1.010578000e+00 5.018830000e-01
553500.0 1.011645000e+00 5.123000000e-01
563000.0 1.012336000e+00 5.219140000e-01
572500.0 1.013383000e+00 5.314410000e-01
582000.0 1.013237000e+00 5.408140000e-01
591500.0 1.014148000e+00 5.511130000e-01
601000.0 1.013618000e+00 5.595350000e-01
610500.0 1.014562000e+00 5.703150000e-01
620000.0 1.014791000e+00 5.795590000e-01
629500.0 1.015565000e+00 5.894000000e-01
639000.0 1.016377000e+00 5.995570000e-01
648500.0 1.016853000e+00 6.084020000e-01
658000.0 1.017604000e+00 6.177090000e-01
667500.0 1.018575000e+00 6.266740000e-01
677000.0 1.018832000e+00 6.365090000e-01
686500.0 1.020202000e+00 6.449510000e-01
696000.0 1.019927000e+00 6.548870000e-01
705500.0 1.021060000e+00 6.635320000e-01
715000.0 1.022387000e+00 6.740430000e-01
724500.0 1.022093000e+00 6.826300000e-01
734000.0 1.023017000e+00 6.918220000e-01
743500.0 1.025685000e+00 7.005500000e-01
753000.0 1.025917000e+00 7.105460000e-01
762500.0 1.026993000e+00 7.189120000e-01
772000.0 1.027547000e+00 7.286010000e-01
781500.0 1.029837000e+00 7.383820000e-01
791000.0 1.029926000e+00 7.477760000e-01
800500.0 1.030685000e+00 7.557270000e-01
810000.0 1.031833000e+00 7.651620000e-01
819500.0 1.035031000e+00 7.749130000e-01
829000.0 1.036392000e+00 7.836890000e-01
838500.0 1.036500000e+00 7.924990000e-01
848000.0 1.038765000e+00 8.004750000e-01
857500.0 1.039452000e+00 8.102180000e-01
867000.0 1.042697000e+00 8.198880000e-01
876500.0 1.043027000e+00 8.285160000e-01
886000.0 1.045187000e+00 8.361450000e-01
895500.0 1.047541000e+00 8.452660000e-01
905000.0 1.048240000e+00 8.541830000e-01
914500.0 1.050262000e+00 8.641350000e-01
924000.0 1.054745000e+00 8.719600000e-01
933500.0 1.054309000e+00 8.810440000e-01
943000.0 1.056731000e+00 8.898410000e-01
952500.0 1.059883000e+00 8.984380000e-01
962000.0 1.061214000e+00 9.079590000e-01
971500.0 1.064013000e+00 9.153440000e-01
981000.0 1.068058000e+00 9.260940000e-01
990500.0 1.069032000e+00 9.338260000e-01
1000000.0 1.070397000e+00 9.429380000e-01
1090000.0 1.100012000e+00 1.020759000e+00
1180000.0 1.134439000e+00 1.094993000e+00
1270000.0 1.181562000e+00 1.165967000e+00
1360000.0 1.237258000e+00 1.228582000e+00
1450000.0 1.301951000e+00 1.281289000e+00
1540000.0 1.378756000e+00 1.323157000e+00
1630000.0 1.463163000e+00 1.345877000e+00
1720000.0 1.552525000e+00 1.353140000e+00
1810000.0 1.638586000e+00 1.337687000e+00
1900000.0 1.727544000e+00 1.306101000e+00
1990000.0 1.804489000e+00 1.252192000e+00
2080000.0 1.867041000e+00 1.185538000e+00
2170000.0 1.916792000e+00 1.101800000e+00
2260000.0 1.948542000e+00 1.014298000e+00
2350000.0 1.960964000e+00 9.241910000e-01
2440000.0 1.959628000e+00 8.384600000e-01
2530000.0 1.947419000e+00 7.551600000e-01
2620000.0 1.924096000e+00 6.793950000e-01
2710000.0 1.890883000e+00 6.128210000e-01
2800000.0 1.859215000e+00 5.520820000e-01
2890000.0 1.842677000e+00 6.271380000e-01
2980000.0 1.780523000e+00 4.515510000e-01
3070000.0 1.740466000e+00 4.139130000e-01
3160000.0 1.703717000e+00 3.749990000e-01
3250000.0 1.666982000e+00 3.436870000e-01
3340000.0 1.632127000e+00 3.169530000e-01
3430000.0 1.599071000e+00 2.903800000e-01
3520000.0 1.567760000e+00 2.647950000e-01
3610000.0 1.540313000e+00 2.434670000e-01
3700000.0 1.513358000e+00 2.243260000e-01
3790000.0 1.489503000e+00 2.059300000e-01
3880000.0 1.465278000e+00 1.870210000e-01
3970000.0 1.442536000e+00 1.731970000e-01
4060000.0 1.423672000e+00 1.569070000e-01
4150000.0 1.404431000e+00 1.394810000e-01
4240000.0 1.386674000e+00 1.249570000e-01
4330000.0 1.371560000e+00 1.107530000e-01
4420000.0 1.357019000e+00 9.754200000e-02
4510000.0 1.345045000e+00 8.390400000e-02
4600000.0 1.331579000e+00 6.953700000e-02
4690000.0 1.321126000e+00 5.643300000e-02
4780000.0 1.310833000e+00 4.368400000e-02
4870000.0 1.302888000e+00 3.016700000e-02
4960000.0 1.295137000e+00 1.729700000e-02
5050000.0 1.279935000e+00 4.221000000e-03
5140000.0 1.275789000e+00 -8.338000000e-03
5230000.0 1.270679000e+00 -2.037600000e-02
5320000.0 1.265845000e+00 -3.235900000e-02
5410000.0 1.260462000e+00 -4.409500000e-02
5500000.0 1.257970000e+00 -5.703300000e-02
5590000.0 1.254233000e+00 -6.709100000e-02
5680000.0 1.249419000e+00 -7.997400000e-02
5770000.0 1.245973000e+00 -9.087400000e-02
5860000.0 1.242310000e+00 -1.014960000e-01
5950000.0 1.240070000e+00 -1.119200000e-01
6040000.0 1.237093000e+00 -1.222700000e-01
6130000.0 1.235502000e+00 -1.324230000e-01
6220000.0 1.232767000e+00 -1.414440000e-01
6310000.0 1.230502000e+00 -1.513000000e-01
6400000.0 1.228970000e+00 -1.579750000e-01
6490000.0 1.225466000e+00 -1.660560000e-01
6580000.0 1.224456000e+00 -1.749970000e-01
6670000.0 1.222436000e+00 -1.807580000e-01
6760000.0 1.222946000e+00 -1.865990000e-01
6850000.0 1.219839000e+00 -1.922920000e-01
6940000.0 1.219862000e+00 -1.974850000e-01
7030000.0 1.219060000e+00 -2.019530000e-01
7120000.0 1.218187000e+00 -2.053320000e-01
7210000.0 1.218395000e+00 -2.091380000e-01
7300000.0 1.218713000e+00 -2.088690000e-01
7390000.0 1.217212000e+00 -2.091500000e-01
7480000.0 1.217225000e+00 -2.098100000e-01
7570000.0 -2.612220000e-01 -1.256907000e+00
7660000.0 -2.604150000e-01 -1.257370000e+00
7750000.0 -2.596840000e-01 -1.257687000e+00
7840000.0 -2.593210000e-01 -1.257732000e+00
7930000.0 -2.593640000e-01 -1.258112000e+00
8020000.0 -2.584700000e-01 -1.258491000e+00
8110000.0 -2.577780000e-01 -1.259451000e+00
8200000.0 -2.571020000e-01 -1.259301000e+00
8290000.0 -2.556850000e-01 -1.259903000e+00
8380000.0 -2.552680000e-01 -1.260527000e+00
8470000.0 -2.553930000e-01 -1.259808000e+00
8560000.0 -2.546900000e-01 -1.262595000e+00
8650000.0 -2.545840000e-01 -1.260602000e+00
8740000.0 -2.545290000e-01 -1.263307000e+00
8830000.0 -2.544340000e-01 -1.263024000e+00
8920000.0 -2.522730000e-01 -1.263983000e+00
9010000.0 -2.515080000e-01 -1.264277000e+00
9100000.0 -2.525430000e-01 -1.265309000e+00
9190000.0 -2.516030000e-01 -1.266137000e+00
9280000.0 -2.520570000e-01 -1.266429000e+00
9370000.0 -2.509780000e-01 -1.267172000e+00
9460000.0 -2.515460000e-01 -1.268109000e+00
9550000.0 -2.507070000e-01 -1.267983000e+00
9640000.0 -2.490700000e-01 -1.270107000e+00
9730000.0 -2.498120000e-01 -1.269859000e+00
9820000.0 -2.490480000e-01 -1.270039000e+00
9910000.0 -2.482500000e-01 -1.271829000e+00
10000000.0 -2.486530000e-01 -1.272258000e+00
10900000.0 -2.444700000e-01 -1.280803000e+00
11800000.0 -2.396810000e-01 -1.289669000e+00
12700000.0 -2.362480000e-01 -1.299947000e+00
13600000.0 -2.328910000e-01 -1.309506000e+00
14500000.0 -2.283370000e-01 -1.320204000e+00
15400000.0 -2.250470000e-01 -1.332283000e+00
16300000.0 -2.211090000e-01 -1.342768000e+00
17200000.0 -2.173210000e-01 -1.356417000e+00
18100000.0 -2.133240000e-01 -1.366726000e+00
19000000.0 -2.081560000e-01 -1.378503000e+00
19900000.0 -2.024260000e-01 -1.392325000e+00
20800000.0 -1.977010000e-01 -1.404624000e+00
21700000.0 -1.922920000e-01 -1.417589000e+00
22600000.0 -1.847430000e-01 -1.429685000e+00
23500000.0 -1.793060000e-01 -1.444143000e+00
24400000.0 -1.722980000e-01 -1.456971000e+00
25300000.0 -1.649160000e-01 -1.471449000e+00
26200000.0 -1.560270000e-01 -1.483654000e+00
27100000.0 -1.487460000e-01 -1.499300000e+00
28000000.0 -1.402050000e-01 -1.513223000e+00
28900000.0 -1.300820000e-01 -1.527745000e+00
29800000.0 -1.203510000e-01 -1.542627000e+00
30700000.0 -1.108690000e-01 -1.556081000e+00
31600000.0 -1.001390000e-01 -1.572229000e+00
32500000.0 -8.786500000e-02 -1.588988000e+00
33400000.0 -7.620600000e-02 -1.603145000e+00
34300000.0 -6.494000000e-02 -1.618310000e+00
35200000.0 -5.189900000e-02 -1.634028000e+00
36100000.0 -3.661900000e-02 -1.650437000e+00
37000000.0 -2.519400000e-02 -1.666506000e+00
37900000.0 -8.174000000e-03 -1.679305000e+00
38800000.0 7.210000000e-03 -1.696681000e+00
39700000.0 2.523700000e-02 -1.710912000e+00
40600000.0 4.050800000e-02 -1.729423000e+00
41500000.0 5.998900000e-02 -1.743124000e+00
42400000.0 7.668000000e-02 -1.757669000e+00
43300000.0 9.751800000e-02 -1.773200000e+00
44200000.0 1.192200000e-01 -1.788861000e+00
45100000.0 1.396510000e-01 -1.804315000e+00
46000000.0 1.628150000e-01 -1.817403000e+00
46900000.0 1.842030000e-01 -1.829682000e+00
47800000.0 2.093850000e-01 -1.844854000e+00
48700000.0 2.318420000e-01 -1.858736000e+00
49600000.0 2.609550000e-01 -1.869427000e+00
50500000.0 2.863380000e-01 -1.881746000e+00
51400000.0 3.138510000e-01 -1.895278000e+00
52300000.0 3.420990000e-01 -1.905548000e+00
53200000.0 3.733810000e-01 -1.913908000e+00
54100000.0 4.003870000e-01 -1.921739000e+00
55000000.0 4.362470000e-01 -1.930859000e+00
55900000.0 4.649490000e-01 -1.938350000e+00
56800000.0 4.978710000e-01 -1.942411000e+00
57700000.0 5.322290000e-01 -1.950122000e+00
58600000.0 5.667270000e-01 -1.952382000e+00
59500000.0 6.027250000e-01 -1.953998000e+00
60400000.0 6.391700000e-01 -1.956173000e+00
61300000.0 6.737160000e-01 -1.954274000e+00
62200000.0 7.094960000e-01 -1.954427000e+00
63100000.0 7.486230000e-01 -1.949217000e+00
64000000.0 7.828270000e-01 -1.943524000e+00
64900000.0 8.227550000e-01 -1.938125000e+00
65800000.0 8.595960000e-01 -1.927066000e+00
66700000.0 8.952430000e-01 -1.916351000e+00
67600000.0 9.331750000e-01 -1.907116000e+00
68500000.0 9.694030000e-01 -1.891630000e+00
69400000.0 1.005769000e+00 -1.877163000e+00
70300000.0 1.041652000e+00 -1.859863000e+00
71200000.0 1.077881000e+00 -1.842049000e+00
72100000.0 1.110087000e+00 -1.820502000e+00
73000000.0 1.145922000e+00 -1.795951000e+00
73900000.0 1.174001000e+00 -1.776236000e+00
74800000.0 1.208068000e+00 -1.750150000e+00
75700000.0 1.238288000e+00 -1.724760000e+00
76600000.0 1.265063000e+00 -1.696858000e+00
77500000.0 1.292526000e+00 -1.668766000e+00
78400000.0 1.317390000e+00 -1.636589000e+00
79300000.0 1.341954000e+00 -1.607226000e+00
80200000.0 1.363486000e+00 -1.575126000e+00
81100000.0 1.385538000e+00 -1.540373000e+00
82000000.0 1.405375000e+00 -1.510696000e+00
82900000.0 1.420525000e+00 -1.478024000e+00
83800000.0 1.437335000e+00 -1.442893000e+00
84700000.0 1.453788000e+00 -1.409541000e+00
85600000.0 1.464982000e+00 -1.377242000e+00
86500000.0 1.476652000e+00 -1.344435000e+00
87400000.0 1.486593000e+00 -1.309879000e+00
88300000.0 1.495191000e+00 -1.275736000e+00
89200000.0 1.500798000e+00 -1.242836000e+00
90100000.0 1.506102000e+00 -1.209461000e+00
91000000.0 1.510622000e+00 -1.178113000e+00
91900000.0 1.514315000e+00 -1.143843000e+00
92800000.0 1.516204000e+00 -1.112889000e+00
93700000.0 1.517013000e+00 -1.081745000e+00
94600000.0 1.514415000e+00 -1.051897000e+00
95500000.0 1.513838000e+00 -1.019532000e+00
96400000.0 1.510965000e+00 -9.933780000e-01
97300000.0 1.509833000e+00 -9.653930000e-01
98200000.0 1.504675000e+00 -9.366750000e-01
99100000.0 1.500779000e+00 -9.099090000e-01
100000000.0 1.493357000e+00 -8.836570000e-01
109000000.0 1.414816000e+00 -6.616470000e-01
118000000.0 1.309638000e+00 -4.989410000e-01
127000000.0 1.204029000e+00 -3.847640000e-01
136000000.0 1.102015000e+00 -3.100030000e-01
145000000.0 1.011840000e+00 -2.540430000e-01
154000000.0 9.625850000e-01 -2.369180000e-01
163000000.0 9.590310000e-01 -2.504340000e-01
172000000.0 9.552440000e-01 -2.650180000e-01
181000000.0 9.524430000e-01 -2.770330000e-01
190000000.0 9.482260000e-01 -2.896550000e-01
199000000.0 9.447170000e-01 -3.021000000e-01
208000000.0 9.396200000e-01 -3.146070000e-01
217000000.0 9.354590000e-01 -3.266100000e-01
226000000.0 9.290220000e-01 -3.398960000e-01
235000000.0 9.251750000e-01 -3.513670000e-01
244000000.0 9.198070000e-01 -3.636210000e-01
253000000.0 9.139300000e-01 -3.762090000e-01
262000000.0 9.075030000e-01 -3.868890000e-01
271000000.0 9.013680000e-01 -3.986730000e-01
280000000.0 8.953900000e-01 -4.123970000e-01
289000000.0 8.898670000e-01 -4.228230000e-01
298000000.0 8.829660000e-01 -4.350330000e-01
307000000.0 8.771120000e-01 -4.458850000e-01
316000000.0 8.723440000e-01 -4.560500000e-01
325000000.0 8.645290000e-01 -4.669760000e-01
334000000.0 8.584640000e-01 -4.779770000e-01
343000000.0 8.546430000e-01 -4.903370000e-01
352000000.0 8.494010000e-01 -4.987630000e-01
361000000.0 8.419640000e-01 -5.121860000e-01
370000000.0 9.140390000e-01 -4.431530000e-01
379000000.0 7.997150000e-01 -5.571230000e-01
388000000.0 8.192030000e-01 -5.414030000e-01
397000000.0 8.111090000e-01 -5.518910000e-01
406000000.0 8.014010000e-01 -5.613780000e-01
415000000.0 7.922690000e-01 -5.713310000e-01
424000000.0 7.848630000e-01 -5.825250000e-01
433000000.0 7.751730000e-01 -5.904660000e-01
442000000.0 7.652100000e-01 -6.026600000e-01
451000000.0 7.574870000e-01 -6.092490000e-01
460000000.0 7.517040000e-01 -6.200800000e-01
469000000.0 7.468370000e-01 -6.289030000e-01
478000000.0 7.391440000e-01 -6.385530000e-01
487000000.0 7.319840000e-01 -6.502940000e-01
496000000.0 7.256560000e-01 -6.584000000e-01
505000000.0 7.170080000e-01 -6.668550000e-01
514000000.0 7.074720000e-01 -6.780870000e-01
523000000.0 7.027360000e-01 -6.871190000e-01
532000000.0 6.939000000e-01 -6.945910000e-01
541000000.0 6.842140000e-01 -7.033760000e-01
550000000.0 6.767850000e-01 -7.138430000e-01
559000000.0 6.630330000e-01 -7.244900000e-01
568000000.0 6.522960000e-01 -7.277330000e-01
577000000.0 6.427060000e-01 -7.340720000e-01
586000000.0 6.287830000e-01 -7.451550000e-01
595000000.0 6.181180000e-01 -7.507790000e-01
604000000.0 6.081690000e-01 -7.587380000e-01
613000000.0 5.994250000e-01 -7.709800000e-01
622000000.0 5.956640000e-01 -7.776680000e-01
631000000.0 5.863650000e-01 -7.913500000e-01
640000000.0 5.796970000e-01 -7.956060000e-01
649000000.0 5.624370000e-01 -8.035430000e-01
658000000.0 5.573470000e-01 -8.120290000e-01
667000000.0 5.421700000e-01 -8.190960000e-01
676000000.0 5.367140000e-01 -8.281260000e-01
685000000.0 5.255330000e-01 -8.338990000e-01
694000000.0 5.101890000e-01 -8.421990000e-01
703000000.0 5.015450000e-01 -8.480820000e-01
712000000.0 4.885040000e-01 -8.476450000e-01
721000000.0 4.772970000e-01 -8.535270000e-01
730000000.0 4.624150000e-01 -8.560540000e-01
739000000.0 4.495420000e-01 -8.578500000e-01
748000000.0 4.351570000e-01 -8.569560000e-01
757000000.0 4.242630000e-01 -8.644820000e-01
766000000.0 4.114260000e-01 -8.722560000e-01
775000000.0 3.952720000e-01 -8.819870000e-01
784000000.0 3.851770000e-01 -8.864090000e-01
793000000.0 3.745050000e-01 -8.913830000e-01
802000000.0 3.600260000e-01 -8.975340000e-01
811000000.0 3.489600000e-01 -9.013240000e-01
820000000.0 3.392690000e-01 -9.051800000e-01
829000000.0 3.295530000e-01 -9.096590000e-01
838000000.0 3.143850000e-01 -9.135700000e-01
847000000.0 3.060770000e-01 -9.128760000e-01
856000000.0 2.997480000e-01 -9.169590000e-01
865000000.0 2.821610000e-01 -9.194100000e-01
874000000.0 2.744940000e-01 -9.192140000e-01
883000000.0 2.675330000e-01 -9.177340000e-01
892000000.0 2.559030000e-01 -9.211110000e-01
901000000.0 2.509840000e-01 -9.199870000e-01
910000000.0 2.345160000e-01 -9.247210000e-01
919000000.0 2.184920000e-01 -9.270080000e-01
928000000.0 2.090800000e-01 -9.278500000e-01
937000000.0 1.954600000e-01 -9.304700000e-01
946000000.0 1.832200000e-01 -9.310670000e-01
955000000.0 1.771540000e-01 -9.324080000e-01
964000000.0 1.601100000e-01 -9.340070000e-01
973000000.0 1.507170000e-01 -9.360060000e-01
982000000.0 1.398570000e-01 -9.357730000e-01
991000000.0 1.283360000e-01 -9.367130000e-01
1000000000.0 1.228160000e-01 -9.371240000e-01
1004500000.0 1.125000000e-01 -9.394480000e-01
1009000000.0 1.089490000e-01 -9.409480000e-01
1013500000.0 1.032780000e-01 -9.404300000e-01
1018000000.0 1.015630000e-01 -9.408250000e-01
1022500000.0 9.714000000e-02 -9.410250000e-01
1027000000.0 8.940100000e-02 -9.413080000e-01
1031500000.0 8.434300000e-02 -9.430860000e-01
1036000000.0 8.060700000e-02 -9.432940000e-01
1040500000.0 7.650300000e-02 -9.434730000e-01
1045000000.0 6.886800000e-02 -9.440900000e-01
1049500000.0 6.248200000e-02 -9.445050000e-01
1054000000.0 5.519700000e-02 -9.443230000e-01
1058500000.0 5.461100000e-02 -9.442720000e-01
1063000000.0 5.011600000e-02 -9.460500000e-01
1067500000.0 4.260700000e-02 -9.458660000e-01
1072000000.0 3.871100000e-02 -9.445890000e-01
1076500000.0 3.144200000e-02 -9.434860000e-01
1081000000.0 2.804700000e-02 -9.465370000e-01
1085500000.0 2.299200000e-02 -9.445660000e-01
1090000000.0 1.690200000e-02 -9.474040000e-01
1094500000.0 1.361700000e-02 -9.457770000e-01
1099000000.0 6.616000000e-03 -9.474990000e-01
1103500000.0 -1.989000000e-03 -9.456850000e-01
1108000000.0 -1.063000000e-03 -9.463400000e-01
1112500000.0 -1.090700000e-02 -9.466460000e-01
1117000000.0 -1.105600000e-02 -9.458400000e-01
1121500000.0 -2.167400000e-02 -9.459020000e-01
1126000000.0 3.948200000e-02 -9.635460000e-01
1130500000.0 -6.368100000e-02 -9.333470000e-01
1135000000.0 -3.588300000e-02 -9.462970000e-01
1139500000.0 -4.583300000e-02 -9.423960000e-01
1144000000.0 -3.590800000e-02 -9.466470000e-01
1148500000.0 -5.232000000e-02 -9.427150000e-01
1153000000.0 -7.391700000e-02 -9.380210000e-01
1157500000.0 -5.534800000e-02 -9.478040000e-01
1162000000.0 -7.730800000e-02 -9.444350000e-01
1166500000.0 -7.939300000e-02 -9.405490000e-01
1171000000.0 -8.471000000e-02 -9.393940000e-01
1175500000.0 -9.052100000e-02 -9.368940000e-01
1180000000.0 -1.026680000e-01 -9.387220000e-01
1184500000.0 -1.030050000e-01 -9.350700000e-01
1189000000.0 -1.069160000e-01 -9.341060000e-01
1193500000.0 -1.126420000e-01 -9.311700000e-01
1198000000.0 -1.221210000e-01 -9.285010000e-01
1202500000.0 -1.214980000e-01 -9.317890000e-01
1207000000.0 -1.276900000e-01 -9.323470000e-01
1211500000.0 -1.345950000e-01 -9.307190000e-01
1216000000.0 -1.347260000e-01 -9.336310000e-01
1220500000.0 -1.435260000e-01 -9.317620000e-01
1225000000.0 -1.477050000e-01 -9.286730000e-01
1229500000.0 -1.518980000e-01 -9.318220000e-01
1234000000.0 -1.605440000e-01 -9.312850000e-01
1238500000.0 -1.581290000e-01 -9.280310000e-01
1243000000.0 -1.669100000e-01 -9.311030000e-01
1247500000.0 -1.708010000e-01 -9.288020000e-01
1252000000.0 -1.828100000e-01 -9.263640000e-01
1256500000.0 -1.819630000e-01 -9.260580000e-01
1261000000.0 -1.874340000e-01 -9.304850000e-01
1265500000.0 -1.919550000e-01 -9.188090000e-01
1270000000.0 -1.947110000e-01 -9.246610000e-01
1274500000.0 -2.012530000e-01 -9.232960000e-01
1279000000.0 -2.112140000e-01 -9.248770000e-01
1283500000.0 -2.145410000e-01 -9.214770000e-01
1288000000.0 -2.112020000e-01 -9.180870000e-01
1292500000.0 -2.165850000e-01 -9.163740000e-01
1297000000.0 -2.279120000e-01 -9.119220000e-01
1301500000.0 -2.369870000e-01 -9.121040000e-01
1306000000.0 -2.005220000e-01 -9.227600000e-01
1310500000.0 -2.416230000e-01 -9.134190000e-01
1315000000.0 -2.561060000e-01 -8.982110000e-01
1319500000.0 -2.617940000e-01 -9.004130000e-01
1324000000.0 -2.590510000e-01 -8.988750000e-01
1328500000.0 -2.724590000e-01 -8.966860000e-01
1333000000.0 -2.754540000e-01 -9.029750000e-01
1337500000.0 -2.727160000e-01 -9.018820000e-01
1342000000.0 -2.833430000e-01 -8.977300000e-01
1346500000.0 -2.981190000e-01 -8.912750000e-01
1351000000.0 -2.900960000e-01 -8.919710000e-01
1355500000.0 -2.994290000e-01 -8.912980000e-01
1360000000.0 -3.058210000e-01 -8.892950000e-01
1364500000.0 -3.037580000e-01 -8.943760000e-01
1369000000.0 -3.157590000e-01 -8.889070000e-01
1373500000.0 -3.133830000e-01 -8.905980000e-01
1378000000.0 -3.197650000e-01 -8.954770000e-01
1382500000.0 -3.243090000e-01 -8.931440000e-01
1387000000.0 -3.333140000e-01 -8.874770000e-01
1391500000.0 -3.384540000e-01 -8.868540000e-01
1396000000.0 -3.433130000e-01 -8.926990000e-01
1400500000.0 -3.415670000e-01 -8.796100000e-01
1405000000.0 -3.564610000e-01 -8.892400000e-01
1409500000.0 -3.530580000e-01 -8.898420000e-01
1414000000.0 -3.638260000e-01 -8.812260000e-01
1418500000.0 -3.614060000e-01 -8.774050000e-01
1423000000.0 -3.725410000e-01 -8.851980000e-01
1427500000.0 -3.739480000e-01 -8.779150000e-01
1432000000.0 -3.784110000e-01 -8.701000000e-01
1436500000.0 -3.764240000e-01 -8.734890000e-01
1441000000.0 -3.666950000e-01 -8.784640000e-01
1445500000.0 -3.921420000e-01 -8.703490000e-01
1450000000.0 -4.054630000e-01 -8.552440000e-01
