! piloto_corto / corto_cobre / r11
# HZ S RI R 50
50000.0 -9.846300000e-01 -3.457800000e-02
59500.0 -9.861820000e-01 -1.845200000e-02
69000.0 -9.886700000e-01 -9.020000000e-03
78500.0 -9.922500000e-01 -5.780000000e-04
88000.0 -9.893100000e-01 1.308000000e-03
97500.0 -9.942180000e-01 1.233000000e-03
107000.0 -9.970710000e-01 -1.361000000e-03
116500.0 -9.955390000e-01 -5.038000000e-03
126000.0 -9.928870000e-01 -8.834000000e-03
135500.0 -9.937950000e-01 -1.416700000e-02
145000.0 -9.709230000e-01 -2.030100000e-02
154500.0 -9.920470000e-01 -2.792800000e-02
164000.0 -9.908810000e-01 -3.385700000e-02
173500.0 -9.955880000e-01 -4.137400000e-02
183000.0 -9.973150000e-01 -4.891800000e-02
192500.0 -9.933160000e-01 -5.692300000e-02
202000.0 -3.525410000e-01 -1.527200000e-02
211500.0 -6.009980000e-01 -4.227300000e-02
221000.0 -8.539160000e-01 -7.235900000e-02
230500.0 -9.613620000e-01 -8.799900000e-02
240000.0 -7.638890000e-01 -7.490500000e-02
249500.0 -9.955280000e-01 -1.085560000e-01
259000.0 -9.954270000e-01 -1.180110000e-01
268500.0 -9.955740000e-01 -1.265520000e-01
278000.0 -9.472220000e-01 -1.284890000e-01
287500.0 -8.666930000e-01 -1.273910000e-01
297000.0 -9.270160000e-01 -1.433420000e-01
306500.0 -9.976210000e-01 -1.632560000e-01
316000.0 -9.791470000e-01 -1.683120000e-01
325500.0 -9.848110000e-01 -1.796270000e-01
335000.0 -8.715930000e-01 -1.665040000e-01
344500.0 -9.139790000e-01 -1.832190000e-01
354000.0 4.835500000e-02 2.423500000e-02
363500.0 -9.506510000e-01 -2.074100000e-01
373000.0 -9.828890000e-01 -2.234550000e-01
382500.0 -9.941570000e-01 -2.352300000e-01
392000.0 -9.964810000e-01 -2.440130000e-01
401500.0 -9.977890000e-01 -2.530730000e-01
411000.0 -9.673580000e-01 -2.544250000e-01
420500.0 -9.850590000e-01 -2.684410000e-01
430000.0 -9.804340000e-01 -2.763380000e-01
439500.0 -9.986800000e-01 -2.902460000e-01
449000.0 -9.991780000e-01 -2.996870000e-01
458500.0 -1.000793000e+00 -3.098440000e-01
468000.0 -1.001112000e+00 -3.183900000e-01
477500.0 -1.000229000e+00 -3.264230000e-01
487000.0 -9.958060000e-01 -3.345810000e-01
496500.0 1.007030000e+00 4.475820000e-01
506000.0 1.008266000e+00 4.584180000e-01
515500.0 1.008975000e+00 4.687280000e-01
525000.0 1.002161000e+00 4.769850000e-01
534500.0 -9.919330000e-01 -3.781810000e-01
544000.0 -1.002889000e+00 -3.907220000e-01
553500.0 -1.004641000e+00 -4.001700000e-01
563000.0 -1.004858000e+00 -4.092550000e-01
572500.0 -1.004858000e+00 -4.186140000e-01
582000.0 -1.004038000e+00 -4.269820000e-01
591500.0 -1.003581000e+00 -4.356990000e-01
601000.0 -1.003247000e+00 -4.435090000e-01
610500.0 -9.993700000e-01 -4.508560000e-01
620000.0 -1.000044000e+00 -4.588450000e-01
629500.0 -1.005236000e+00 -4.711070000e-01
639000.0 -1.008548000e+00 -4.811560000e-01
648500.0 -1.007774000e+00 -4.891250000e-01
658000.0 -1.008633000e+00 -4.983210000e-01
667500.0 1.015188000e+00 6.201590000e-01
677000.0 1.017184000e+00 6.301810000e-01
686500.0 1.017682000e+00 6.404420000e-01
696000.0 1.018650000e+00 6.488230000e-01
705500.0 1.019721000e+00 6.580600000e-01
715000.0 -8.717790000e-01 -4.756180000e-01
724500.0 -1.009232000e+00 -5.586570000e-01
734000.0 -1.010735000e+00 -5.662460000e-01
743500.0 -1.013151000e+00 -5.774380000e-01
753000.0 -1.014012000e+00 -5.840290000e-01
762500.0 1.024519000e+00 7.139590000e-01
772000.0 1.027138000e+00 7.221560000e-01
781500.0 1.029059000e+00 7.305870000e-01
791000.0 1.028580000e+00 7.405520000e-01
800500.0 1.029488000e+00 7.505230000e-01
810000.0 1.031063000e+00 7.597640000e-01
819500.0 9.394360000e-01 6.989530000e-01
829000.0 -9.952600000e-01 -6.381470000e-01
838500.0 -1.015089000e+00 -6.574200000e-01
848000.0 -9.260430000e-01 -6.075000000e-01
857500.0 1.476750000e-01 1.290180000e-01
867000.0 -1.973810000e-01 -1.144380000e-01
876500.0 4.102290000e-01 3.315630000e-01
886000.0 -1.004742000e+00 -6.869820000e-01
895500.0 -1.027525000e+00 -7.107620000e-01
905000.0 -1.032732000e+00 -7.230140000e-01
914500.0 -1.036132000e+00 -7.317880000e-01
924000.0 -1.039038000e+00 -7.396270000e-01
933500.0 -1.039936000e+00 -7.472470000e-01
943000.0 -1.032137000e+00 -7.481880000e-01
952500.0 -1.018821000e+00 -7.462120000e-01
962000.0 -1.027951000e+00 -7.598930000e-01
971500.0 -1.038063000e+00 -7.740210000e-01
981000.0 -1.046105000e+00 -7.848620000e-01
990500.0 -1.047624000e+00 -7.938720000e-01
1000000.0 -1.048524000e+00 -8.003060000e-01
1090000.0 1.093474000e+00 1.012562000e+00
1180000.0 1.129728000e+00 1.086516000e+00
1270000.0 1.176392000e+00 1.159110000e+00
1360000.0 1.230589000e+00 1.220240000e+00
1450000.0 1.295672000e+00 1.272483000e+00
1540000.0 1.368742000e+00 1.313959000e+00
1630000.0 1.450897000e+00 1.342271000e+00
1720000.0 1.536873000e+00 1.349998000e+00
1810000.0 1.629756000e+00 1.340813000e+00
1900000.0 1.715149000e+00 1.305815000e+00
1990000.0 1.792408000e+00 1.256580000e+00
2080000.0 1.861087000e+00 1.188457000e+00
2170000.0 1.911518000e+00 1.111922000e+00
2260000.0 1.943085000e+00 1.024397000e+00
2350000.0 1.959154000e+00 9.346980000e-01
2440000.0 1.960948000e+00 8.493200000e-01
2530000.0 1.952697000e+00 7.599960000e-01
2620000.0 1.926474000e+00 6.841690000e-01
2710000.0 1.896610000e+00 6.161990000e-01
2800000.0 1.865257000e+00 5.474330000e-01
2890000.0 1.825146000e+00 5.030550000e-01
2980000.0 1.785738000e+00 4.551810000e-01
3070000.0 1.748074000e+00 4.125330000e-01
3160000.0 1.710343000e+00 3.750090000e-01
3250000.0 1.674034000e+00 3.433830000e-01
3340000.0 1.639364000e+00 3.149050000e-01
3430000.0 1.605768000e+00 2.862590000e-01
3520000.0 1.575424000e+00 2.621620000e-01
3610000.0 1.544939000e+00 2.412780000e-01
3700000.0 1.518134000e+00 2.226630000e-01
3790000.0 1.492648000e+00 2.028210000e-01
3880000.0 1.469428000e+00 1.844620000e-01
3970000.0 1.446454000e+00 1.682170000e-01
4060000.0 1.425281000e+00 1.527240000e-01
4150000.0 1.408414000e+00 1.371190000e-01
4240000.0 1.389897000e+00 1.195650000e-01
4330000.0 1.374403000e+00 1.061580000e-01
4420000.0 1.359759000e+00 8.943200000e-02
4510000.0 1.347246000e+00 7.751400000e-02
4600000.0 1.335650000e+00 6.388400000e-02
4690000.0 1.323633000e+00 4.995900000e-02
4780000.0 1.313711000e+00 3.542500000e-02
4870000.0 1.303998000e+00 2.364000000e-02
4960000.0 1.296237000e+00 1.009000000e-02
5050000.0 1.281612000e+00 -2.604000000e-03
5140000.0 1.275629000e+00 -1.593100000e-02
5230000.0 1.272732000e+00 -2.703400000e-02
5320000.0 1.268217000e+00 -3.950700000e-02
5410000.0 1.262384000e+00 -5.135600000e-02
5500000.0 1.258685000e+00 -6.282800000e-02
5590000.0 1.255832000e+00 -7.538300000e-02
5680000.0 1.250239000e+00 -8.641400000e-02
5770000.0 1.246846000e+00 -9.797100000e-02
5860000.0 1.242777000e+00 -1.085750000e-01
5950000.0 1.240273000e+00 -1.197760000e-01
6040000.0 1.237786000e+00 -1.295780000e-01
6130000.0 1.233825000e+00 -1.398260000e-01
6220000.0 1.232436000e+00 -1.496630000e-01
6310000.0 1.230599000e+00 -1.595160000e-01
6400000.0 1.228773000e+00 -1.667780000e-01
6490000.0 1.226009000e+00 -1.742160000e-01
6580000.0 1.224031000e+00 -1.838310000e-01
6670000.0 1.223862000e+00 -1.903800000e-01
6760000.0 1.220982000e+00 -1.962520000e-01
6850000.0 1.219977000e+00 -2.007940000e-01
6940000.0 1.219596000e+00 -2.069350000e-01
7030000.0 1.217989000e+00 -2.110640000e-01
7120000.0 1.215570000e+00 -2.153280000e-01
7210000.0 1.217325000e+00 -2.181760000e-01
7300000.0 1.215646000e+00 -2.192500000e-01
7390000.0 1.217182000e+00 -2.197090000e-01
7480000.0 1.216867000e+00 -2.199060000e-01
7570000.0 -2.736630000e-01 -1.254687000e+00
7660000.0 -2.715670000e-01 -1.255311000e+00
7750000.0 -2.713340000e-01 -1.255273000e+00
7840000.0 -2.711940000e-01 -1.255507000e+00
7930000.0 -2.699050000e-01 -1.255484000e+00
8020000.0 -2.682370000e-01 -1.256100000e+00
8110000.0 -2.682230000e-01 -1.257941000e+00
8200000.0 -2.669160000e-01 -1.258325000e+00
8290000.0 -2.691200000e-01 -1.257203000e+00
8380000.0 -2.665290000e-01 -1.258579000e+00
8470000.0 -2.658910000e-01 -1.259228000e+00
8560000.0 -2.653650000e-01 -1.259740000e+00
8650000.0 -2.652420000e-01 -1.259492000e+00
8740000.0 -2.651010000e-01 -1.260052000e+00
8830000.0 -2.661250000e-01 -1.261751000e+00
8920000.0 -2.648160000e-01 -1.262159000e+00
9010000.0 -2.642570000e-01 -1.261955000e+00
9100000.0 -2.650670000e-01 -1.263153000e+00
9190000.0 -2.649270000e-01 -1.263129000e+00
9280000.0 -2.655680000e-01 -1.264015000e+00
9370000.0 -2.640210000e-01 -1.263886000e+00
9460000.0 -2.652650000e-01 -1.265838000e+00
9550000.0 -2.651020000e-01 -1.266074000e+00
9640000.0 -2.639980000e-01 -1.267330000e+00
9730000.0 -2.630620000e-01 -1.267164000e+00
9820000.0 -2.630620000e-01 -1.267947000e+00
9910000.0 -2.621020000e-01 -1.268984000e+00
10000000.0 -2.619860000e-01 -1.269679000e+00
10900000.0 1.798620000e-01 1.089945000e+00
11800000.0 1.748560000e-01 1.096703000e+00
12700000.0 1.690070000e-01 1.106597000e+00
13600000.0 1.629150000e-01 1.114069000e+00
14500000.0 1.581050000e-01 1.123378000e+00
15400000.0 1.531660000e-01 1.132975000e+00
16300000.0 1.464460000e-01 1.140479000e+00
17200000.0 1.401360000e-01 1.146324000e+00
18100000.0 1.348500000e-01 1.154224000e+00
19000000.0 1.277460000e-01 1.164745000e+00
19900000.0 1.204220000e-01 1.177328000e+00
20800000.0 1.132100000e-01 1.186712000e+00
21700000.0 1.059570000e-01 1.198428000e+00
22600000.0 9.735000000e-02 1.208035000e+00
23500000.0 9.055200000e-02 1.217759000e+00
24400000.0 8.099300000e-02 1.228314000e+00
25300000.0 7.344100000e-02 1.238162000e+00
26200000.0 6.374300000e-02 1.248325000e+00
27100000.0 5.252100000e-02 1.258796000e+00
28000000.0 4.348000000e-02 1.268069000e+00
28900000.0 3.094600000e-02 1.280470000e+00
29800000.0 2.414300000e-02 1.289099000e+00
30700000.0 1.034100000e-02 1.300526000e+00
31600000.0 -1.890000000e-03 1.310143000e+00
32500000.0 -1.184500000e-02 1.320692000e+00
33400000.0 -2.463400000e-02 1.330191000e+00
34300000.0 -3.837400000e-02 1.340687000e+00
35200000.0 -5.223600000e-02 1.350182000e+00
36100000.0 -6.450900000e-02 1.361341000e+00
37000000.0 -7.997300000e-02 1.369694000e+00
37900000.0 -9.636700000e-02 1.378886000e+00
38800000.0 -1.097080000e-01 1.386161000e+00
39700000.0 -1.253790000e-01 1.395344000e+00
40600000.0 -1.414920000e-01 1.405886000e+00
41500000.0 -1.589050000e-01 1.412386000e+00
42400000.0 -1.749710000e-01 1.422168000e+00
43300000.0 -1.934940000e-01 1.432598000e+00
44200000.0 -2.110550000e-01 1.439721000e+00
45100000.0 -2.286090000e-01 1.444006000e+00
46000000.0 -2.467010000e-01 1.448658000e+00
46900000.0 -2.650500000e-01 1.450138000e+00
47800000.0 -2.866300000e-01 1.464226000e+00
48700000.0 -3.079950000e-01 1.472685000e+00
49600000.0 -3.269220000e-01 1.478559000e+00
50500000.0 -3.485510000e-01 1.483543000e+00
51400000.0 -3.696670000e-01 1.487378000e+00
52300000.0 -3.897520000e-01 1.490111000e+00
53200000.0 -4.126050000e-01 1.495267000e+00
54100000.0 -4.358710000e-01 1.495618000e+00
55000000.0 -4.565930000e-01 1.497493000e+00
55900000.0 -4.804590000e-01 1.497519000e+00
56800000.0 -5.007450000e-01 1.493273000e+00
57700000.0 -5.246040000e-01 1.496223000e+00
58600000.0 -5.474610000e-01 1.498613000e+00
59500000.0 -5.705580000e-01 1.498141000e+00
60400000.0 -5.942640000e-01 1.496104000e+00
61300000.0 -6.169680000e-01 1.490132000e+00
62200000.0 -6.022290000e-01 1.396922000e+00
63100000.0 -6.608740000e-01 1.478208000e+00
64000000.0 -6.855350000e-01 1.475750000e+00
64900000.0 -7.093060000e-01 1.467959000e+00
65800000.0 -7.316860000e-01 1.464703000e+00
66700000.0 -7.565780000e-01 1.461405000e+00
67600000.0 -7.810950000e-01 1.452960000e+00
68500000.0 -7.983330000e-01 1.437926000e+00
69400000.0 -8.100650000e-01 1.408267000e+00
70300000.0 -8.376710000e-01 1.408320000e+00
71200000.0 -8.530570000e-01 1.386306000e+00
72100000.0 -8.834290000e-01 1.393871000e+00
73000000.0 -8.950290000e-01 1.365648000e+00
73900000.0 -9.298450000e-01 1.374418000e+00
74800000.0 -9.533540000e-01 1.367615000e+00
75700000.0 -9.728910000e-01 1.349478000e+00
76600000.0 -9.936870000e-01 1.339495000e+00
77500000.0 -1.008585000e+00 1.318035000e+00
78400000.0 -9.851670000e-01 1.243322000e+00
79300000.0 -1.049330000e+00 1.290906000e+00
80200000.0 -1.061262000e+00 1.268487000e+00
81100000.0 -1.084821000e+00 1.259086000e+00
82000000.0 -1.105721000e+00 1.246941000e+00
82900000.0 -1.119950000e+00 1.225631000e+00
83800000.0 -1.128374000e+00 1.201727000e+00
84700000.0 -1.143965000e+00 1.182745000e+00
85600000.0 -1.134897000e+00 1.135573000e+00
86500000.0 -1.173268000e+00 1.143033000e+00
87400000.0 -1.187445000e+00 1.128054000e+00
88300000.0 -1.199837000e+00 1.106563000e+00
89200000.0 -1.218012000e+00 1.092673000e+00
90100000.0 -1.230425000e+00 1.073650000e+00
91000000.0 -1.240028000e+00 1.053163000e+00
91900000.0 -1.252126000e+00 1.033589000e+00
92800000.0 -1.260028000e+00 1.012041000e+00
93700000.0 -1.265691000e+00 9.846970000e-01
94600000.0 -1.264194000e+00 9.568550000e-01
95500000.0 -1.269915000e+00 9.335770000e-01
96400000.0 -1.272114000e+00 9.087230000e-01
97300000.0 -6.128700000e-01 2.716240000e-01
98200000.0 -1.224656000e+00 8.241640000e-01
99100000.0 -1.211260000e+00 7.884130000e-01
100000000.0 -1.293983000e+00 8.293480000e-01
109000000.0 -9.513100000e-01 4.029640000e-01
118000000.0 1.181088000e+00 -7.763230000e-01
127000000.0 1.107561000e+00 -6.227860000e-01
136000000.0 1.020834000e+00 -5.268360000e-01
145000000.0 9.382270000e-01 -4.579370000e-01
154000000.0 8.881420000e-01 -4.410740000e-01
163000000.0 8.697400000e-01 -4.758120000e-01
172000000.0 8.452860000e-01 -5.174110000e-01
181000000.0 8.147070000e-01 -5.645010000e-01
190000000.0 7.881520000e-01 -5.983220000e-01
199000000.0 7.725600000e-01 -6.181940000e-01
208000000.0 7.608570000e-01 -6.322850000e-01
217000000.0 7.449090000e-01 -6.531160000e-01
226000000.0 7.220570000e-01 -6.750140000e-01
235000000.0 6.992170000e-01 -6.996170000e-01
244000000.0 6.883470000e-01 -7.094690000e-01
253000000.0 6.952660000e-01 -7.002060000e-01
262000000.0 6.974220000e-01 -6.968020000e-01
271000000.0 6.917150000e-01 -7.034050000e-01
280000000.0 6.725960000e-01 -7.190460000e-01
289000000.0 6.445290000e-01 -7.454340000e-01
298000000.0 5.993740000e-01 -7.786580000e-01
307000000.0 5.405560000e-01 -8.243370000e-01
316000000.0 4.856970000e-01 -8.597000000e-01
325000000.0 4.484310000e-01 -8.809140000e-01
334000000.0 4.271680000e-01 -8.918380000e-01
343000000.0 4.190410000e-01 -8.956080000e-01
352000000.0 4.164990000e-01 -8.938970000e-01
361000000.0 3.832250000e-01 -9.104490000e-01
370000000.0 4.166010000e-01 -9.339310000e-01
379000000.0 -9.242860000e-01 3.104360000e-01
388000000.0 -9.519850000e-01 3.275090000e-01
397000000.0 -9.497450000e-01 3.365080000e-01
406000000.0 -9.377150000e-01 3.597750000e-01
415000000.0 -9.339560000e-01 3.457630000e-01
424000000.0 -8.906470000e-01 3.377300000e-01
433000000.0 -8.156700000e-01 3.128850000e-01
442000000.0 6.620700000e-02 -9.780700000e-01
451000000.0 4.688900000e-02 -9.770690000e-01
460000000.0 -6.741800000e-02 -9.803700000e-01
469000000.0 -5.678490000e-01 1.536930000e-01
478000000.0 -8.923680000e-01 3.921140000e-01
487000000.0 -9.118940000e-01 4.102070000e-01
496000000.0 -9.125550000e-01 4.179400000e-01
505000000.0 -9.101050000e-01 4.294440000e-01
514000000.0 -9.060160000e-01 4.358060000e-01
523000000.0 -9.001460000e-01 4.416620000e-01
532000000.0 -8.886790000e-01 4.445070000e-01
541000000.0 -8.844220000e-01 4.518190000e-01
550000000.0 -8.849270000e-01 4.591230000e-01
559000000.0 -8.842570000e-01 4.679340000e-01
568000000.0 -8.826000000e-01 4.736540000e-01
577000000.0 -8.774310000e-01 4.780790000e-01
586000000.0 -8.746980000e-01 4.837460000e-01
595000000.0 -8.651340000e-01 4.851840000e-01
604000000.0 -8.630020000e-01 4.943730000e-01
613000000.0 -8.564060000e-01 5.036640000e-01
622000000.0 -8.523010000e-01 5.139010000e-01
631000000.0 -8.497920000e-01 5.243610000e-01
640000000.0 -8.435990000e-01 5.283320000e-01
649000000.0 -8.386790000e-01 5.363880000e-01
658000000.0 -8.360230000e-01 5.474100000e-01
667000000.0 -8.334820000e-01 5.501100000e-01
676000000.0 -8.285790000e-01 5.586330000e-01
685000000.0 -8.223010000e-01 5.612480000e-01
694000000.0 -7.915590000e-01 5.913820000e-01
703000000.0 -8.089860000e-01 5.767820000e-01
712000000.0 -8.125760000e-01 5.785820000e-01
721000000.0 -8.034660000e-01 5.881430000e-01
730000000.0 -7.962490000e-01 5.932850000e-01
739000000.0 -7.905740000e-01 5.984230000e-01
748000000.0 -7.877450000e-01 5.979680000e-01
757000000.0 -7.765080000e-01 6.016110000e-01
766000000.0 -7.556190000e-01 5.953740000e-01
775000000.0 -6.043840000e-01 -7.761130000e-01
784000000.0 -6.296020000e-01 -7.555410000e-01
793000000.0 -7.183640000e-01 5.969010000e-01
802000000.0 -7.397080000e-01 6.234720000e-01
811000000.0 -7.473260000e-01 6.436700000e-01
820000000.0 -7.421070000e-01 6.437490000e-01
829000000.0 -7.395350000e-01 6.503130000e-01
838000000.0 -7.296450000e-01 6.597960000e-01
847000000.0 -7.330900000e-01 6.632970000e-01
856000000.0 -7.281300000e-01 6.714260000e-01
865000000.0 -7.221930000e-01 6.760260000e-01
874000000.0 -7.130830000e-01 6.841440000e-01
883000000.0 -7.096520000e-01 6.871360000e-01
892000000.0 -6.986520000e-01 6.947830000e-01
901000000.0 -6.991590000e-01 7.002070000e-01
910000000.0 -6.879070000e-01 7.075590000e-01
919000000.0 -6.871530000e-01 7.123810000e-01
928000000.0 -6.821840000e-01 7.199480000e-01
937000000.0 -6.759380000e-01 7.197180000e-01
946000000.0 -6.715910000e-01 7.317070000e-01
955000000.0 -6.695870000e-01 7.358750000e-01
964000000.0 -6.619170000e-01 7.362540000e-01
973000000.0 -6.517300000e-01 7.455860000e-01
982000000.0 -6.384690000e-01 7.404430000e-01
991000000.0 -6.164000000e-01 7.324700000e-01
1000000000.0 -6.238560000e-01 7.471210000e-01
1004500000.0 -7.283490000e-01 -6.518000000e-01
1009000000.0 -7.305400000e-01 -6.485420000e-01
1013500000.0 -7.359110000e-01 -6.450230000e-01
1018000000.0 -7.405670000e-01 -6.414930000e-01
1022500000.0 -7.575650000e-01 -6.232620000e-01
1027000000.0 -7.888250000e-01 -5.824220000e-01
1031500000.0 -6.055070000e-01 7.722750000e-01
1036000000.0 -6.069100000e-01 7.840440000e-01
1040500000.0 -5.998640000e-01 7.850790000e-01
1045000000.0 -5.990960000e-01 7.881820000e-01
1049500000.0 -5.964230000e-01 7.881000000e-01
1054000000.0 -5.905190000e-01 7.938180000e-01
1058500000.0 -5.826310000e-01 7.979130000e-01
1063000000.0 -5.545340000e-01 7.534070000e-01
1067500000.0 -5.735090000e-01 7.922350000e-01
1072000000.0 -4.663100000e-01 5.425790000e-01
1076500000.0 -9.020460000e-01 -3.963750000e-01
1081000000.0 -4.579870000e-01 4.143190000e-01
1085500000.0 -5.523390000e-01 7.903660000e-01
1090000000.0 -5.526290000e-01 8.020620000e-01
1094500000.0 -5.622470000e-01 8.154710000e-01
1099000000.0 -5.585400000e-01 8.244080000e-01
1103500000.0 -5.587770000e-01 8.252720000e-01
1108000000.0 -5.477140000e-01 8.289950000e-01
1112500000.0 -5.513330000e-01 8.270790000e-01
1117000000.0 -5.327990000e-01 8.086910000e-01
1121500000.0 -5.208860000e-01 7.976440000e-01
1126000000.0 -5.535640000e-01 8.273190000e-01
1130500000.0 -5.024160000e-01 8.535240000e-01
1135000000.0 -5.489970000e-01 8.371350000e-01
1139500000.0 -5.246300000e-01 8.476290000e-01
1144000000.0 -5.058270000e-01 8.569020000e-01
1148500000.0 -5.127120000e-01 8.487700000e-01
1153000000.0 -4.704980000e-01 8.508950000e-01
1157500000.0 -5.055470000e-01 8.445920000e-01
1162000000.0 -5.014390000e-01 8.423930000e-01
1166500000.0 -4.882990000e-01 8.350810000e-01
1171000000.0 -4.900050000e-01 8.400420000e-01
1175500000.0 -4.819490000e-01 8.545040000e-01
1180000000.0 -4.860350000e-01 8.604260000e-01
1184500000.0 -4.826750000e-01 8.635890000e-01
1189000000.0 -4.770890000e-01 8.618980000e-01
1193500000.0 -4.740990000e-01 8.687590000e-01
1198000000.0 -4.686300000e-01 8.664090000e-01
1202500000.0 -4.647810000e-01 8.696010000e-01
1207000000.0 -4.586120000e-01 8.710780000e-01
1211500000.0 -4.588160000e-01 8.670910000e-01
1216000000.0 -4.449600000e-01 8.539470000e-01
1220500000.0 -4.444970000e-01 8.641750000e-01
1225000000.0 -4.342150000e-01 8.589440000e-01
1229500000.0 -4.406410000e-01 8.778430000e-01
1234000000.0 -4.415630000e-01 8.817690000e-01
1238500000.0 -4.373360000e-01 8.833790000e-01
1243000000.0 -4.271930000e-01 8.904720000e-01
1247500000.0 -4.225910000e-01 8.907920000e-01
1252000000.0 -4.241440000e-01 8.889620000e-01
1256500000.0 -4.170120000e-01 8.900400000e-01
1261000000.0 -4.188610000e-01 8.907770000e-01
1265500000.0 -4.095600000e-01 8.919980000e-01
1270000000.0 -4.017660000e-01 8.989030000e-01
1274500000.0 -4.072470000e-01 8.974920000e-01
1279000000.0 -4.005190000e-01 9.035310000e-01
1283500000.0 -3.941430000e-01 9.043280000e-01
1288000000.0 -3.931240000e-01 9.060590000e-01
1292500000.0 -3.874080000e-01 9.039050000e-01
1297000000.0 -3.739960000e-01 9.077020000e-01
1301500000.0 -3.779830000e-01 9.106520000e-01
1306000000.0 -3.771060000e-01 9.078860000e-01
1310500000.0 -3.894070000e-01 9.029020000e-01
1315000000.0 -3.632180000e-01 9.155260000e-01
1319500000.0 -3.583530000e-01 9.117860000e-01
1324000000.0 -3.578310000e-01 9.152540000e-01
1328500000.0 -3.641500000e-01 9.077170000e-01
1333000000.0 -3.477270000e-01 9.119960000e-01
1337500000.0 -3.229020000e-01 9.164540000e-01
1342000000.0 -3.372860000e-01 9.137270000e-01
1346500000.0 -3.520710000e-01 9.085370000e-01
1351000000.0 -3.266360000e-01 9.146940000e-01
1355500000.0 -3.077020000e-01 9.240180000e-01
1360000000.0 -3.177160000e-01 9.190970000e-01
1364500000.0 -3.158420000e-01 9.199220000e-01
1369000000.0 -3.055140000e-01 9.308570000e-01
1373500000.0 -3.080370000e-01 9.268900000e-01
1378000000.0 -3.003100000e-01 9.321880000e-01
1382500000.0 -2.896480000e-01 9.325670000e-01
1387000000.0 -2.962830000e-01 9.327970000e-01
1391500000.0 -2.879860000e-01 9.333510000e-01
1396000000.0 -2.846770000e-01 9.325690000e-01
1400500000.0 -2.778260000e-01 9.326690000e-01
1405000000.0 -2.816400000e-01 9.396890000e-01
1409500000.0 -2.659300000e-01 9.377190000e-01
1414000000.0 -2.703900000e-01 9.404720000e-01
1418500000.0 -2.605390000e-01 9.419020000e-01
1423000000.0 -2.598630000e-01 9.553930000e-01
1427500000.0 -2.545280000e-01 9.438820000e-01
1432000000.0 -2.550520000e-01 9.483050000e-01
1436500000.0 -2.503570000e-01 9.459020000e-01
1441000000.0 -2.407910000e-01 9.499160000e-01
1445500000.0 -2.437330000e-01 9.503250000e-01
1450000000.0 -2.346320000e-01 9.510100000e-01
