! piloto_corto / corto_cobre / r10
# HZ S RI R 50
50000.0 1.006004000e+00 -7.185600000e-02
59500.0 1.003117000e+00 -5.876300000e-02
69000.0 1.004716000e+00 -4.667800000e-02
78500.0 1.002082000e+00 -3.283300000e-02
88000.0 1.001789000e+00 -1.926600000e-02
97500.0 9.994660000e-01 -7.577000000e-03
107000.0 9.998960000e-01 4.434000000e-03
116500.0 1.000470000e+00 1.686200000e-02
126000.0 1.001482000e+00 2.776600000e-02
135500.0 1.000570000e+00 4.077100000e-02
145000.0 1.000738000e+00 5.285700000e-02
154500.0 1.000803000e+00 6.443100000e-02
164000.0 1.002181000e+00 7.628500000e-02
173500.0 1.001970000e+00 8.851500000e-02
183000.0 1.001580000e+00 9.953200000e-02
192500.0 1.001463000e+00 1.110530000e-01
202000.0 1.003000000e+00 1.235290000e-01
211500.0 1.002202000e+00 1.350260000e-01
221000.0 1.003103000e+00 1.458440000e-01
230500.0 1.003907000e+00 1.570630000e-01
240000.0 1.003937000e+00 1.686440000e-01
249500.0 9.898670000e-01 1.082280000e-01
259000.0 1.003156000e+00 1.899250000e-01
268500.0 1.004089000e+00 2.007470000e-01
278000.0 1.003381000e+00 2.123270000e-01
287500.0 1.006227000e+00 2.040730000e-01
297000.0 1.004958000e+00 2.342350000e-01
306500.0 1.004340000e+00 2.443540000e-01
316000.0 9.983320000e-01 2.199950000e-01
325500.0 1.008265000e+00 2.463770000e-01
335000.0 1.002464000e+00 2.950330000e-01
344500.0 1.009148000e+00 2.685330000e-01
354000.0 1.001389000e+00 3.155040000e-01
363500.0 1.009716000e+00 2.894490000e-01
373000.0 1.002454000e+00 3.360710000e-01
382500.0 1.009671000e+00 3.105040000e-01
392000.0 1.006375000e+00 3.393000000e-01
401500.0 1.006485000e+00 3.494830000e-01
411000.0 1.006874000e+00 3.595040000e-01
420500.0 1.007212000e+00 3.698930000e-01
430000.0 1.007338000e+00 3.800120000e-01
439500.0 1.007319000e+00 3.900140000e-01
449000.0 1.007084000e+00 3.999280000e-01
458500.0 1.008760000e+00 4.103080000e-01
468000.0 1.007936000e+00 4.197530000e-01
477500.0 1.008630000e+00 4.305620000e-01
487000.0 1.010224000e+00 4.397440000e-01
496500.0 1.008935000e+00 4.490440000e-01
506000.0 1.008891000e+00 4.593590000e-01
515500.0 1.009125000e+00 4.692360000e-01
525000.0 1.009725000e+00 4.787820000e-01
534500.0 1.010538000e+00 4.894130000e-01
544000.0 1.009738000e+00 4.987170000e-01
553500.0 1.011401000e+00 5.081290000e-01
563000.0 1.012065000e+00 5.178550000e-01
572500.0 1.010628000e+00 5.270490000e-01
582000.0 1.012063000e+00 5.370730000e-01
591500.0 1.012373000e+00 5.465480000e-01
601000.0 1.012874000e+00 5.553040000e-01
610500.0 1.012813000e+00 5.658400000e-01
620000.0 1.014010000e+00 5.750120000e-01
629500.0 1.014607000e+00 5.841850000e-01
639000.0 1.014774000e+00 5.930180000e-01
648500.0 1.015957000e+00 6.035120000e-01
658000.0 1.015486000e+00 6.133570000e-01
667500.0 1.016490000e+00 6.223430000e-01
677000.0 1.016650000e+00 6.306580000e-01
686500.0 1.017738000e+00 6.412330000e-01
696000.0 1.019090000e+00 6.497900000e-01
705500.0 1.019357000e+00 6.594770000e-01
715000.0 1.020550000e+00 6.683460000e-01
724500.0 1.022773000e+00 6.782020000e-01
734000.0 1.022451000e+00 6.874880000e-01
743500.0 1.022532000e+00 6.971270000e-01
753000.0 1.024009000e+00 7.038560000e-01
762500.0 1.024403000e+00 7.139800000e-01
772000.0 1.026702000e+00 7.243270000e-01
781500.0 1.027392000e+00 7.322400000e-01
791000.0 1.027333000e+00 7.427590000e-01
800500.0 1.028597000e+00 7.501970000e-01
810000.0 1.031988000e+00 7.590160000e-01
819500.0 1.032007000e+00 7.701860000e-01
829000.0 1.034316000e+00 7.778710000e-01
838500.0 1.033862000e+00 7.865310000e-01
848000.0 1.036572000e+00 7.953610000e-01
857500.0 1.038529000e+00 8.040310000e-01
867000.0 1.039627000e+00 8.135850000e-01
876500.0 1.040538000e+00 8.222510000e-01
886000.0 1.042341000e+00 8.311110000e-01
895500.0 1.043501000e+00 8.394850000e-01
905000.0 1.046941000e+00 8.483630000e-01
914500.0 1.047689000e+00 8.565290000e-01
924000.0 1.051469000e+00 8.648180000e-01
933500.0 1.052211000e+00 8.749650000e-01
943000.0 1.053578000e+00 8.838680000e-01
952500.0 1.056785000e+00 8.915280000e-01
962000.0 1.058237000e+00 9.005940000e-01
971500.0 1.061244000e+00 9.100710000e-01
981000.0 1.061856000e+00 9.170650000e-01
990500.0 1.067046000e+00 9.255390000e-01
1000000.0 1.067602000e+00 9.344440000e-01
1090000.0 1.092828000e+00 1.013004000e+00
1180000.0 1.127793000e+00 1.088139000e+00
1270000.0 1.174457000e+00 1.157538000e+00
1360000.0 1.227852000e+00 1.220794000e+00
1450000.0 1.292555000e+00 1.274578000e+00
1540000.0 1.365546000e+00 1.316040000e+00
1630000.0 1.446465000e+00 1.342017000e+00
1720000.0 1.534693000e+00 1.351634000e+00
1810000.0 1.624937000e+00 1.342955000e+00
1900000.0 1.707920000e+00 1.311423000e+00
1990000.0 1.786054000e+00 1.262570000e+00
2080000.0 1.852956000e+00 1.194290000e+00
2170000.0 1.906298000e+00 1.116997000e+00
2260000.0 1.938978000e+00 1.030340000e+00
2350000.0 1.956058000e+00 9.439670000e-01
2440000.0 1.956348000e+00 8.515870000e-01
2530000.0 1.947422000e+00 7.724020000e-01
2620000.0 1.924702000e+00 6.932310000e-01
2710000.0 1.894400000e+00 6.218480000e-01
2800000.0 1.863667000e+00 5.604940000e-01
2890000.0 1.826070000e+00 5.063540000e-01
2980000.0 1.786541000e+00 4.569980000e-01
3070000.0 1.747831000e+00 4.164130000e-01
3160000.0 1.709980000e+00 3.789280000e-01
3250000.0 1.674244000e+00 3.452780000e-01
3340000.0 1.638724000e+00 3.179840000e-01
3430000.0 1.606032000e+00 2.904250000e-01
3520000.0 1.575175000e+00 2.664710000e-01
3610000.0 1.546309000e+00 2.452580000e-01
3700000.0 1.518732000e+00 2.235460000e-01
3790000.0 1.493538000e+00 2.042500000e-01
3880000.0 1.470108000e+00 1.885690000e-01
3970000.0 1.446060000e+00 1.707800000e-01
4060000.0 1.426840000e+00 1.553230000e-01
4150000.0 1.406944000e+00 1.394660000e-01
4240000.0 1.390244000e+00 1.227300000e-01
4330000.0 1.374598000e+00 1.094220000e-01
4420000.0 1.359946000e+00 9.465000000e-02
4510000.0 1.345894000e+00 8.006600000e-02
4600000.0 1.335268000e+00 6.758000000e-02
4690000.0 1.323408000e+00 5.311600000e-02
4780000.0 1.314446000e+00 4.119300000e-02
4870000.0 1.306242000e+00 2.802900000e-02
4960000.0 1.296575000e+00 1.329800000e-02
5050000.0 1.282147000e+00 1.498000000e-03
5140000.0 1.276603000e+00 -1.042600000e-02
5230000.0 1.271284000e+00 -2.291400000e-02
5320000.0 1.268252000e+00 -3.426600000e-02
5410000.0 1.262880000e+00 -4.731900000e-02
5500000.0 1.259057000e+00 -6.038500000e-02
5590000.0 1.254214000e+00 -7.255200000e-02
5680000.0 1.251497000e+00 -8.271300000e-02
5770000.0 1.247096000e+00 -9.442700000e-02
5860000.0 1.244201000e+00 -1.048870000e-01
5950000.0 1.241130000e+00 -1.154550000e-01
6040000.0 1.238895000e+00 -1.251400000e-01
6130000.0 1.236406000e+00 -1.357360000e-01
6220000.0 1.232355000e+00 -1.447840000e-01
6310000.0 1.229737000e+00 -1.542040000e-01
6400000.0 1.229596000e+00 -1.620740000e-01
6490000.0 1.227654000e+00 -1.707840000e-01
6580000.0 1.225607000e+00 -1.784900000e-01
6670000.0 1.224814000e+00 -1.840120000e-01
6760000.0 1.222100000e+00 -1.912200000e-01
6850000.0 1.219989000e+00 -1.961360000e-01
6940000.0 1.220778000e+00 -2.014530000e-01
7030000.0 1.218743000e+00 -2.050860000e-01
7120000.0 1.217719000e+00 -2.091500000e-01
7210000.0 1.218885000e+00 -2.123420000e-01
7300000.0 1.216830000e+00 -2.140760000e-01
7390000.0 1.216622000e+00 -2.153130000e-01
7480000.0 1.216972000e+00 -2.173700000e-01
7570000.0 -2.652290000e-01 -1.256064000e+00
7660000.0 -2.648240000e-01 -1.256000000e+00
7750000.0 -2.646120000e-01 -1.256841000e+00
7840000.0 -2.633960000e-01 -1.257960000e+00
7930000.0 -2.631430000e-01 -1.256364000e+00
8020000.0 -2.628010000e-01 -1.257709000e+00
8110000.0 -2.638780000e-01 -1.258518000e+00
8200000.0 -2.620170000e-01 -1.258845000e+00
8290000.0 -2.619790000e-01 -1.260677000e+00
8380000.0 -2.605650000e-01 -1.260565000e+00
8470000.0 -2.613510000e-01 -1.260540000e+00
8560000.0 -2.601690000e-01 -1.260047000e+00
8650000.0 -2.600430000e-01 -1.261228000e+00
8740000.0 -2.590970000e-01 -1.262008000e+00
8830000.0 -2.587930000e-01 -1.262570000e+00
8920000.0 -2.585860000e-01 -1.262677000e+00
9010000.0 -2.578140000e-01 -1.265082000e+00
9100000.0 -2.579490000e-01 -1.264379000e+00
9190000.0 -2.568340000e-01 -1.264410000e+00
9280000.0 -2.568320000e-01 -1.265577000e+00
9370000.0 -2.558800000e-01 -1.266365000e+00
9460000.0 -2.570280000e-01 -1.267084000e+00
9550000.0 -2.546520000e-01 -1.266728000e+00
9640000.0 -2.552560000e-01 -1.267913000e+00
9730000.0 -2.547710000e-01 -1.269382000e+00
9820000.0 -2.534360000e-01 -1.270313000e+00
9910000.0 -2.545360000e-01 -1.271204000e+00
10000000.0 -2.533660000e-01 -1.272664000e+00
10900000.0 -2.500880000e-01 -1.279186000e+00
11800000.0 -2.466960000e-01 -1.289168000e+00
12700000.0 -2.441750000e-01 -1.298761000e+00
13600000.0 -2.415850000e-01 -1.310302000e+00
14500000.0 -2.368170000e-01 -1.318892000e+00
15400000.0 -2.344510000e-01 -1.331926000e+00
16300000.0 -2.313760000e-01 -1.342382000e+00
17200000.0 -2.273470000e-01 -1.354131000e+00
18100000.0 -2.236340000e-01 -1.366405000e+00
19000000.0 -2.197190000e-01 -1.377435000e+00
19900000.0 -2.152500000e-01 -1.391049000e+00
20800000.0 -2.110510000e-01 -1.403390000e+00
21700000.0 -2.053280000e-01 -1.417149000e+00
22600000.0 -1.993760000e-01 -1.429170000e+00
23500000.0 -1.943780000e-01 -1.441425000e+00
24400000.0 -1.871510000e-01 -1.456175000e+00
25300000.0 -1.813540000e-01 -1.470822000e+00
26200000.0 -1.752740000e-01 -1.483715000e+00
27100000.0 -1.688350000e-01 -1.497410000e+00
28000000.0 -1.590450000e-01 -1.512128000e+00
28900000.0 -1.506970000e-01 -1.526752000e+00
29800000.0 -1.412360000e-01 -1.541752000e+00
30700000.0 -1.317300000e-01 -1.557621000e+00
31600000.0 -1.218030000e-01 -1.571536000e+00
32500000.0 -1.116640000e-01 -1.587152000e+00
33400000.0 -1.031500000e-01 -1.602476000e+00
34300000.0 -9.110700000e-02 -1.618367000e+00
35200000.0 -7.948900000e-02 -1.634147000e+00
36100000.0 -6.447900000e-02 -1.647131000e+00
37000000.0 -5.092500000e-02 -1.666020000e+00
37900000.0 -3.687500000e-02 -1.680392000e+00
38800000.0 -2.085200000e-02 -1.696197000e+00
39700000.0 -6.413000000e-03 -1.712366000e+00
40600000.0 9.257000000e-03 -1.727565000e+00
41500000.0 2.553400000e-02 -1.743309000e+00
42400000.0 4.266000000e-02 -1.758519000e+00
43300000.0 6.182900000e-02 -1.774065000e+00
44200000.0 8.372800000e-02 -1.792463000e+00
45100000.0 1.038870000e-01 -1.805731000e+00
46000000.0 1.253080000e-01 -1.819860000e+00
46900000.0 1.459890000e-01 -1.833741000e+00
47800000.0 1.678450000e-01 -1.849234000e+00
48700000.0 1.917750000e-01 -1.863338000e+00
49600000.0 2.161330000e-01 -1.875745000e+00
50500000.0 2.396640000e-01 -1.887687000e+00
51400000.0 2.678620000e-01 -1.901239000e+00
52300000.0 2.963610000e-01 -1.913037000e+00
53200000.0 3.274290000e-01 -1.923635000e+00
54100000.0 3.558910000e-01 -1.932408000e+00
55000000.0 3.875000000e-01 -1.942319000e+00
55900000.0 4.198370000e-01 -1.949734000e+00
56800000.0 4.499330000e-01 -1.955815000e+00
57700000.0 4.813350000e-01 -1.962698000e+00
58600000.0 5.150540000e-01 -1.966163000e+00
59500000.0 5.455210000e-01 -1.970863000e+00
60400000.0 5.797360000e-01 -1.972883000e+00
61300000.0 6.175390000e-01 -1.975400000e+00
62200000.0 6.514030000e-01 -1.975937000e+00
63100000.0 6.876860000e-01 -1.971748000e+00
64000000.0 7.263250000e-01 -1.966105000e+00
64900000.0 7.644040000e-01 -1.961247000e+00
65800000.0 8.033070000e-01 -1.954701000e+00
66700000.0 8.375900000e-01 -1.944853000e+00
67600000.0 8.753440000e-01 -1.933661000e+00
68500000.0 9.106020000e-01 -1.925795000e+00
69400000.0 9.461060000e-01 -1.910285000e+00
70300000.0 9.818320000e-01 -1.894772000e+00
71200000.0 1.015870000e+00 -1.877596000e+00
72100000.0 1.051380000e+00 -1.857582000e+00
73000000.0 1.084864000e+00 -1.839616000e+00
73900000.0 1.118096000e+00 -1.815355000e+00
74800000.0 1.149837000e+00 -1.791248000e+00
75700000.0 1.178755000e+00 -1.767463000e+00
76600000.0 1.207928000e+00 -1.738906000e+00
77500000.0 1.233014000e+00 -1.715758000e+00
78400000.0 1.258820000e+00 -1.689049000e+00
79300000.0 1.281196000e+00 -1.658748000e+00
80200000.0 1.307455000e+00 -1.627277000e+00
81100000.0 1.328404000e+00 -1.596200000e+00
82000000.0 1.351593000e+00 -1.564301000e+00
82900000.0 1.369650000e+00 -1.530497000e+00
83800000.0 1.384843000e+00 -1.498413000e+00
84700000.0 1.399900000e+00 -1.468201000e+00
85600000.0 1.413509000e+00 -1.437026000e+00
86500000.0 1.425386000e+00 -1.404468000e+00
87400000.0 1.435526000e+00 -1.370235000e+00
88300000.0 1.447019000e+00 -1.336528000e+00
89200000.0 1.455696000e+00 -1.302775000e+00
90100000.0 1.462033000e+00 -1.269015000e+00
91000000.0 1.466433000e+00 -1.237081000e+00
91900000.0 1.470169000e+00 -1.206170000e+00
92800000.0 1.471616000e+00 -1.175744000e+00
93700000.0 1.474011000e+00 -1.145645000e+00
94600000.0 1.475113000e+00 -1.115755000e+00
95500000.0 1.474570000e+00 -1.085372000e+00
96400000.0 1.475654000e+00 -1.055470000e+00
97300000.0 1.473970000e+00 -1.025646000e+00
98200000.0 1.470621000e+00 -9.961300000e-01
99100000.0 1.466427000e+00 -9.716730000e-01
100000000.0 1.478457000e+00 -9.194550000e-01
109000000.0 1.387406000e+00 -7.243940000e-01
118000000.0 1.285756000e+00 -5.641010000e-01
127000000.0 1.182211000e+00 -4.494910000e-01
136000000.0 1.084747000e+00 -3.717530000e-01
145000000.0 9.953240000e-01 -3.126120000e-01
154000000.0 9.466890000e-01 -2.951080000e-01
163000000.0 9.418180000e-01 -3.117280000e-01
172000000.0 9.348360000e-01 -3.273090000e-01
181000000.0 9.303650000e-01 -3.431410000e-01
190000000.0 9.245220000e-01 -3.588740000e-01
199000000.0 9.173180000e-01 -3.753210000e-01
208000000.0 9.109820000e-01 -3.898970000e-01
217000000.0 9.030420000e-01 -4.065570000e-01
226000000.0 8.963220000e-01 -4.201770000e-01
235000000.0 8.879740000e-01 -4.353420000e-01
244000000.0 8.799940000e-01 -4.496400000e-01
253000000.0 8.722190000e-01 -4.633310000e-01
262000000.0 8.643500000e-01 -4.788630000e-01
271000000.0 8.556630000e-01 -4.923830000e-01
280000000.0 8.461330000e-01 -5.060860000e-01
289000000.0 8.372040000e-01 -5.197440000e-01
298000000.0 8.270020000e-01 -5.333690000e-01
307000000.0 8.183610000e-01 -5.447490000e-01
316000000.0 8.111050000e-01 -5.577910000e-01
325000000.0 7.995840000e-01 -5.732430000e-01
334000000.0 7.912400000e-01 -5.845650000e-01
343000000.0 7.850490000e-01 -5.976070000e-01
352000000.0 7.763260000e-01 -6.106170000e-01
361000000.0 7.646570000e-01 -6.223000000e-01
370000000.0 7.402300000e-01 -6.487830000e-01
379000000.0 7.415320000e-01 -6.481800000e-01
388000000.0 7.585860000e-01 -6.384950000e-01
397000000.0 7.190870000e-01 -6.694670000e-01
406000000.0 7.086140000e-01 -6.800770000e-01
415000000.0 6.706770000e-01 -7.052040000e-01
424000000.0 6.926780000e-01 -6.943040000e-01
433000000.0 6.800300000e-01 -7.031330000e-01
442000000.0 6.645750000e-01 -7.173470000e-01
451000000.0 6.507970000e-01 -7.263610000e-01
460000000.0 6.422550000e-01 -7.381030000e-01
469000000.0 6.335940000e-01 -7.486090000e-01
478000000.0 6.218590000e-01 -7.604060000e-01
487000000.0 6.101260000e-01 -7.722490000e-01
496000000.0 6.012850000e-01 -7.812890000e-01
505000000.0 5.936120000e-01 -7.874380000e-01
514000000.0 5.818050000e-01 -7.960160000e-01
523000000.0 5.717260000e-01 -8.050530000e-01
532000000.0 5.610920000e-01 -8.120000000e-01
541000000.0 5.463210000e-01 -8.248660000e-01
550000000.0 5.338760000e-01 -8.328160000e-01
559000000.0 5.136530000e-01 -8.442240000e-01
568000000.0 4.950130000e-01 -8.504530000e-01
577000000.0 4.820660000e-01 -8.547490000e-01
586000000.0 4.700610000e-01 -8.625290000e-01
595000000.0 4.572860000e-01 -8.684830000e-01
604000000.0 4.436670000e-01 -8.718460000e-01
613000000.0 4.363530000e-01 -8.833240000e-01
622000000.0 4.217670000e-01 -8.929740000e-01
631000000.0 4.076440000e-01 -9.008950000e-01
640000000.0 3.915390000e-01 -9.106480000e-01
649000000.0 3.720570000e-01 -9.194730000e-01
658000000.0 3.568120000e-01 -9.307370000e-01
667000000.0 3.443980000e-01 -9.324360000e-01
676000000.0 3.294820000e-01 -9.375920000e-01
685000000.0 3.161650000e-01 -9.402600000e-01
694000000.0 3.040830000e-01 -9.455060000e-01
703000000.0 2.926780000e-01 -9.485550000e-01
712000000.0 3.132400000e-01 -9.465160000e-01
721000000.0 2.661280000e-01 -9.485300000e-01
730000000.0 2.486570000e-01 -9.507290000e-01
739000000.0 2.369490000e-01 -9.494530000e-01
748000000.0 2.220140000e-01 -9.463780000e-01
757000000.0 2.044570000e-01 -9.512320000e-01
766000000.0 1.910720000e-01 -9.560020000e-01
775000000.0 1.809970000e-01 -9.609240000e-01
784000000.0 1.660170000e-01 -9.643350000e-01
793000000.0 1.517090000e-01 -9.676550000e-01
802000000.0 1.376410000e-01 -9.691250000e-01
811000000.0 1.210260000e-01 -9.712680000e-01
820000000.0 1.099890000e-01 -9.725630000e-01
829000000.0 9.735500000e-02 -9.726310000e-01
838000000.0 8.320900000e-02 -9.733670000e-01
847000000.0 6.776900000e-02 -9.736880000e-01
856000000.0 5.237300000e-02 -9.745590000e-01
865000000.0 4.545700000e-02 -9.739190000e-01
874000000.0 3.634200000e-02 -9.727720000e-01
883000000.0 2.938400000e-02 -9.719070000e-01
892000000.0 2.085400000e-02 -9.691630000e-01
901000000.0 8.710000000e-03 -9.676020000e-01
910000000.0 -3.482000000e-03 -9.669200000e-01
919000000.0 -2.186300000e-02 -9.662170000e-01
928000000.0 -3.805600000e-02 -9.659010000e-01
937000000.0 -5.416400000e-02 -9.638450000e-01
946000000.0 -7.237900000e-02 -9.635620000e-01
955000000.0 -8.483800000e-02 -9.607910000e-01
964000000.0 -9.308800000e-02 -9.587300000e-01
973000000.0 -1.000230000e-01 -9.599650000e-01
982000000.0 -1.074650000e-01 -9.590200000e-01
991000000.0 -1.227200000e-01 -9.565820000e-01
1000000000.0 -1.340620000e-01 -9.555550000e-01
1004500000.0 -1.279570000e-01 -9.536350000e-01
1009000000.0 -1.202410000e-01 -9.552270000e-01
1013500000.0 -1.072100000e-01 -9.601750000e-01
1018000000.0 -1.430930000e-01 -9.524420000e-01
1022500000.0 -1.709920000e-01 -9.488280000e-01
1027000000.0 -1.621260000e-01 -9.526950000e-01
1031500000.0 -1.630310000e-01 -9.542190000e-01
1036000000.0 -1.949440000e-01 -9.458550000e-01
1040500000.0 -2.231140000e-01 -9.384660000e-01
1045000000.0 -2.155290000e-01 -9.408350000e-01
1049500000.0 -2.180510000e-01 -9.448060000e-01
1054000000.0 -2.167450000e-01 -9.420270000e-01
1058500000.0 -2.118630000e-01 -9.425470000e-01
1063000000.0 -2.072130000e-01 -9.445270000e-01
1067500000.0 -2.131830000e-01 -9.427290000e-01
1072000000.0 -2.180490000e-01 -9.431670000e-01
1076500000.0 -2.252710000e-01 -9.402330000e-01
1081000000.0 -2.303150000e-01 -9.400170000e-01
1085500000.0 -2.429360000e-01 -9.374220000e-01
1090000000.0 -2.553950000e-01 -9.349640000e-01
1094500000.0 -2.587410000e-01 -9.313080000e-01
1099000000.0 -2.642120000e-01 -9.348210000e-01
1103500000.0 -2.685150000e-01 -9.311740000e-01
1108000000.0 -2.717170000e-01 -9.318170000e-01
1112500000.0 -2.712600000e-01 -9.313990000e-01
1117000000.0 -2.743770000e-01 -9.274690000e-01
1121500000.0 -3.181350000e-01 -7.706410000e-01
1126000000.0 -2.862040000e-01 -9.278490000e-01
1130500000.0 -2.978630000e-01 -9.234560000e-01
1135000000.0 -2.727070000e-01 -9.393360000e-01
1139500000.0 -3.075540000e-01 -9.195360000e-01
1144000000.0 -3.185980000e-01 -9.156190000e-01
1148500000.0 -3.191500000e-01 -9.163840000e-01
1153000000.0 -3.287360000e-01 -9.113470000e-01
1157500000.0 -3.284960000e-01 -9.106110000e-01
1162000000.0 -3.315900000e-01 -9.075470000e-01
1166500000.0 -3.359550000e-01 -9.075530000e-01
1171000000.0 -3.384460000e-01 -9.064510000e-01
1175500000.0 -3.525710000e-01 -9.005430000e-01
1180000000.0 -3.540720000e-01 -8.990700000e-01
1184500000.0 -3.687720000e-01 -8.954440000e-01
1189000000.0 -3.765650000e-01 -8.899520000e-01
1193500000.0 -3.710060000e-01 -8.935250000e-01
1198000000.0 -3.815430000e-01 -8.825380000e-01
1202500000.0 -3.915380000e-01 -8.878170000e-01
1207000000.0 -3.943650000e-01 -8.812730000e-01
1211500000.0 -3.990790000e-01 -8.790280000e-01
1216000000.0 -4.011000000e-01 -8.753450000e-01
1220500000.0 -4.033350000e-01 -8.753090000e-01
1225000000.0 -4.074410000e-01 -8.757990000e-01
1229500000.0 -4.119990000e-01 -8.827010000e-01
1234000000.0 -4.104550000e-01 -8.787180000e-01
1238500000.0 -4.191920000e-01 -8.716540000e-01
1243000000.0 -4.219190000e-01 -8.762740000e-01
1247500000.0 -4.194400000e-01 -8.758740000e-01
1252000000.0 -4.313620000e-01 -8.712210000e-01
1256500000.0 -4.355360000e-01 -8.734480000e-01
1261000000.0 -4.354950000e-01 -8.638230000e-01
1265500000.0 -4.409510000e-01 -8.665810000e-01
1270000000.0 -4.459050000e-01 -8.579210000e-01
1274500000.0 -4.584080000e-01 -8.567900000e-01
1279000000.0 -4.615420000e-01 -8.551630000e-01
1283500000.0 -4.679570000e-01 -8.537400000e-01
1288000000.0 -4.747100000e-01 -8.521800000e-01
1292500000.0 -4.763730000e-01 -8.481210000e-01
1297000000.0 -4.822110000e-01 -8.479900000e-01
1301500000.0 -4.777330000e-01 -8.464710000e-01
1306000000.0 -4.917960000e-01 -8.381830000e-01
1310500000.0 -4.977400000e-01 -8.281570000e-01
1315000000.0 -5.094130000e-01 -8.334750000e-01
1319500000.0 -5.185520000e-01 -8.218420000e-01
1324000000.0 -5.277990000e-01 -8.102700000e-01
1328500000.0 -5.421900000e-01 -8.025260000e-01
1333000000.0 -5.487030000e-01 -7.933860000e-01
1337500000.0 -5.678880000e-01 -7.890770000e-01
1342000000.0 -5.618780000e-01 -7.893250000e-01
1346500000.0 -5.730810000e-01 -7.848480000e-01
1351000000.0 -5.719480000e-01 -7.912540000e-01
1355500000.0 -5.637670000e-01 -7.893200000e-01
1360000000.0 -5.778630000e-01 -7.757860000e-01
1364500000.0 -5.737360000e-01 -7.878720000e-01
1369000000.0 -5.815820000e-01 -7.884790000e-01
1373500000.0 -5.891590000e-01 -7.815270000e-01
1378000000.0 -5.929580000e-01 -7.810240000e-01
1382500000.0 -5.967410000e-01 -7.794180000e-01
1387000000.0 -5.901600000e-01 -7.840750000e-01
1391500000.0 -5.903980000e-01 -7.792230000e-01
1396000000.0 -5.937830000e-01 -7.847530000e-01
1400500000.0 -5.970860000e-01 -7.744830000e-01
1405000000.0 -5.941450000e-01 -7.871090000e-01
1409500000.0 -6.130910000e-01 -7.691780000e-01
1414000000.0 -6.096300000e-01 -7.750020000e-01
1418500000.0 -6.103070000e-01 -7.652310000e-01
1423000000.0 -6.135880000e-01 -7.800010000e-01
1427500000.0 -6.010320000e-01 -7.703770000e-01
1432000000.0 -6.198640000e-01 -7.712480000e-01
1436500000.0 -6.237520000e-01 -7.631750000e-01
1441000000.0 -6.305230000e-01 -7.548440000e-01
1445500000.0 -6.409320000e-01 -7.458720000e-01
1450000000.0 -6.499290000e-01 -7.392500000e-01
