! piloto_corto / aire / r10
# HZ S RI R 50
50000.0 1.005390000e+00 -7.262300000e-02
59500.0 1.008924000e+00 -5.982100000e-02
69000.0 1.003523000e+00 -4.441400000e-02
78500.0 1.002344000e+00 -3.293700000e-02
88000.0 1.001773000e+00 -2.044500000e-02
97500.0 1.000570000e+00 -8.062000000e-03
107000.0 1.000460000e+00 4.750000000e-03
116500.0 1.000017000e+00 1.698600000e-02
126000.0 1.002652000e+00 2.914500000e-02
135500.0 1.000390000e+00 4.035100000e-02
145000.0 1.000492000e+00 5.237800000e-02
154500.0 1.000522000e+00 6.522200000e-02
164000.0 1.000980000e+00 7.643500000e-02
173500.0 1.001643000e+00 8.833100000e-02
183000.0 1.002171000e+00 1.000810000e-01
192500.0 1.002588000e+00 1.115680000e-01
202000.0 1.002128000e+00 1.229150000e-01
211500.0 1.003505000e+00 1.346290000e-01
221000.0 1.003083000e+00 1.452350000e-01
230500.0 1.002994000e+00 1.574620000e-01
240000.0 1.003122000e+00 1.672800000e-01
249500.0 1.003577000e+00 1.791040000e-01
259000.0 1.004261000e+00 1.902280000e-01
268500.0 1.004096000e+00 2.009930000e-01
278000.0 1.004121000e+00 2.116000000e-01
287500.0 1.004050000e+00 2.223100000e-01
297000.0 1.005619000e+00 2.335630000e-01
306500.0 1.005254000e+00 2.442470000e-01
316000.0 1.004448000e+00 2.548390000e-01
325500.0 1.004961000e+00 2.661260000e-01
335000.0 1.004928000e+00 2.773000000e-01
344500.0 1.004792000e+00 2.870350000e-01
354000.0 1.006124000e+00 2.978200000e-01
363500.0 1.006035000e+00 3.079640000e-01
373000.0 1.006020000e+00 3.181020000e-01
382500.0 1.005966000e+00 3.278440000e-01
392000.0 1.006290000e+00 3.379790000e-01
401500.0 1.006246000e+00 3.485860000e-01
411000.0 1.006479000e+00 3.603910000e-01
420500.0 1.006718000e+00 3.700870000e-01
430000.0 1.007347000e+00 3.803780000e-01
439500.0 1.007679000e+00 3.894120000e-01
449000.0 1.007516000e+00 4.006340000e-01
458500.0 1.007705000e+00 4.097760000e-01
468000.0 1.008156000e+00 4.191620000e-01
477500.0 1.007560000e+00 4.298140000e-01
487000.0 1.008388000e+00 4.395770000e-01
496500.0 1.008590000e+00 4.492800000e-01
506000.0 1.008864000e+00 4.595670000e-01
515500.0 1.008842000e+00 4.696850000e-01
525000.0 1.009316000e+00 4.785210000e-01
534500.0 1.009515000e+00 4.894820000e-01
544000.0 1.010230000e+00 4.980650000e-01
553500.0 1.010267000e+00 5.078550000e-01
563000.0 1.010871000e+00 5.179500000e-01
572500.0 1.012071000e+00 5.275220000e-01
582000.0 1.010965000e+00 5.366860000e-01
591500.0 1.012035000e+00 5.457150000e-01
601000.0 1.012135000e+00 5.556830000e-01
610500.0 1.012560000e+00 5.646780000e-01
620000.0 1.013545000e+00 5.743480000e-01
629500.0 1.013252000e+00 5.832780000e-01
639000.0 1.014563000e+00 5.937890000e-01
648500.0 1.014838000e+00 6.040450000e-01
658000.0 1.014993000e+00 6.127310000e-01
667500.0 1.016398000e+00 6.212710000e-01
677000.0 1.016576000e+00 6.312890000e-01
686500.0 1.017257000e+00 6.406170000e-01
696000.0 1.018233000e+00 6.497380000e-01
705500.0 1.019645000e+00 6.583870000e-01
715000.0 1.019878000e+00 6.683970000e-01
724500.0 1.020889000e+00 6.762950000e-01
734000.0 1.021690000e+00 6.871260000e-01
743500.0 1.021912000e+00 6.962280000e-01
753000.0 1.022701000e+00 7.047830000e-01
762500.0 1.024433000e+00 7.143100000e-01
772000.0 1.025326000e+00 7.233660000e-01
781500.0 1.026782000e+00 7.326470000e-01
791000.0 1.028492000e+00 7.425530000e-01
800500.0 1.028603000e+00 7.503690000e-01
810000.0 1.030016000e+00 7.586100000e-01
819500.0 1.031505000e+00 7.683640000e-01
829000.0 1.032059000e+00 7.772090000e-01
838500.0 1.033460000e+00 7.860190000e-01
848000.0 1.035428000e+00 7.958240000e-01
857500.0 1.038224000e+00 8.034650000e-01
867000.0 1.038479000e+00 8.131790000e-01
876500.0 1.040297000e+00 8.224510000e-01
886000.0 1.042307000e+00 8.294590000e-01
895500.0 1.043644000e+00 8.387210000e-01
905000.0 1.045016000e+00 8.476690000e-01
914500.0 1.048306000e+00 8.568690000e-01
924000.0 1.050291000e+00 8.657430000e-01
933500.0 1.050456000e+00 8.749590000e-01
943000.0 1.053741000e+00 8.815100000e-01
952500.0 1.055883000e+00 8.909740000e-01
962000.0 1.056757000e+00 9.013880000e-01
971500.0 1.059993000e+00 9.089500000e-01
981000.0 1.060697000e+00 9.177070000e-01
990500.0 1.065092000e+00 9.250560000e-01
1000000.0 1.067213000e+00 9.342720000e-01
1090000.0 1.092174000e+00 1.014218000e+00
1180000.0 1.126603000e+00 1.087097000e+00
1270000.0 1.172386000e+00 1.156533000e+00
1360000.0 1.225732000e+00 1.220096000e+00
1450000.0 1.290539000e+00 1.275807000e+00
1540000.0 1.364995000e+00 1.314399000e+00
1630000.0 1.444129000e+00 1.341309000e+00
1720000.0 1.530353000e+00 1.350352000e+00
1810000.0 1.620576000e+00 1.340292000e+00
1900000.0 1.704532000e+00 1.312355000e+00
1990000.0 1.784920000e+00 1.264019000e+00
2080000.0 1.852288000e+00 1.199034000e+00
2170000.0 1.906831000e+00 1.119781000e+00
2260000.0 1.939578000e+00 1.036114000e+00
2350000.0 1.953319000e+00 9.454800000e-01
2440000.0 1.960281000e+00 8.570830000e-01
2530000.0 1.945730000e+00 7.738950000e-01
2620000.0 1.925074000e+00 6.959750000e-01
2710000.0 1.895800000e+00 6.272740000e-01
2800000.0 1.861227000e+00 5.635070000e-01
2890000.0 1.825357000e+00 5.123030000e-01
2980000.0 1.787490000e+00 4.622480000e-01
3070000.0 1.748206000e+00 4.205820000e-01
3160000.0 1.710566000e+00 3.818690000e-01
3250000.0 1.675107000e+00 3.514910000e-01
3340000.0 1.638820000e+00 3.202290000e-01
3430000.0 1.605609000e+00 2.933810000e-01
3520000.0 1.573260000e+00 2.688130000e-01
3610000.0 1.546057000e+00 2.466010000e-01
3700000.0 1.518423000e+00 2.275040000e-01
3790000.0 1.492491000e+00 2.096150000e-01
3880000.0 1.469041000e+00 1.909610000e-01
3970000.0 1.448066000e+00 1.712040000e-01
4060000.0 1.427913000e+00 1.572260000e-01
4150000.0 1.408572000e+00 1.397250000e-01
4240000.0 1.390286000e+00 1.258240000e-01
4330000.0 1.374723000e+00 1.123720000e-01
4420000.0 1.359473000e+00 9.742000000e-02
4510000.0 1.345681000e+00 8.273800000e-02
4600000.0 1.335279000e+00 6.802200000e-02
4690000.0 1.322445000e+00 5.544300000e-02
4780000.0 1.315003000e+00 4.293900000e-02
4870000.0 1.303472000e+00 3.020100000e-02
4960000.0 1.297117000e+00 1.853400000e-02
5050000.0 1.282975000e+00 4.736000000e-03
5140000.0 1.277055000e+00 -7.837000000e-03
5230000.0 1.271066000e+00 -2.075200000e-02
5320000.0 1.267499000e+00 -3.352900000e-02
5410000.0 1.263596000e+00 -4.536400000e-02
5500000.0 1.259482000e+00 -5.712700000e-02
5590000.0 1.255280000e+00 -6.847100000e-02
5680000.0 1.251937000e+00 -8.117700000e-02
5770000.0 1.247538000e+00 -9.111100000e-02
5860000.0 1.244789000e+00 -1.028170000e-01
5950000.0 1.242211000e+00 -1.117390000e-01
6040000.0 1.238229000e+00 -1.232220000e-01
6130000.0 1.236244000e+00 -1.314960000e-01
6220000.0 1.233338000e+00 -1.420830000e-01
6310000.0 1.231267000e+00 -1.509150000e-01
6400000.0 1.229761000e+00 -1.589760000e-01
6490000.0 1.227986000e+00 -1.670560000e-01
6580000.0 1.225436000e+00 -1.740340000e-01
6670000.0 1.224236000e+00 -1.827690000e-01
6760000.0 1.223094000e+00 -1.881860000e-01
6850000.0 1.221166000e+00 -1.931990000e-01
6940000.0 1.220069000e+00 -1.977200000e-01
7030000.0 1.220209000e+00 -2.018670000e-01
7120000.0 1.218475000e+00 -2.059810000e-01
7210000.0 1.218474000e+00 -2.078710000e-01
7300000.0 1.218168000e+00 -2.106830000e-01
7390000.0 1.218895000e+00 -2.104760000e-01
7480000.0 1.219570000e+00 -2.113670000e-01
7570000.0 -2.621270000e-01 -1.257017000e+00
7660000.0 -2.610330000e-01 -1.256848000e+00
7750000.0 -2.603510000e-01 -1.257813000e+00
7840000.0 -2.589340000e-01 -1.258526000e+00
7930000.0 -2.597920000e-01 -1.259155000e+00
8020000.0 -2.587730000e-01 -1.259083000e+00
8110000.0 -2.565790000e-01 -1.260758000e+00
8200000.0 -2.578300000e-01 -1.259954000e+00
8290000.0 -2.579610000e-01 -1.259654000e+00
8380000.0 -2.561190000e-01 -1.259960000e+00
8470000.0 -2.555640000e-01 -1.261777000e+00
8560000.0 -2.562320000e-01 -1.261233000e+00
8650000.0 -2.552000000e-01 -1.262528000e+00
8740000.0 -2.542230000e-01 -1.262884000e+00
8830000.0 -2.545290000e-01 -1.263235000e+00
8920000.0 -2.316520000e-01 -1.269554000e+00
9010000.0 -2.530700000e-01 -1.265967000e+00
9100000.0 -2.524350000e-01 -1.265192000e+00
9190000.0 -2.509140000e-01 -1.266269000e+00
9280000.0 -2.509700000e-01 -1.267464000e+00
9370000.0 -2.514300000e-01 -1.268782000e+00
9460000.0 -2.501040000e-01 -1.268822000e+00
9550000.0 -2.503250000e-01 -1.269026000e+00
9640000.0 -2.494280000e-01 -1.268923000e+00
9730000.0 -2.485560000e-01 -1.271084000e+00
9820000.0 -2.491020000e-01 -1.271245000e+00
9910000.0 -2.488010000e-01 -1.272415000e+00
10000000.0 -2.481760000e-01 -1.272626000e+00
10900000.0 -2.442070000e-01 -1.281229000e+00
11800000.0 -2.405490000e-01 -1.289227000e+00
12700000.0 -2.363790000e-01 -1.300195000e+00
13600000.0 -2.346590000e-01 -1.309787000e+00
14500000.0 -2.281600000e-01 -1.322291000e+00
15400000.0 -2.253320000e-01 -1.331259000e+00
16300000.0 -2.215610000e-01 -1.343190000e+00
17200000.0 -2.167340000e-01 -1.356382000e+00
18100000.0 -2.133750000e-01 -1.367043000e+00
19000000.0 -2.067060000e-01 -1.380375000e+00
19900000.0 -2.024680000e-01 -1.391824000e+00
20800000.0 -1.972590000e-01 -1.404685000e+00
21700000.0 -1.906190000e-01 -1.417830000e+00
22600000.0 -1.856320000e-01 -1.430624000e+00
23500000.0 -1.787940000e-01 -1.443114000e+00
24400000.0 -1.723630000e-01 -1.458716000e+00
25300000.0 -1.650800000e-01 -1.470237000e+00
26200000.0 -1.564230000e-01 -1.485089000e+00
27100000.0 -1.481220000e-01 -1.498858000e+00
28000000.0 -1.401110000e-01 -1.515110000e+00
28900000.0 -1.298190000e-01 -1.528179000e+00
29800000.0 -1.227710000e-01 -1.542941000e+00
30700000.0 -1.105620000e-01 -1.558158000e+00
31600000.0 -9.945400000e-02 -1.574139000e+00
32500000.0 -8.859000000e-02 -1.587895000e+00
33400000.0 -7.607300000e-02 -1.603268000e+00
34300000.0 -6.419900000e-02 -1.619111000e+00
35200000.0 -4.983400000e-02 -1.634623000e+00
36100000.0 -3.771000000e-02 -1.649603000e+00
37000000.0 -2.178400000e-02 -1.666787000e+00
37900000.0 -8.328000000e-03 -1.680068000e+00
38800000.0 8.674000000e-03 -1.696741000e+00
39700000.0 2.490600000e-02 -1.712385000e+00
40600000.0 4.184900000e-02 -1.726610000e+00
41500000.0 5.952900000e-02 -1.743538000e+00
42400000.0 7.939000000e-02 -1.758059000e+00
43300000.0 9.754800000e-02 -1.774077000e+00
44200000.0 1.201860000e-01 -1.789225000e+00
45100000.0 1.413970000e-01 -1.803830000e+00
46000000.0 1.634200000e-01 -1.817893000e+00
46900000.0 1.870370000e-01 -1.831163000e+00
47800000.0 2.106450000e-01 -1.845098000e+00
48700000.0 2.338390000e-01 -1.858259000e+00
49600000.0 2.616240000e-01 -1.868892000e+00
50500000.0 2.856860000e-01 -1.880955000e+00
51400000.0 3.170210000e-01 -1.893584000e+00
52300000.0 3.442320000e-01 -1.905032000e+00
53200000.0 3.716820000e-01 -1.913790000e+00
54100000.0 4.038690000e-01 -1.924046000e+00
55000000.0 4.359050000e-01 -1.931164000e+00
55900000.0 4.668240000e-01 -1.938597000e+00
56800000.0 5.002100000e-01 -1.945472000e+00
57700000.0 5.330400000e-01 -1.951101000e+00
58600000.0 5.686060000e-01 -1.950581000e+00
59500000.0 6.029880000e-01 -1.955660000e+00
60400000.0 6.374750000e-01 -1.954409000e+00
61300000.0 6.756290000e-01 -1.956502000e+00
62200000.0 7.110990000e-01 -1.951226000e+00
63100000.0 7.502810000e-01 -1.948105000e+00
64000000.0 7.833100000e-01 -1.944141000e+00
64900000.0 8.225540000e-01 -1.937035000e+00
65800000.0 8.599410000e-01 -1.929271000e+00
66700000.0 8.986610000e-01 -1.918140000e+00
67600000.0 9.349690000e-01 -1.904019000e+00
68500000.0 9.706320000e-01 -1.891135000e+00
69400000.0 1.006929000e+00 -1.875495000e+00
70300000.0 1.042254000e+00 -1.860800000e+00
71200000.0 1.077750000e+00 -1.838382000e+00
72100000.0 1.112760000e+00 -1.820410000e+00
73000000.0 1.144179000e+00 -1.798213000e+00
73900000.0 1.177947000e+00 -1.773121000e+00
74800000.0 1.207233000e+00 -1.751067000e+00
75700000.0 1.239717000e+00 -1.720952000e+00
76600000.0 1.267651000e+00 -1.694243000e+00
77500000.0 1.293875000e+00 -1.665120000e+00
78400000.0 1.318635000e+00 -1.636768000e+00
79300000.0 1.342342000e+00 -1.606081000e+00
80200000.0 1.364572000e+00 -1.575685000e+00
81100000.0 1.385290000e+00 -1.541096000e+00
82000000.0 1.405270000e+00 -1.508418000e+00
82900000.0 1.423523000e+00 -1.474654000e+00
83800000.0 1.437868000e+00 -1.441317000e+00
84700000.0 1.453197000e+00 -1.408065000e+00
85600000.0 1.466403000e+00 -1.375188000e+00
86500000.0 1.476808000e+00 -1.342110000e+00
87400000.0 1.487545000e+00 -1.306141000e+00
88300000.0 1.495962000e+00 -1.273877000e+00
89200000.0 1.501867000e+00 -1.241389000e+00
90100000.0 1.508822000e+00 -1.206726000e+00
91000000.0 1.510760000e+00 -1.177581000e+00
91900000.0 1.512774000e+00 -1.144563000e+00
92800000.0 1.517098000e+00 -1.112552000e+00
93700000.0 1.516515000e+00 -1.080103000e+00
94600000.0 1.515652000e+00 -1.051016000e+00
95500000.0 1.514490000e+00 -1.021865000e+00
96400000.0 1.510995000e+00 -9.908100000e-01
97300000.0 1.510630000e+00 -9.621560000e-01
98200000.0 1.505859000e+00 -9.356930000e-01
99100000.0 1.502085000e+00 -9.083430000e-01
100000000.0 1.496482000e+00 -8.811800000e-01
109000000.0 1.414745000e+00 -6.595550000e-01
118000000.0 1.309311000e+00 -4.962570000e-01
127000000.0 1.204028000e+00 -3.830190000e-01
136000000.0 1.102134000e+00 -3.081600000e-01
145000000.0 1.011742000e+00 -2.518940000e-01
154000000.0 9.638450000e-01 -2.341860000e-01
163000000.0 9.603240000e-01 -2.477570000e-01
172000000.0 9.576850000e-01 -2.618530000e-01
181000000.0 9.532600000e-01 -2.743170000e-01
190000000.0 9.499100000e-01 -2.866760000e-01
199000000.0 9.447650000e-01 -2.992820000e-01
208000000.0 9.405580000e-01 -3.121470000e-01
217000000.0 9.375820000e-01 -3.230900000e-01
226000000.0 9.317940000e-01 -3.364100000e-01
235000000.0 9.272610000e-01 -3.485080000e-01
244000000.0 9.218620000e-01 -3.600700000e-01
253000000.0 9.156880000e-01 -3.710750000e-01
262000000.0 9.103640000e-01 -3.821460000e-01
271000000.0 9.046460000e-01 -3.958180000e-01
280000000.0 8.985340000e-01 -4.066630000e-01
289000000.0 8.916100000e-01 -4.197130000e-01
298000000.0 8.841650000e-01 -4.294560000e-01
307000000.0 8.802710000e-01 -4.410530000e-01
316000000.0 8.749610000e-01 -4.500370000e-01
325000000.0 8.707880000e-01 -4.627450000e-01
334000000.0 8.655350000e-01 -4.733540000e-01
343000000.0 8.582180000e-01 -4.829200000e-01
352000000.0 8.512730000e-01 -4.970850000e-01
361000000.0 8.340440000e-01 -5.215960000e-01
370000000.0 8.387770000e-01 -5.160940000e-01
379000000.0 8.566400000e-01 -4.998240000e-01
388000000.0 8.240360000e-01 -5.373060000e-01
397000000.0 8.161370000e-01 -5.459950000e-01
406000000.0 8.098460000e-01 -5.549820000e-01
415000000.0 8.002110000e-01 -5.657330000e-01
424000000.0 7.911670000e-01 -5.753040000e-01
433000000.0 7.864020000e-01 -5.837100000e-01
442000000.0 7.764300000e-01 -5.933340000e-01
451000000.0 7.626230000e-01 -6.060190000e-01
460000000.0 7.606120000e-01 -6.124850000e-01
469000000.0 7.556290000e-01 -6.200720000e-01
478000000.0 7.493770000e-01 -6.315370000e-01
487000000.0 7.422570000e-01 -6.423780000e-01
496000000.0 7.368810000e-01 -6.506650000e-01
505000000.0 7.279200000e-01 -6.603740000e-01
514000000.0 7.222580000e-01 -6.687790000e-01
523000000.0 7.125290000e-01 -6.785240000e-01
532000000.0 7.067950000e-01 -6.878920000e-01
541000000.0 6.992840000e-01 -6.945690000e-01
550000000.0 6.907290000e-01 -7.030890000e-01
559000000.0 6.771920000e-01 -7.151780000e-01
568000000.0 6.672320000e-01 -7.187060000e-01
577000000.0 6.540390000e-01 -7.319970000e-01
586000000.0 6.472020000e-01 -7.328730000e-01
595000000.0 6.359530000e-01 -7.408160000e-01
604000000.0 6.279130000e-01 -7.521820000e-01
613000000.0 6.184520000e-01 -7.609080000e-01
622000000.0 6.107020000e-01 -7.709380000e-01
631000000.0 6.046410000e-01 -7.817240000e-01
640000000.0 5.938850000e-01 -7.882500000e-01
649000000.0 5.883590000e-01 -7.959060000e-01
658000000.0 5.767110000e-01 -8.059410000e-01
667000000.0 5.664840000e-01 -8.120420000e-01
676000000.0 5.536270000e-01 -8.179920000e-01
685000000.0 5.311080000e-01 -8.343890000e-01
694000000.0 5.370990000e-01 -8.328390000e-01
703000000.0 5.263750000e-01 -8.403960000e-01
712000000.0 5.148250000e-01 -8.433930000e-01
721000000.0 5.021510000e-01 -8.428360000e-01
730000000.0 4.905830000e-01 -8.463180000e-01
739000000.0 4.937290000e-01 -8.418010000e-01
748000000.0 4.632920000e-01 -8.497560000e-01
757000000.0 4.387720000e-01 -8.639240000e-01
766000000.0 4.427870000e-01 -8.661640000e-01
775000000.0 4.462650000e-01 -8.675620000e-01
784000000.0 4.184470000e-01 -8.807120000e-01
793000000.0 4.075010000e-01 -8.857220000e-01
802000000.0 3.944120000e-01 -8.937920000e-01
811000000.0 3.838660000e-01 -8.980680000e-01
820000000.0 3.730720000e-01 -9.038520000e-01
829000000.0 3.620190000e-01 -9.063130000e-01
838000000.0 3.537790000e-01 -9.092440000e-01
847000000.0 3.436080000e-01 -9.141260000e-01
856000000.0 3.344790000e-01 -9.151920000e-01
865000000.0 3.275590000e-01 -9.160180000e-01
874000000.0 3.169150000e-01 -9.179870000e-01
883000000.0 3.083050000e-01 -9.194160000e-01
892000000.0 2.984950000e-01 -9.226520000e-01
901000000.0 2.884440000e-01 -9.198690000e-01
910000000.0 2.785650000e-01 -9.238740000e-01
919000000.0 2.653890000e-01 -9.256900000e-01
928000000.0 2.541170000e-01 -9.292740000e-01
937000000.0 2.427850000e-01 -9.297940000e-01
946000000.0 2.292110000e-01 -9.342730000e-01
955000000.0 2.199450000e-01 -9.355960000e-01
964000000.0 2.107670000e-01 -9.371310000e-01
973000000.0 1.985880000e-01 -9.394640000e-01
982000000.0 1.940170000e-01 -9.388510000e-01
991000000.0 1.787550000e-01 -9.424310000e-01
1000000000.0 1.723950000e-01 -9.437860000e-01
1004500000.0 1.709630000e-01 -9.448950000e-01
1009000000.0 1.634010000e-01 -9.455320000e-01
1013500000.0 1.574830000e-01 -9.467150000e-01
1018000000.0 1.533690000e-01 -9.482140000e-01
1022500000.0 1.509660000e-01 -9.478410000e-01
1027000000.0 1.458880000e-01 -9.478740000e-01
1031500000.0 1.386060000e-01 -9.494010000e-01
1036000000.0 1.331540000e-01 -9.516600000e-01
1040500000.0 1.290950000e-01 -9.504460000e-01
1045000000.0 1.108820000e-01 -9.513980000e-01
1049500000.0 1.216450000e-01 -9.532590000e-01
1054000000.0 1.191460000e-01 -9.519340000e-01
1058500000.0 1.101630000e-01 -9.547400000e-01
1063000000.0 1.023800000e-01 -9.558170000e-01
1067500000.0 8.343800000e-02 -9.554290000e-01
1072000000.0 1.005600000e-01 -9.557170000e-01
1076500000.0 1.121090000e-01 -9.560320000e-01
1081000000.0 8.814500000e-02 -9.554620000e-01
1085500000.0 6.126900000e-02 -9.564110000e-01
1090000000.0 7.749600000e-02 -9.565700000e-01
1094500000.0 8.920600000e-02 -9.578960000e-01
1099000000.0 6.756000000e-02 -9.591950000e-01
1103500000.0 6.800800000e-02 -9.576060000e-01
1108000000.0 6.343300000e-02 -9.593740000e-01
1112500000.0 5.101500000e-02 -9.616450000e-01
1117000000.0 5.142400000e-02 -9.611550000e-01
1121500000.0 4.118800000e-02 -9.618960000e-01
1126000000.0 1.673500000e-02 -9.586170000e-01
1130500000.0 2.853800000e-02 -9.613910000e-01
1135000000.0 2.137200000e-02 -9.640510000e-01
1139500000.0 2.042000000e-02 -9.594160000e-01
1144000000.0 1.066100000e-02 -9.620190000e-01
1148500000.0 4.775600000e-02 -9.694700000e-01
1153000000.0 4.503000000e-03 -9.629460000e-01
1157500000.0 -2.985700000e-02 -9.529900000e-01
1162000000.0 -4.073000000e-03 -9.613350000e-01
1166500000.0 -1.031200000e-02 -9.600750000e-01
1171000000.0 -1.684900000e-02 -9.612070000e-01
1175500000.0 -1.781400000e-02 -9.616630000e-01
1180000000.0 -2.997500000e-02 -9.566480000e-01
1184500000.0 -3.105400000e-02 -9.589990000e-01
1189000000.0 -3.982600000e-02 -9.625150000e-01
1193500000.0 -4.465200000e-02 -9.553090000e-01
1198000000.0 -4.829600000e-02 -9.588260000e-01
1202500000.0 -5.540400000e-02 -9.606350000e-01
1207000000.0 -5.788900000e-02 -9.605080000e-01
1211500000.0 -5.778400000e-02 -9.588960000e-01
1216000000.0 -6.669600000e-02 -9.598770000e-01
1220500000.0 -7.540800000e-02 -9.595600000e-01
1225000000.0 -7.468400000e-02 -9.552780000e-01
1229500000.0 -7.955100000e-02 -9.620930000e-01
1234000000.0 -8.418700000e-02 -9.604290000e-01
1238500000.0 -9.337700000e-02 -9.578310000e-01
1243000000.0 -9.140000000e-02 -9.571310000e-01
1247500000.0 -9.587200000e-02 -9.574690000e-01
1252000000.0 -1.095510000e-01 -9.552210000e-01
1256500000.0 -1.027270000e-01 -9.613170000e-01
1261000000.0 -1.083430000e-01 -9.543720000e-01
1265500000.0 -1.168040000e-01 -9.552400000e-01
1270000000.0 -1.181300000e-01 -9.578740000e-01
1274500000.0 -1.126100000e-01 -9.582660000e-01
1279000000.0 -1.286310000e-01 -9.551360000e-01
1283500000.0 -1.315380000e-01 -9.534470000e-01
1288000000.0 -1.395260000e-01 -9.527450000e-01
1292500000.0 -1.462810000e-01 -9.563560000e-01
1297000000.0 -1.511940000e-01 -9.461150000e-01
1301500000.0 -1.543740000e-01 -9.561390000e-01
1306000000.0 -1.579570000e-01 -9.495450000e-01
1310500000.0 -1.644540000e-01 -9.472850000e-01
1315000000.0 -1.638950000e-01 -9.481600000e-01
1319500000.0 -1.783890000e-01 -9.470620000e-01
1324000000.0 -1.821780000e-01 -9.452460000e-01
1328500000.0 -1.886860000e-01 -9.428220000e-01
1333000000.0 -1.830080000e-01 -9.495560000e-01
1337500000.0 -1.906690000e-01 -9.446950000e-01
1342000000.0 -1.935520000e-01 -9.404330000e-01
1346500000.0 -2.083920000e-01 -9.395650000e-01
1351000000.0 -2.110700000e-01 -9.385540000e-01
1355500000.0 -2.126600000e-01 -9.359790000e-01
1360000000.0 -2.205760000e-01 -9.423970000e-01
1364500000.0 -2.222490000e-01 -9.367380000e-01
1369000000.0 -2.316240000e-01 -9.388910000e-01
1373500000.0 -2.323060000e-01 -9.489990000e-01
1378000000.0 -2.379740000e-01 -9.411160000e-01
1382500000.0 -2.383550000e-01 -9.414340000e-01
1387000000.0 -2.428310000e-01 -9.327670000e-01
1391500000.0 -2.470130000e-01 -9.430130000e-01
1396000000.0 -2.497850000e-01 -9.425410000e-01
1400500000.0 -2.462460000e-01 -9.415600000e-01
1405000000.0 -2.698550000e-01 -9.416150000e-01
1409500000.0 -2.590770000e-01 -9.504850000e-01
1414000000.0 -2.676240000e-01 -9.365910000e-01
1418500000.0 -2.678190000e-01 -9.465400000e-01
1423000000.0 -2.706540000e-01 -9.411650000e-01
1427500000.0 -2.693070000e-01 -9.380400000e-01
1432000000.0 -2.840710000e-01 -9.312350000e-01
1436500000.0 -2.921540000e-01 -9.374860000e-01
1441000000.0 -2.948730000e-01 -9.283730000e-01
1445500000.0 -3.040390000e-01 -9.257720000e-01
1450000000.0 -3.019010000e-01 -9.268140000e-01
