! piloto_corto / corto_aluminio / r08
# HZ S RI R 50
50000.0 -9.927510000e-01 -3.627400000e-02
59500.0 -9.905780000e-01 -1.742500000e-02
69000.0 -9.924650000e-01 -7.492000000e-03
78500.0 -9.923510000e-01 -1.285000000e-03
88000.0 -9.923870000e-01 1.416000000e-03
97500.0 -9.932310000e-01 1.524000000e-03
107000.0 -9.935960000e-01 -1.051000000e-03
116500.0 -9.939890000e-01 -5.067000000e-03
126000.0 -9.934360000e-01 -9.003000000e-03
135500.0 -9.936940000e-01 -1.445000000e-02
145000.0 -9.938210000e-01 -2.100100000e-02
154500.0 -9.926570000e-01 -2.741600000e-02
164000.0 -9.926460000e-01 -3.424000000e-02
173500.0 -9.937160000e-01 -4.172000000e-02
183000.0 -9.932790000e-01 -4.983300000e-02
192500.0 -9.933240000e-01 -5.796600000e-02
202000.0 -9.935180000e-01 -6.576200000e-02
211500.0 -9.928500000e-01 -7.431100000e-02
221000.0 -9.927470000e-01 -8.237700000e-02
230500.0 -9.922400000e-01 -9.210200000e-02
240000.0 -9.907600000e-01 -1.004370000e-01
249500.0 -9.909170000e-01 -1.090340000e-01
259000.0 -9.885880000e-01 -1.181290000e-01
268500.0 -9.868320000e-01 -1.261600000e-01
278000.0 -9.877260000e-01 -1.356890000e-01
287500.0 -9.878270000e-01 -1.451860000e-01
297000.0 -9.894080000e-01 -1.533990000e-01
306500.0 -9.893530000e-01 -1.632580000e-01
316000.0 -9.887560000e-01 -1.723080000e-01
325500.0 -9.892130000e-01 -1.811110000e-01
335000.0 -9.900070000e-01 -1.903860000e-01
344500.0 -9.898980000e-01 -1.989860000e-01
354000.0 -9.908260000e-01 -2.087390000e-01
363500.0 -9.909110000e-01 -2.183040000e-01
373000.0 -9.921760000e-01 -2.265560000e-01
382500.0 -9.911300000e-01 -2.357810000e-01
392000.0 -9.914850000e-01 -2.452100000e-01
401500.0 -9.911130000e-01 -2.540680000e-01
411000.0 -9.912670000e-01 -2.638330000e-01
420500.0 -9.911840000e-01 -2.719220000e-01
430000.0 -9.926910000e-01 -2.807940000e-01
439500.0 -9.918460000e-01 -2.905460000e-01
449000.0 -9.924230000e-01 -3.003840000e-01
458500.0 -9.932280000e-01 -3.083790000e-01
468000.0 -9.930400000e-01 -3.177140000e-01
477500.0 -9.927240000e-01 -3.272010000e-01
487000.0 -9.927800000e-01 -3.362600000e-01
496500.0 -9.932010000e-01 -3.450200000e-01
506000.0 -9.939060000e-01 -3.541510000e-01
515500.0 -9.945170000e-01 -3.635260000e-01
525000.0 -9.939860000e-01 -3.728320000e-01
534500.0 -9.938460000e-01 -3.805530000e-01
544000.0 -9.943560000e-01 -3.898500000e-01
553500.0 -9.951140000e-01 -3.983560000e-01
563000.0 -9.940620000e-01 -4.073040000e-01
572500.0 -9.956850000e-01 -4.172310000e-01
582000.0 -9.953310000e-01 -4.249510000e-01
591500.0 -9.969250000e-01 -4.344720000e-01
601000.0 -9.973820000e-01 -4.434380000e-01
610500.0 -9.971330000e-01 -4.521550000e-01
620000.0 -9.959770000e-01 -4.604660000e-01
629500.0 -9.980040000e-01 -4.708890000e-01
639000.0 -9.978860000e-01 -4.785490000e-01
648500.0 -1.004174000e+00 -4.678420000e-01
658000.0 -9.970740000e-01 -4.951800000e-01
667500.0 -1.004439000e+00 -4.850990000e-01
677000.0 -1.018409000e+00 -5.085530000e-01
686500.0 -1.005193000e+00 -5.022690000e-01
696000.0 -9.905930000e-01 -5.491640000e-01
705500.0 -1.007676000e+00 -5.208440000e-01
715000.0 -9.919850000e-01 -5.672300000e-01
724500.0 -1.010219000e+00 -5.380740000e-01
734000.0 -9.930840000e-01 -5.847830000e-01
743500.0 -1.012997000e+00 -5.549730000e-01
753000.0 -1.006869000e+00 -5.831520000e-01
762500.0 -1.005865000e+00 -5.909990000e-01
772000.0 -1.007352000e+00 -6.002890000e-01
781500.0 -1.008925000e+00 -6.091990000e-01
791000.0 -1.009425000e+00 -6.179480000e-01
800500.0 -1.010922000e+00 -6.259880000e-01
810000.0 -1.011687000e+00 -6.355260000e-01
819500.0 -1.013598000e+00 -6.439380000e-01
829000.0 -1.013472000e+00 -6.528630000e-01
838500.0 -1.011966000e+00 -6.582390000e-01
848000.0 -1.015195000e+00 -6.676700000e-01
857500.0 -1.017463000e+00 -6.761270000e-01
867000.0 -1.016625000e+00 -6.852010000e-01
876500.0 -1.017287000e+00 -6.925170000e-01
886000.0 -1.018583000e+00 -6.998680000e-01
895500.0 -1.020679000e+00 -7.086950000e-01
905000.0 -1.023350000e+00 -7.181390000e-01
914500.0 -1.024768000e+00 -7.268540000e-01
924000.0 -1.028104000e+00 -7.339840000e-01
933500.0 -1.029293000e+00 -7.414820000e-01
943000.0 -1.032347000e+00 -7.517640000e-01
952500.0 -1.032633000e+00 -7.590020000e-01
962000.0 -1.035899000e+00 -7.673790000e-01
971500.0 -1.036643000e+00 -7.756300000e-01
981000.0 -1.040973000e+00 -7.837330000e-01
990500.0 -1.042695000e+00 -7.928450000e-01
1000000.0 -1.045600000e+00 -8.012140000e-01
1090000.0 -1.077553000e+00 -8.815130000e-01
1180000.0 -1.113279000e+00 -9.520340000e-01
1270000.0 -1.156979000e+00 -1.021015000e+00
1360000.0 -1.209338000e+00 -1.081400000e+00
1450000.0 -1.274400000e+00 -1.133477000e+00
1540000.0 -1.349900000e+00 -1.172038000e+00
1630000.0 -1.430066000e+00 -1.193420000e+00
1720000.0 -1.518558000e+00 -1.197156000e+00
1810000.0 -1.606859000e+00 -1.183578000e+00
1900000.0 -1.687928000e+00 -1.142064000e+00
1990000.0 -1.765325000e+00 -1.087533000e+00
2080000.0 -1.820011000e+00 -1.013698000e+00
2170000.0 -1.866451000e+00 -9.282620000e-01
2260000.0 -1.887112000e+00 -8.430740000e-01
2350000.0 -1.893221000e+00 -7.503970000e-01
2440000.0 -1.884287000e+00 -6.640330000e-01
2530000.0 -1.861597000e+00 -5.851800000e-01
2620000.0 -1.829538000e+00 -5.122570000e-01
2710000.0 -1.793773000e+00 -4.489460000e-01
2800000.0 -1.755372000e+00 -3.941860000e-01
2890000.0 -1.711071000e+00 -3.495890000e-01
2980000.0 -1.664399000e+00 -3.063760000e-01
3070000.0 -1.624313000e+00 -2.710040000e-01
3160000.0 -1.584401000e+00 -2.399430000e-01
3250000.0 -1.547362000e+00 -2.126750000e-01
3340000.0 -1.514435000e+00 -1.888610000e-01
3430000.0 -1.478313000e+00 -1.677310000e-01
3520000.0 -1.448274000e+00 -1.499030000e-01
3610000.0 -1.418683000e+00 -1.318800000e-01
3700000.0 -1.391514000e+00 -1.170820000e-01
3790000.0 -1.365788000e+00 -1.002540000e-01
3880000.0 -1.342899000e+00 -8.468300000e-02
3970000.0 -1.320238000e+00 -7.416800000e-02
4060000.0 -1.300184000e+00 -6.004300000e-02
4150000.0 -1.281923000e+00 -4.680600000e-02
4240000.0 -1.266765000e+00 -3.517800000e-02
4330000.0 -1.252120000e+00 -2.271400000e-02
4420000.0 -1.237693000e+00 -1.135500000e-02
4510000.0 -1.224266000e+00 -3.630000000e-04
4600000.0 -1.212749000e+00 1.152400000e-02
4690000.0 -1.200763000e+00 2.327400000e-02
4780000.0 -1.192267000e+00 3.245000000e-02
4870000.0 -1.182974000e+00 4.349100000e-02
4960000.0 -1.174952000e+00 5.510600000e-02
5050000.0 -1.159775000e+00 6.452600000e-02
5140000.0 -1.154477000e+00 7.491800000e-02
5230000.0 -1.147227000e+00 8.666000000e-02
5320000.0 -1.142882000e+00 9.735700000e-02
5410000.0 -1.136859000e+00 1.065640000e-01
5500000.0 -1.131902000e+00 1.189840000e-01
5590000.0 -1.126532000e+00 1.272970000e-01
5680000.0 -1.121792000e+00 1.360900000e-01
5770000.0 -1.117912000e+00 1.468680000e-01
5860000.0 -1.114003000e+00 1.548300000e-01
5950000.0 -1.112099000e+00 1.647170000e-01
6040000.0 -1.107183000e+00 1.735720000e-01
6130000.0 -1.105488000e+00 1.819250000e-01
6220000.0 -1.102881000e+00 1.898530000e-01
6310000.0 -1.100491000e+00 1.985130000e-01
6400000.0 -1.098196000e+00 2.058540000e-01
6490000.0 -1.095747000e+00 2.124730000e-01
6580000.0 -1.094335000e+00 2.175310000e-01
6670000.0 -1.091678000e+00 2.239980000e-01
6760000.0 -1.089831000e+00 2.286310000e-01
6850000.0 -1.088446000e+00 2.322830000e-01
6940000.0 -1.087657000e+00 2.375670000e-01
7030000.0 -1.086347000e+00 2.409330000e-01
7120000.0 -1.085158000e+00 2.434290000e-01
7210000.0 -1.085479000e+00 2.452580000e-01
7300000.0 -1.085919000e+00 2.468150000e-01
7390000.0 -1.085273000e+00 2.472670000e-01
7480000.0 -1.085014000e+00 2.473870000e-01
7570000.0 2.010390000e-01 1.056412000e+00
7660000.0 2.011570000e-01 1.057407000e+00
7750000.0 1.989210000e-01 1.056148000e+00
7840000.0 1.981290000e-01 1.056266000e+00
7930000.0 1.971400000e-01 1.055516000e+00
8020000.0 1.978430000e-01 1.056049000e+00
8110000.0 1.951150000e-01 1.057041000e+00
8200000.0 1.956070000e-01 1.056644000e+00
8290000.0 1.955940000e-01 1.057171000e+00
8380000.0 1.946000000e-01 1.057073000e+00
8470000.0 1.935530000e-01 1.057424000e+00
8560000.0 1.927340000e-01 1.059196000e+00
8650000.0 1.922030000e-01 1.059366000e+00
8740000.0 1.924060000e-01 1.059744000e+00
8830000.0 1.914520000e-01 1.060474000e+00
8920000.0 1.904470000e-01 1.061527000e+00
9010000.0 1.902410000e-01 1.061861000e+00
9100000.0 1.890270000e-01 1.062429000e+00
9190000.0 1.892320000e-01 1.063651000e+00
9280000.0 1.883660000e-01 1.064600000e+00
9370000.0 1.872910000e-01 1.063681000e+00
9460000.0 1.861500000e-01 1.062905000e+00
9550000.0 1.859130000e-01 1.061718000e+00
9640000.0 1.852700000e-01 1.064096000e+00
9730000.0 1.844430000e-01 1.064888000e+00
9820000.0 1.855650000e-01 1.065750000e+00
9910000.0 1.848760000e-01 1.066986000e+00
10000000.0 1.845980000e-01 1.067788000e+00
10900000.0 1.786670000e-01 1.074903000e+00
11800000.0 1.728890000e-01 1.080530000e+00
12700000.0 1.647090000e-01 1.087941000e+00
13600000.0 1.617190000e-01 1.093637000e+00
14500000.0 1.555780000e-01 1.102613000e+00
15400000.0 1.513690000e-01 1.112124000e+00
16300000.0 1.458500000e-01 1.126150000e+00
17200000.0 1.405690000e-01 1.134444000e+00
18100000.0 1.332120000e-01 1.144814000e+00
19000000.0 1.273650000e-01 1.151996000e+00
19900000.0 1.213210000e-01 1.167046000e+00
20800000.0 1.149230000e-01 1.179338000e+00
21700000.0 1.076320000e-01 1.189376000e+00
22600000.0 1.008860000e-01 1.198152000e+00
23500000.0 9.227900000e-02 1.208779000e+00
24400000.0 8.417600000e-02 1.217978000e+00
25300000.0 7.479100000e-02 1.226896000e+00
26200000.0 6.571200000e-02 1.234916000e+00
27100000.0 5.595800000e-02 1.244208000e+00
28000000.0 4.574400000e-02 1.254378000e+00
28900000.0 3.642500000e-02 1.266065000e+00
29800000.0 2.547300000e-02 1.276145000e+00
30700000.0 1.461500000e-02 1.287664000e+00
31600000.0 2.370000000e-03 1.297301000e+00
32500000.0 -1.023600000e-02 1.309318000e+00
33400000.0 -2.184700000e-02 1.320555000e+00
34300000.0 -3.432100000e-02 1.331211000e+00
35200000.0 -4.806400000e-02 1.341392000e+00
36100000.0 -6.183700000e-02 1.352281000e+00
37000000.0 -7.560400000e-02 1.360833000e+00
37900000.0 -9.108600000e-02 1.369783000e+00
38800000.0 -1.051010000e-01 1.380500000e+00
39700000.0 -1.194800000e-01 1.388940000e+00
40600000.0 -1.366800000e-01 1.397355000e+00
41500000.0 -1.540040000e-01 1.406387000e+00
42400000.0 -1.687120000e-01 1.414438000e+00
43300000.0 -1.868380000e-01 1.422789000e+00
44200000.0 -2.043160000e-01 1.429988000e+00
45100000.0 -2.224030000e-01 1.436404000e+00
46000000.0 -2.399750000e-01 1.444711000e+00
46900000.0 -2.602150000e-01 1.449639000e+00
47800000.0 -2.790170000e-01 1.456555000e+00
48700000.0 -2.997140000e-01 1.463612000e+00
49600000.0 -3.196260000e-01 1.467793000e+00
50500000.0 -3.396140000e-01 1.472923000e+00
51400000.0 -3.623710000e-01 1.476598000e+00
52300000.0 -3.835430000e-01 1.480307000e+00
53200000.0 -4.030940000e-01 1.483013000e+00
54100000.0 -4.255590000e-01 1.485376000e+00
55000000.0 -4.478380000e-01 1.486510000e+00
55900000.0 -4.700090000e-01 1.488015000e+00
56800000.0 -4.918360000e-01 1.489328000e+00
57700000.0 -5.154590000e-01 1.490210000e+00
58600000.0 -5.397700000e-01 1.489395000e+00
59500000.0 -5.590950000e-01 1.488235000e+00
60400000.0 -5.824820000e-01 1.486612000e+00
61300000.0 -6.064190000e-01 1.483648000e+00
62200000.0 -6.294320000e-01 1.479057000e+00
63100000.0 -6.536210000e-01 1.475502000e+00
64000000.0 -6.755140000e-01 1.471660000e+00
64900000.0 -6.982760000e-01 1.465422000e+00
65800000.0 -7.208820000e-01 1.460489000e+00
66700000.0 -7.443880000e-01 1.453376000e+00
67600000.0 -7.673320000e-01 1.443893000e+00
68500000.0 -7.879950000e-01 1.436101000e+00
69400000.0 -8.105400000e-01 1.427143000e+00
70300000.0 -8.331310000e-01 1.417909000e+00
71200000.0 -8.568720000e-01 1.407586000e+00
72100000.0 -8.775540000e-01 1.398052000e+00
73000000.0 -8.970390000e-01 1.385806000e+00
73900000.0 -9.176630000e-01 1.373279000e+00
74800000.0 -9.395050000e-01 1.361825000e+00
75700000.0 -9.582920000e-01 1.345611000e+00
76600000.0 -9.776840000e-01 1.331104000e+00
77500000.0 -9.968170000e-01 1.316217000e+00
78400000.0 -1.015445000e+00 1.301360000e+00
79300000.0 -1.032842000e+00 1.285735000e+00
80200000.0 -1.050266000e+00 1.271951000e+00
81100000.0 -1.067892000e+00 1.252013000e+00
82000000.0 -1.085202000e+00 1.236423000e+00
82900000.0 -1.101428000e+00 1.218674000e+00
83800000.0 -1.115929000e+00 1.201462000e+00
84700000.0 -1.132352000e+00 1.183106000e+00
85600000.0 -1.146639000e+00 1.164055000e+00
86500000.0 -1.159879000e+00 1.144141000e+00
87400000.0 -1.171244000e+00 1.125448000e+00
88300000.0 -1.184388000e+00 1.102903000e+00
89200000.0 -1.193578000e+00 1.080792000e+00
90100000.0 -1.204872000e+00 1.061110000e+00
91000000.0 -1.212326000e+00 1.039978000e+00
91900000.0 -1.223900000e+00 1.020432000e+00
92800000.0 -1.234312000e+00 1.002443000e+00
93700000.0 -1.245675000e+00 9.836770000e-01
94600000.0 -1.253777000e+00 9.617750000e-01
95500000.0 -1.260938000e+00 9.426960000e-01
96400000.0 -1.269034000e+00 9.224860000e-01
97300000.0 -1.275295000e+00 9.005710000e-01
98200000.0 -1.282131000e+00 8.806410000e-01
99100000.0 -1.286886000e+00 8.596310000e-01
100000000.0 -1.290646000e+00 8.392480000e-01
109000000.0 -1.300263000e+00 6.429020000e-01
118000000.0 -1.262139000e+00 4.738830000e-01
127000000.0 -1.195116000e+00 3.399210000e-01
136000000.0 -1.093502000e+00 2.393610000e-01
145000000.0 -1.015996000e+00 1.689580000e-01
154000000.0 -9.749890000e-01 1.406730000e-01
163000000.0 -9.762820000e-01 1.461450000e-01
172000000.0 -9.777130000e-01 1.526400000e-01
181000000.0 -9.783080000e-01 1.600530000e-01
190000000.0 -9.788670000e-01 1.670410000e-01
199000000.0 -9.775170000e-01 1.750910000e-01
208000000.0 -9.782750000e-01 1.819490000e-01
217000000.0 -9.772530000e-01 1.890380000e-01
226000000.0 -9.759680000e-01 1.983190000e-01
235000000.0 -9.739730000e-01 2.055390000e-01
244000000.0 -9.709970000e-01 2.150690000e-01
253000000.0 -9.682870000e-01 2.222870000e-01
262000000.0 -9.652720000e-01 2.306710000e-01
271000000.0 -9.621230000e-01 2.388420000e-01
280000000.0 -9.561960000e-01 2.498240000e-01
289000000.0 -9.494260000e-01 2.594090000e-01
298000000.0 -9.442640000e-01 2.673890000e-01
307000000.0 -9.426240000e-01 2.751420000e-01
316000000.0 -9.416920000e-01 2.830420000e-01
325000000.0 -9.427270000e-01 2.937060000e-01
334000000.0 -9.401460000e-01 2.993560000e-01
343000000.0 -9.420220000e-01 3.067310000e-01
352000000.0 -9.400540000e-01 3.146000000e-01
361000000.0 -9.197110000e-01 3.520990000e-01
370000000.0 -9.373070000e-01 3.320560000e-01
379000000.0 -9.336700000e-01 3.402390000e-01
388000000.0 -9.311570000e-01 3.475610000e-01
397000000.0 -9.253820000e-01 3.529730000e-01
406000000.0 -9.212010000e-01 3.616640000e-01
415000000.0 -9.182060000e-01 3.680280000e-01
424000000.0 -9.106240000e-01 3.757900000e-01
433000000.0 -9.045990000e-01 3.813870000e-01
442000000.0 -8.987350000e-01 3.910220000e-01
451000000.0 -8.942710000e-01 3.948720000e-01
460000000.0 -8.934290000e-01 4.069170000e-01
469000000.0 -8.926190000e-01 4.145520000e-01
478000000.0 -8.914140000e-01 4.226140000e-01
487000000.0 -8.880710000e-01 4.321730000e-01
496000000.0 -8.853790000e-01 4.424760000e-01
505000000.0 -8.820480000e-01 4.514090000e-01
514000000.0 -8.797300000e-01 4.563650000e-01
523000000.0 -8.762400000e-01 4.632160000e-01
532000000.0 -8.715280000e-01 4.716640000e-01
541000000.0 -8.716580000e-01 4.765710000e-01
550000000.0 -8.645920000e-01 4.833440000e-01
559000000.0 -8.571100000e-01 4.910460000e-01
568000000.0 -8.522010000e-01 4.958840000e-01
577000000.0 -8.466220000e-01 5.023040000e-01
586000000.0 -8.363260000e-01 5.099110000e-01
595000000.0 -8.359360000e-01 5.118190000e-01
604000000.0 -8.259870000e-01 5.181380000e-01
613000000.0 -8.238600000e-01 5.270350000e-01
622000000.0 -8.190040000e-01 5.385760000e-01
631000000.0 -8.138830000e-01 5.453170000e-01
640000000.0 -8.088800000e-01 5.547970000e-01
649000000.0 -8.020980000e-01 5.618150000e-01
658000000.0 -8.013440000e-01 5.663260000e-01
667000000.0 -7.952290000e-01 5.790880000e-01
676000000.0 -7.898950000e-01 5.835090000e-01
685000000.0 -7.840690000e-01 5.908580000e-01
694000000.0 -7.784850000e-01 5.974180000e-01
703000000.0 -7.755210000e-01 6.006810000e-01
712000000.0 -7.571370000e-01 6.194670000e-01
721000000.0 -7.654850000e-01 6.081490000e-01
730000000.0 -7.573120000e-01 6.143020000e-01
739000000.0 -7.515140000e-01 6.183290000e-01
748000000.0 -7.456980000e-01 6.212280000e-01
757000000.0 -7.398790000e-01 6.286940000e-01
766000000.0 -7.321880000e-01 6.375080000e-01
775000000.0 -7.327460000e-01 6.418240000e-01
784000000.0 -7.245600000e-01 6.499470000e-01
793000000.0 -7.218810000e-01 6.545600000e-01
802000000.0 -7.136860000e-01 6.603130000e-01
811000000.0 -7.092880000e-01 6.684260000e-01
820000000.0 -7.035180000e-01 6.723040000e-01
829000000.0 -6.986440000e-01 6.786740000e-01
838000000.0 -6.925870000e-01 6.848190000e-01
847000000.0 -6.845830000e-01 6.872000000e-01
856000000.0 -6.811850000e-01 6.976870000e-01
865000000.0 -6.750340000e-01 7.000050000e-01
874000000.0 -6.656140000e-01 7.062950000e-01
883000000.0 -6.588440000e-01 7.124230000e-01
892000000.0 -6.591420000e-01 7.161480000e-01
901000000.0 -6.489960000e-01 7.212990000e-01
910000000.0 -6.502860000e-01 7.247050000e-01
919000000.0 -6.411850000e-01 7.323460000e-01
928000000.0 -6.326960000e-01 7.396740000e-01
937000000.0 -6.274800000e-01 7.449190000e-01
946000000.0 -6.237000000e-01 7.499950000e-01
955000000.0 -6.112050000e-01 7.586850000e-01
964000000.0 -6.104730000e-01 7.611050000e-01
973000000.0 -6.049480000e-01 7.667070000e-01
982000000.0 -5.974890000e-01 7.728180000e-01
991000000.0 -5.895990000e-01 7.772620000e-01
1000000000.0 -5.802580000e-01 7.842730000e-01
1004500000.0 -5.838780000e-01 7.881630000e-01
1009000000.0 -5.776950000e-01 7.904360000e-01
1013500000.0 -5.725460000e-01 7.925570000e-01
1018000000.0 -5.728140000e-01 7.943440000e-01
1022500000.0 -5.655200000e-01 7.959040000e-01
1027000000.0 -5.613530000e-01 7.994370000e-01
1031500000.0 -5.556730000e-01 8.031130000e-01
1036000000.0 -5.565180000e-01 8.039110000e-01
1040500000.0 -5.552140000e-01 8.035170000e-01
1045000000.0 -5.442500000e-01 8.097060000e-01
1049500000.0 -5.434850000e-01 8.100210000e-01
1054000000.0 -5.401120000e-01 8.113150000e-01
1058500000.0 -5.315000000e-01 8.175890000e-01
1063000000.0 -5.337130000e-01 8.183040000e-01
1067500000.0 -5.306760000e-01 8.198390000e-01
1072000000.0 -5.230230000e-01 8.269630000e-01
1076500000.0 -5.220900000e-01 8.300950000e-01
1081000000.0 -5.202820000e-01 8.322860000e-01
1085500000.0 -5.151690000e-01 8.361610000e-01
1090000000.0 -5.152770000e-01 8.345400000e-01
1094500000.0 -5.167480000e-01 8.374680000e-01
1099000000.0 -5.067910000e-01 8.421270000e-01
1103500000.0 -5.033880000e-01 8.456580000e-01
1108000000.0 -4.975860000e-01 8.484400000e-01
1112500000.0 -4.960910000e-01 8.486800000e-01
1117000000.0 -4.942960000e-01 8.532070000e-01
1121500000.0 -4.890210000e-01 8.523660000e-01
1126000000.0 -5.209160000e-01 8.469500000e-01
1130500000.0 -4.455240000e-01 8.694460000e-01
1135000000.0 -4.764270000e-01 8.612400000e-01
1139500000.0 -4.518670000e-01 8.720450000e-01
1144000000.0 -4.669930000e-01 8.653800000e-01
1148500000.0 -4.615600000e-01 8.703160000e-01
1153000000.0 -4.579330000e-01 8.679600000e-01
1157500000.0 -4.573120000e-01 8.662280000e-01
1162000000.0 -4.514900000e-01 8.678230000e-01
1166500000.0 -4.448470000e-01 8.662730000e-01
1171000000.0 -4.425390000e-01 8.681520000e-01
1175500000.0 -4.375420000e-01 8.746820000e-01
1180000000.0 -4.344120000e-01 8.721070000e-01
1184500000.0 -4.321380000e-01 8.700740000e-01
1189000000.0 -4.218550000e-01 8.663900000e-01
1193500000.0 -4.198980000e-01 8.662790000e-01
1198000000.0 -4.109920000e-01 8.705290000e-01
1202500000.0 -4.112790000e-01 8.719730000e-01
1207000000.0 -4.069060000e-01 8.760690000e-01
1211500000.0 -4.044330000e-01 8.773260000e-01
1216000000.0 -3.972030000e-01 8.795120000e-01
1220500000.0 -3.940780000e-01 8.810750000e-01
1225000000.0 -3.910670000e-01 8.851830000e-01
1229500000.0 -3.874780000e-01 8.846660000e-01
1234000000.0 -3.851900000e-01 8.874440000e-01
1238500000.0 -3.851250000e-01 8.873630000e-01
1243000000.0 -3.737810000e-01 8.931570000e-01
1247500000.0 -3.705040000e-01 8.933320000e-01
1252000000.0 -3.694550000e-01 8.937550000e-01
1256500000.0 -3.663940000e-01 9.006170000e-01
1261000000.0 -3.622100000e-01 9.002620000e-01
1265500000.0 -3.634380000e-01 8.973500000e-01
1270000000.0 -3.569600000e-01 9.024600000e-01
1274500000.0 -3.495640000e-01 9.022790000e-01
1279000000.0 -3.432680000e-01 9.043550000e-01
1283500000.0 -3.393210000e-01 9.076080000e-01
1288000000.0 -3.350700000e-01 9.075960000e-01
1292500000.0 -3.314790000e-01 9.073910000e-01
1297000000.0 -3.254020000e-01 9.069230000e-01
1301500000.0 -3.201080000e-01 9.071800000e-01
1306000000.0 -3.231100000e-01 9.083820000e-01
1310500000.0 -3.126120000e-01 9.124850000e-01
1315000000.0 -3.103640000e-01 9.085170000e-01
1319500000.0 -3.092780000e-01 9.124870000e-01
1324000000.0 -2.989250000e-01 9.147380000e-01
1328500000.0 -2.951950000e-01 9.153590000e-01
1333000000.0 -2.989420000e-01 9.117040000e-01
1337500000.0 -2.828590000e-01 9.159300000e-01
1342000000.0 -2.801070000e-01 9.115010000e-01
1346500000.0 -2.726260000e-01 9.136660000e-01
1351000000.0 -2.813110000e-01 9.102480000e-01
1355500000.0 -2.681530000e-01 9.173650000e-01
1360000000.0 -2.641820000e-01 9.161590000e-01
1364500000.0 -2.678200000e-01 9.188220000e-01
1369000000.0 -2.515530000e-01 9.196710000e-01
1373500000.0 -2.551740000e-01 9.282820000e-01
1378000000.0 -2.497560000e-01 9.234030000e-01
1382500000.0 -2.442910000e-01 9.236330000e-01
1387000000.0 -2.436900000e-01 9.275090000e-01
1391500000.0 -2.322610000e-01 9.296840000e-01
1396000000.0 -2.241030000e-01 9.355440000e-01
1400500000.0 -2.295620000e-01 9.314650000e-01
1405000000.0 -2.186670000e-01 9.335780000e-01
1409500000.0 -2.156180000e-01 9.298160000e-01
1414000000.0 -2.189960000e-01 9.336670000e-01
1418500000.0 -2.048150000e-01 9.378730000e-01
1423000000.0 -2.064000000e-01 9.358000000e-01
1427500000.0 -1.977520000e-01 9.476230000e-01
1432000000.0 -2.049170000e-01 9.368420000e-01
1436500000.0 -2.006820000e-01 9.373940000e-01
1441000000.0 -1.889120000e-01 9.451810000e-01
1445500000.0 -1.785670000e-01 9.439340000e-01
1450000000.0 -1.780040000e-01 9.438590000e-01
