! piloto_corto / aire / r21
# HZ S RI R 50
50000.0 1.005818000e+00 -7.122300000e-02
59500.0 1.003041000e+00 -5.884900000e-02
69000.0 1.003018000e+00 -4.329200000e-02
78500.0 1.002425000e+00 -3.106000000e-02
88000.0 1.001362000e+00 -1.903500000e-02
97500.0 1.000201000e+00 -6.518000000e-03
107000.0 1.000038000e+00 6.106000000e-03
116500.0 9.995320000e-01 1.749300000e-02
126000.0 1.001255000e+00 3.160100000e-02
135500.0 1.000273000e+00 4.245600000e-02
145000.0 1.000199000e+00 5.449100000e-02
154500.0 1.000961000e+00 6.702600000e-02
164000.0 1.000899000e+00 7.817300000e-02
173500.0 1.001862000e+00 9.020700000e-02
183000.0 1.002512000e+00 1.021780000e-01
192500.0 1.003195000e+00 1.141120000e-01
202000.0 1.002407000e+00 1.251670000e-01
211500.0 1.002489000e+00 1.369740000e-01
221000.0 1.003612000e+00 1.474400000e-01
230500.0 1.003770000e+00 1.592470000e-01
240000.0 1.003958000e+00 1.700390000e-01
249500.0 1.004442000e+00 1.817650000e-01
259000.0 1.004809000e+00 1.932430000e-01
268500.0 1.011215000e+00 2.388760000e-01
278000.0 1.005086000e+00 2.146040000e-01
287500.0 1.004917000e+00 2.251380000e-01
297000.0 1.005428000e+00 2.366600000e-01
306500.0 1.005622000e+00 2.471350000e-01
316000.0 1.005457000e+00 2.584130000e-01
325500.0 1.005458000e+00 2.684700000e-01
335000.0 1.006559000e+00 2.798260000e-01
344500.0 1.006559000e+00 2.895610000e-01
354000.0 1.005929000e+00 3.010630000e-01
363500.0 1.006853000e+00 3.112920000e-01
373000.0 1.006542000e+00 3.212900000e-01
382500.0 1.007127000e+00 3.321370000e-01
392000.0 1.006781000e+00 3.419480000e-01
401500.0 1.007227000e+00 3.531300000e-01
411000.0 1.007416000e+00 3.636780000e-01
420500.0 1.007612000e+00 3.739540000e-01
430000.0 1.008081000e+00 3.835370000e-01
439500.0 1.008296000e+00 3.943360000e-01
449000.0 1.010057000e+00 4.042760000e-01
458500.0 1.007880000e+00 4.146160000e-01
468000.0 1.008852000e+00 4.238140000e-01
477500.0 1.009386000e+00 4.348290000e-01
487000.0 1.009822000e+00 4.445770000e-01
496500.0 1.009226000e+00 4.538140000e-01
506000.0 1.010583000e+00 4.645380000e-01
515500.0 1.009869000e+00 4.734440000e-01
525000.0 1.011163000e+00 4.829230000e-01
534500.0 1.011556000e+00 4.941800000e-01
544000.0 1.012233000e+00 5.029310000e-01
553500.0 1.012548000e+00 5.129290000e-01
563000.0 1.012225000e+00 5.214210000e-01
572500.0 1.012900000e+00 5.329500000e-01
582000.0 1.014012000e+00 5.413880000e-01
591500.0 1.014158000e+00 5.522460000e-01
601000.0 1.014490000e+00 5.614600000e-01
610500.0 1.015081000e+00 5.704500000e-01
620000.0 1.015646000e+00 5.800020000e-01
629500.0 1.016296000e+00 5.904260000e-01
639000.0 1.016418000e+00 5.996210000e-01
648500.0 1.017029000e+00 6.091270000e-01
658000.0 1.017699000e+00 6.181330000e-01
667500.0 1.019947000e+00 6.274510000e-01
677000.0 1.019755000e+00 6.368950000e-01
686500.0 1.019508000e+00 6.470000000e-01
696000.0 1.020894000e+00 6.556520000e-01
705500.0 1.021737000e+00 6.661120000e-01
715000.0 1.022722000e+00 6.747480000e-01
724500.0 1.023848000e+00 6.845710000e-01
734000.0 1.024080000e+00 6.931630000e-01
743500.0 1.024541000e+00 7.017880000e-01
753000.0 1.026058000e+00 7.112330000e-01
762500.0 1.026824000e+00 7.217550000e-01
772000.0 1.028857000e+00 7.315520000e-01
781500.0 1.029809000e+00 7.391470000e-01
791000.0 1.030281000e+00 7.487170000e-01
800500.0 1.031260000e+00 7.568660000e-01
810000.0 1.032342000e+00 7.667400000e-01
819500.0 1.034928000e+00 7.758020000e-01
829000.0 1.037467000e+00 7.844740000e-01
838500.0 1.037993000e+00 7.936080000e-01
848000.0 1.038976000e+00 8.022300000e-01
857500.0 1.040913000e+00 8.115720000e-01
867000.0 1.043733000e+00 8.211970000e-01
876500.0 1.045097000e+00 8.293100000e-01
886000.0 1.045972000e+00 8.378220000e-01
895500.0 1.048506000e+00 8.463560000e-01
905000.0 1.049502000e+00 8.553860000e-01
914500.0 1.052611000e+00 8.656030000e-01
924000.0 1.054498000e+00 8.738070000e-01
933500.0 1.055385000e+00 8.821420000e-01
943000.0 1.058083000e+00 8.918310000e-01
952500.0 1.059149000e+00 9.001630000e-01
962000.0 1.061814000e+00 9.093220000e-01
971500.0 1.065943000e+00 9.189710000e-01
981000.0 1.068464000e+00 9.250290000e-01
990500.0 1.070941000e+00 9.349610000e-01
1000000.0 1.071733000e+00 9.438700000e-01
1090000.0 1.098719000e+00 1.022915000e+00
1180000.0 1.137369000e+00 1.097773000e+00
1270000.0 1.184778000e+00 1.169134000e+00
1360000.0 1.239626000e+00 1.229200000e+00
1450000.0 1.308534000e+00 1.282685000e+00
1540000.0 1.381893000e+00 1.318533000e+00
1630000.0 1.466886000e+00 1.346855000e+00
1720000.0 1.554209000e+00 1.353749000e+00
1810000.0 1.644006000e+00 1.339684000e+00
1900000.0 1.728524000e+00 1.305642000e+00
1990000.0 1.808821000e+00 1.249361000e+00
2080000.0 1.872467000e+00 1.179468000e+00
2170000.0 1.921284000e+00 1.099729000e+00
2260000.0 1.949274000e+00 1.010416000e+00
2350000.0 1.963060000e+00 9.229100000e-01
2440000.0 1.960561000e+00 8.360790000e-01
2530000.0 1.946939000e+00 7.520420000e-01
2620000.0 1.922128000e+00 6.758580000e-01
2710000.0 1.890851000e+00 6.095350000e-01
2800000.0 1.856927000e+00 5.488930000e-01
2890000.0 1.817578000e+00 4.974180000e-01
2980000.0 1.778689000e+00 4.513200000e-01
3070000.0 1.739190000e+00 4.091080000e-01
3160000.0 1.701737000e+00 3.767940000e-01
3250000.0 1.664986000e+00 3.441670000e-01
3340000.0 1.630847000e+00 3.142050000e-01
3430000.0 1.597733000e+00 2.905810000e-01
3520000.0 1.568278000e+00 2.671510000e-01
3610000.0 1.537228000e+00 2.454230000e-01
3700000.0 1.511128000e+00 2.259820000e-01
3790000.0 1.486437000e+00 2.043010000e-01
3880000.0 1.460968000e+00 1.901020000e-01
3970000.0 1.440450000e+00 1.714960000e-01
4060000.0 1.421368000e+00 1.560760000e-01
4150000.0 1.403815000e+00 1.415610000e-01
4240000.0 1.385796000e+00 1.266420000e-01
4330000.0 1.369945000e+00 1.118850000e-01
4420000.0 1.355659000e+00 9.953800000e-02
4510000.0 1.342067000e+00 8.381700000e-02
4600000.0 1.330573000e+00 7.184100000e-02
4690000.0 1.319213000e+00 5.740700000e-02
4780000.0 1.310147000e+00 4.341700000e-02
4870000.0 1.303104000e+00 3.160800000e-02
4960000.0 1.293863000e+00 1.858200000e-02
5050000.0 1.279527000e+00 5.200000000e-03
5140000.0 1.273597000e+00 -6.445000000e-03
5230000.0 1.268407000e+00 -1.991600000e-02
5320000.0 1.264119000e+00 -3.270300000e-02
5410000.0 1.261028000e+00 -4.332100000e-02
5500000.0 1.256075000e+00 -5.478600000e-02
5590000.0 1.251934000e+00 -6.593600000e-02
5680000.0 1.248114000e+00 -7.912700000e-02
5770000.0 1.246132000e+00 -8.983600000e-02
5860000.0 1.242554000e+00 -9.910800000e-02
5950000.0 1.239563000e+00 -1.098720000e-01
6040000.0 1.236444000e+00 -1.208180000e-01
6130000.0 1.234695000e+00 -1.305410000e-01
6220000.0 1.231685000e+00 -1.387900000e-01
6310000.0 1.229693000e+00 -1.492620000e-01
6400000.0 1.227571000e+00 -1.569710000e-01
6490000.0 1.225679000e+00 -1.647370000e-01
6580000.0 1.223607000e+00 -1.717440000e-01
6670000.0 1.221540000e+00 -1.792900000e-01
6760000.0 1.220451000e+00 -1.859540000e-01
6850000.0 1.219602000e+00 -1.906890000e-01
6940000.0 1.219058000e+00 -1.955450000e-01
7030000.0 1.217557000e+00 -2.018080000e-01
7120000.0 1.219339000e+00 -2.043640000e-01
7210000.0 1.217059000e+00 -2.066550000e-01
7300000.0 1.217046000e+00 -2.079480000e-01
7390000.0 1.216823000e+00 -2.096220000e-01
7480000.0 1.216679000e+00 -2.082350000e-01
7570000.0 -2.593610000e-01 -1.256218000e+00
7660000.0 -2.588620000e-01 -1.255639000e+00
7750000.0 -2.576020000e-01 -1.256818000e+00
7840000.0 -2.584270000e-01 -1.256691000e+00
7930000.0 -2.567840000e-01 -1.257214000e+00
8020000.0 -2.557520000e-01 -1.257952000e+00
8110000.0 -2.553970000e-01 -1.258218000e+00
8200000.0 -2.551420000e-01 -1.259066000e+00
8290000.0 -2.538690000e-01 -1.259237000e+00
8380000.0 -2.546440000e-01 -1.257949000e+00
8470000.0 -2.538280000e-01 -1.260560000e+00
8560000.0 -2.523920000e-01 -1.260825000e+00
8650000.0 -2.522030000e-01 -1.261227000e+00
8740000.0 -2.520690000e-01 -1.261051000e+00
8830000.0 -2.511890000e-01 -1.262368000e+00
8920000.0 -2.508130000e-01 -1.262866000e+00
9010000.0 -2.508800000e-01 -1.263727000e+00
9100000.0 -2.505830000e-01 -1.263844000e+00
9190000.0 -2.501510000e-01 -1.264661000e+00
9280000.0 -2.487990000e-01 -1.265276000e+00
9370000.0 -2.489030000e-01 -1.266113000e+00
9460000.0 -2.487560000e-01 -1.266397000e+00
9550000.0 -2.476080000e-01 -1.267169000e+00
9640000.0 -2.470280000e-01 -1.267539000e+00
9730000.0 -2.462800000e-01 -1.270047000e+00
9820000.0 -2.463280000e-01 -1.269402000e+00
9910000.0 -2.459000000e-01 -1.270878000e+00
10000000.0 -2.444130000e-01 -1.271900000e+00
10900000.0 -2.421980000e-01 -1.279262000e+00
11800000.0 -2.387010000e-01 -1.288643000e+00
12700000.0 -2.334700000e-01 -1.299024000e+00
13600000.0 -2.288930000e-01 -1.308966000e+00
14500000.0 -2.254680000e-01 -1.319535000e+00
15400000.0 -2.213490000e-01 -1.330432000e+00
16300000.0 -2.174610000e-01 -1.341817000e+00
17200000.0 -2.127840000e-01 -1.353081000e+00
18100000.0 -2.085530000e-01 -1.365870000e+00
19000000.0 -2.007000000e-01 -1.376242000e+00
19900000.0 -1.965340000e-01 -1.389578000e+00
20800000.0 -1.912650000e-01 -1.402659000e+00
21700000.0 -1.848970000e-01 -1.415513000e+00
22600000.0 -1.781160000e-01 -1.427524000e+00
23500000.0 -1.719070000e-01 -1.442794000e+00
24400000.0 -1.637960000e-01 -1.455148000e+00
25300000.0 -1.566380000e-01 -1.469032000e+00
26200000.0 -1.481350000e-01 -1.482245000e+00
27100000.0 -1.395330000e-01 -1.497385000e+00
28000000.0 -1.291760000e-01 -1.510852000e+00
28900000.0 -1.202740000e-01 -1.526395000e+00
29800000.0 -1.107360000e-01 -1.540168000e+00
30700000.0 -9.959900000e-02 -1.555634000e+00
31600000.0 -8.833500000e-02 -1.570875000e+00
32500000.0 -7.744400000e-02 -1.584400000e+00
33400000.0 -6.492800000e-02 -1.600392000e+00
34300000.0 -5.178400000e-02 -1.615849000e+00
35200000.0 -3.895700000e-02 -1.631077000e+00
36100000.0 -2.271800000e-02 -1.647049000e+00
37000000.0 -9.073000000e-03 -1.660961000e+00
37900000.0 6.044000000e-03 -1.677017000e+00
38800000.0 2.227200000e-02 -1.691862000e+00
39700000.0 4.082500000e-02 -1.706861000e+00
40600000.0 5.758600000e-02 -1.722533000e+00
41500000.0 7.547100000e-02 -1.736674000e+00
42400000.0 9.355300000e-02 -1.752774000e+00
43300000.0 1.165560000e-01 -1.767717000e+00
44200000.0 1.367990000e-01 -1.783870000e+00
45100000.0 1.591230000e-01 -1.798888000e+00
46000000.0 1.817260000e-01 -1.811141000e+00
46900000.0 2.047440000e-01 -1.823271000e+00
47800000.0 2.315290000e-01 -1.837798000e+00
48700000.0 2.551920000e-01 -1.852236000e+00
49600000.0 2.809210000e-01 -1.864198000e+00
50500000.0 3.079430000e-01 -1.874379000e+00
51400000.0 3.376530000e-01 -1.884933000e+00
52300000.0 3.656240000e-01 -1.895903000e+00
53200000.0 3.954190000e-01 -1.906171000e+00
54100000.0 4.270100000e-01 -1.912923000e+00
55000000.0 4.566200000e-01 -1.920938000e+00
55900000.0 4.926690000e-01 -1.930057000e+00
56800000.0 5.266700000e-01 -1.934089000e+00
57700000.0 5.593120000e-01 -1.936972000e+00
58600000.0 5.921010000e-01 -1.940488000e+00
59500000.0 6.297020000e-01 -1.943035000e+00
60400000.0 6.639340000e-01 -1.944186000e+00
61300000.0 7.002650000e-01 -1.942297000e+00
62200000.0 7.390710000e-01 -1.937506000e+00
63100000.0 7.760540000e-01 -1.934714000e+00
64000000.0 8.127430000e-01 -1.931051000e+00
64900000.0 8.491690000e-01 -1.918236000e+00
65800000.0 8.890710000e-01 -1.912718000e+00
66700000.0 9.272950000e-01 -1.901690000e+00
67600000.0 9.650070000e-01 -1.885876000e+00
68500000.0 1.000096000e+00 -1.874837000e+00
69400000.0 1.037290000e+00 -1.859141000e+00
70300000.0 1.073012000e+00 -1.841009000e+00
71200000.0 1.108112000e+00 -1.819260000e+00
72100000.0 1.141179000e+00 -1.797460000e+00
73000000.0 1.175018000e+00 -1.776195000e+00
73900000.0 1.207235000e+00 -1.750328000e+00
74800000.0 1.238121000e+00 -1.726188000e+00
75700000.0 1.265098000e+00 -1.698055000e+00
76600000.0 1.292663000e+00 -1.669104000e+00
77500000.0 1.323783000e+00 -1.640392000e+00
78400000.0 1.347702000e+00 -1.608213000e+00
79300000.0 1.371842000e+00 -1.578000000e+00
80200000.0 1.392535000e+00 -1.545782000e+00
81100000.0 1.413712000e+00 -1.513092000e+00
82000000.0 1.431789000e+00 -1.480664000e+00
82900000.0 1.448303000e+00 -1.445902000e+00
83800000.0 1.463818000e+00 -1.411752000e+00
84700000.0 1.479747000e+00 -1.379689000e+00
85600000.0 1.489511000e+00 -1.342726000e+00
86500000.0 1.499773000e+00 -1.309511000e+00
87400000.0 1.510657000e+00 -1.273089000e+00
88300000.0 1.515725000e+00 -1.242675000e+00
89200000.0 1.522656000e+00 -1.208264000e+00
90100000.0 1.528320000e+00 -1.174945000e+00
91000000.0 1.532892000e+00 -1.141193000e+00
91900000.0 1.533475000e+00 -1.109124000e+00
92800000.0 1.536338000e+00 -1.079030000e+00
93700000.0 1.537022000e+00 -1.047019000e+00
94600000.0 1.534753000e+00 -1.018217000e+00
95500000.0 1.533233000e+00 -9.867640000e-01
96400000.0 1.530806000e+00 -9.592060000e-01
97300000.0 1.526820000e+00 -9.311870000e-01
98200000.0 1.521460000e+00 -9.022380000e-01
99100000.0 1.516210000e+00 -8.765150000e-01
100000000.0 1.512181000e+00 -8.479690000e-01
109000000.0 1.428493000e+00 -6.258200000e-01
118000000.0 1.320230000e+00 -4.640980000e-01
127000000.0 1.212786000e+00 -3.510750000e-01
136000000.0 1.110435000e+00 -2.779460000e-01
145000000.0 1.020138000e+00 -2.219580000e-01
154000000.0 9.714260000e-01 -2.056410000e-01
163000000.0 9.685360000e-01 -2.159310000e-01
172000000.0 9.659820000e-01 -2.288800000e-01
181000000.0 9.637820000e-01 -2.398630000e-01
190000000.0 9.605450000e-01 -2.513230000e-01
199000000.0 9.581020000e-01 -2.620570000e-01
208000000.0 9.540230000e-01 -2.751000000e-01
217000000.0 9.510270000e-01 -2.858940000e-01
226000000.0 9.485110000e-01 -2.961410000e-01
235000000.0 9.443070000e-01 -3.068920000e-01
244000000.0 9.395610000e-01 -3.183660000e-01
253000000.0 9.347430000e-01 -3.281790000e-01
262000000.0 9.303530000e-01 -3.396960000e-01
271000000.0 9.253290000e-01 -3.495030000e-01
280000000.0 9.200420000e-01 -3.586590000e-01
289000000.0 9.154730000e-01 -3.687320000e-01
298000000.0 9.077590000e-01 -3.812070000e-01
307000000.0 9.051170000e-01 -3.903120000e-01
316000000.0 9.022280000e-01 -4.012600000e-01
325000000.0 8.972680000e-01 -4.112830000e-01
334000000.0 8.918730000e-01 -4.223870000e-01
343000000.0 8.909070000e-01 -4.306750000e-01
352000000.0 8.853310000e-01 -4.402700000e-01
361000000.0 8.787120000e-01 -4.504020000e-01
370000000.0 8.633930000e-01 -4.746220000e-01
379000000.0 8.665100000e-01 -4.698790000e-01
388000000.0 8.606030000e-01 -4.795340000e-01
397000000.0 8.553900000e-01 -4.877870000e-01
406000000.0 8.608300000e-01 -4.823310000e-01
415000000.0 8.418900000e-01 -5.063620000e-01
424000000.0 8.102670000e-01 -5.423620000e-01
433000000.0 8.263840000e-01 -5.267800000e-01
442000000.0 8.089360000e-01 -5.462780000e-01
451000000.0 7.967520000e-01 -5.573430000e-01
460000000.0 8.082400000e-01 -5.517670000e-01
469000000.0 8.160540000e-01 -5.466300000e-01
478000000.0 7.997740000e-01 -5.699290000e-01
487000000.0 7.835670000e-01 -5.933640000e-01
496000000.0 7.892110000e-01 -5.875890000e-01
505000000.0 7.942600000e-01 -5.844070000e-01
514000000.0 7.790310000e-01 -6.062770000e-01
523000000.0 7.598940000e-01 -6.280470000e-01
532000000.0 7.679070000e-01 -6.204380000e-01
541000000.0 7.582560000e-01 -6.293190000e-01
550000000.0 7.508720000e-01 -6.407900000e-01
559000000.0 7.422300000e-01 -6.476980000e-01
568000000.0 7.331330000e-01 -6.558880000e-01
577000000.0 7.261990000e-01 -6.649820000e-01
586000000.0 7.150780000e-01 -6.716230000e-01
595000000.0 7.093700000e-01 -6.779710000e-01
604000000.0 6.973780000e-01 -6.872490000e-01
613000000.0 6.916290000e-01 -6.972710000e-01
622000000.0 6.841400000e-01 -7.082850000e-01
631000000.0 6.764050000e-01 -7.172310000e-01
640000000.0 6.724820000e-01 -7.283180000e-01
649000000.0 6.664660000e-01 -7.356710000e-01
658000000.0 6.556770000e-01 -7.430450000e-01
667000000.0 6.504120000e-01 -7.520380000e-01
676000000.0 6.371660000e-01 -7.608030000e-01
685000000.0 6.327830000e-01 -7.689490000e-01
694000000.0 6.236870000e-01 -7.716100000e-01
703000000.0 6.061380000e-01 -7.754270000e-01
712000000.0 5.937840000e-01 -7.812330000e-01
721000000.0 5.911490000e-01 -7.862760000e-01
730000000.0 5.765610000e-01 -7.893520000e-01
739000000.0 5.670700000e-01 -7.950460000e-01
748000000.0 5.531670000e-01 -7.942300000e-01
757000000.0 5.438100000e-01 -8.020040000e-01
766000000.0 5.329100000e-01 -8.125830000e-01
775000000.0 5.214590000e-01 -8.223030000e-01
784000000.0 5.137810000e-01 -8.291850000e-01
793000000.0 5.022280000e-01 -8.374070000e-01
802000000.0 4.921040000e-01 -8.424920000e-01
811000000.0 4.801270000e-01 -8.489360000e-01
820000000.0 4.757510000e-01 -8.543410000e-01
829000000.0 4.622180000e-01 -8.613270000e-01
838000000.0 4.508580000e-01 -8.645380000e-01
847000000.0 4.432090000e-01 -8.680240000e-01
856000000.0 4.354690000e-01 -8.698570000e-01
865000000.0 4.264140000e-01 -8.737650000e-01
874000000.0 4.168100000e-01 -8.748270000e-01
883000000.0 4.085410000e-01 -8.760900000e-01
892000000.0 3.997540000e-01 -8.774070000e-01
901000000.0 3.922760000e-01 -8.781480000e-01
910000000.0 3.777020000e-01 -8.831310000e-01
919000000.0 3.648700000e-01 -8.888760000e-01
928000000.0 3.551600000e-01 -8.922670000e-01
937000000.0 3.467790000e-01 -8.927540000e-01
946000000.0 3.404480000e-01 -8.940940000e-01
955000000.0 3.282590000e-01 -8.977750000e-01
964000000.0 3.139730000e-01 -9.036910000e-01
973000000.0 3.066360000e-01 -9.052040000e-01
982000000.0 2.946820000e-01 -9.095750000e-01
991000000.0 2.847940000e-01 -9.113330000e-01
1000000000.0 2.776050000e-01 -9.113280000e-01
1004500000.0 2.794370000e-01 -9.132280000e-01
1009000000.0 2.649050000e-01 -9.163100000e-01
1013500000.0 2.651520000e-01 -9.171400000e-01
1018000000.0 2.602510000e-01 -9.170010000e-01
1022500000.0 2.608860000e-01 -9.171060000e-01
1027000000.0 2.526670000e-01 -9.194590000e-01
1031500000.0 2.479750000e-01 -9.217470000e-01
1036000000.0 2.411190000e-01 -9.218710000e-01
1040500000.0 2.372250000e-01 -9.262830000e-01
1045000000.0 2.325240000e-01 -9.246180000e-01
1049500000.0 2.282830000e-01 -9.253220000e-01
1054000000.0 2.238900000e-01 -9.265540000e-01
1058500000.0 2.170210000e-01 -9.273800000e-01
1063000000.0 2.156970000e-01 -9.300640000e-01
1067500000.0 2.090350000e-01 -9.300750000e-01
1072000000.0 2.072680000e-01 -9.309110000e-01
1076500000.0 2.004320000e-01 -9.324010000e-01
1081000000.0 1.962470000e-01 -9.327280000e-01
1085500000.0 1.939940000e-01 -9.330930000e-01
1090000000.0 1.863110000e-01 -9.345470000e-01
1094500000.0 1.847490000e-01 -9.340470000e-01
1099000000.0 1.812170000e-01 -9.366090000e-01
1103500000.0 1.717240000e-01 -9.370380000e-01
1108000000.0 1.699140000e-01 -9.383660000e-01
1112500000.0 1.638520000e-01 -9.397610000e-01
1117000000.0 1.549120000e-01 -9.415100000e-01
1121500000.0 1.853810000e-01 -9.437300000e-01
1126000000.0 1.444620000e-01 -9.414200000e-01
1130500000.0 1.435850000e-01 -9.424100000e-01
1135000000.0 1.354710000e-01 -9.436240000e-01
1139500000.0 1.338730000e-01 -9.419590000e-01
1144000000.0 1.241620000e-01 -9.430690000e-01
1148500000.0 1.114730000e-01 -9.482970000e-01
1153000000.0 1.482800000e-01 -9.456910000e-01
1157500000.0 1.086040000e-01 -9.443230000e-01
1162000000.0 1.009590000e-01 -9.459890000e-01
1166500000.0 9.593500000e-02 -9.461630000e-01
1171000000.0 9.325300000e-02 -9.449700000e-01
1175500000.0 8.517600000e-02 -9.461060000e-01
1180000000.0 8.145600000e-02 -9.467290000e-01
1184500000.0 7.643900000e-02 -9.467820000e-01
1189000000.0 7.280700000e-02 -9.477260000e-01
1193500000.0 7.118700000e-02 -9.462650000e-01
1198000000.0 6.079600000e-02 -9.478240000e-01
1202500000.0 5.253300000e-02 -9.484910000e-01
1207000000.0 5.275000000e-02 -9.479170000e-01
1211500000.0 4.928700000e-02 -9.502780000e-01
1216000000.0 4.401700000e-02 -9.502720000e-01
1220500000.0 3.524800000e-02 -9.529740000e-01
1225000000.0 3.327700000e-02 -9.515470000e-01
1229500000.0 3.264900000e-02 -9.541070000e-01
1234000000.0 2.703300000e-02 -9.496250000e-01
1238500000.0 2.651300000e-02 -9.497320000e-01
1243000000.0 1.059800000e-02 -9.529700000e-01
1247500000.0 1.323200000e-02 -9.508370000e-01
1252000000.0 -2.310000000e-04 -9.539000000e-01
1256500000.0 5.796000000e-03 -9.516900000e-01
1261000000.0 3.046000000e-03 -9.548310000e-01
1265500000.0 -4.622000000e-03 -9.514090000e-01
1270000000.0 -9.297000000e-03 -9.520480000e-01
1274500000.0 -1.832000000e-02 -9.543950000e-01
1279000000.0 -2.105500000e-02 -9.534370000e-01
1283500000.0 -2.644100000e-02 -9.534890000e-01
1288000000.0 -3.190100000e-02 -9.551250000e-01
1292500000.0 -3.618000000e-02 -9.500710000e-01
1297000000.0 -4.098300000e-02 -9.448900000e-01
1301500000.0 -5.288000000e-02 -9.454560000e-01
1306000000.0 -5.462000000e-02 -9.467970000e-01
1310500000.0 -4.917200000e-02 -9.512680000e-01
1315000000.0 -6.548800000e-02 -9.461310000e-01
1319500000.0 -7.151800000e-02 -9.468150000e-01
1324000000.0 -7.576100000e-02 -9.452970000e-01
1328500000.0 -8.025400000e-02 -9.484010000e-01
1333000000.0 -8.564800000e-02 -9.464500000e-01
1337500000.0 -9.029400000e-02 -9.408390000e-01
1342000000.0 -1.008700000e-01 -9.379550000e-01
1346500000.0 -1.056250000e-01 -9.360820000e-01
1351000000.0 -1.111200000e-01 -9.336010000e-01
1355500000.0 -1.116730000e-01 -9.370430000e-01
1360000000.0 -1.131100000e-01 -9.379090000e-01
1364500000.0 -1.175620000e-01 -9.402590000e-01
1369000000.0 -1.248090000e-01 -9.428970000e-01
1373500000.0 -1.260040000e-01 -9.431410000e-01
1378000000.0 -1.297110000e-01 -9.451000000e-01
1382500000.0 -1.338940000e-01 -9.394370000e-01
1387000000.0 -1.373440000e-01 -9.448010000e-01
1391500000.0 -1.330900000e-01 -9.467660000e-01
1396000000.0 -1.508820000e-01 -9.502820000e-01
1400500000.0 -1.609810000e-01 -9.400990000e-01
1405000000.0 -1.581620000e-01 -9.467180000e-01
1409500000.0 -1.595000000e-01 -9.425040000e-01
1414000000.0 -1.597900000e-01 -9.457920000e-01
1418500000.0 -1.665130000e-01 -9.467930000e-01
1423000000.0 -1.634150000e-01 -9.471890000e-01
1427500000.0 -1.823610000e-01 -9.421890000e-01
1432000000.0 -1.790340000e-01 -9.440670000e-01
1436500000.0 -1.897690000e-01 -9.437910000e-01
1441000000.0 -1.801500000e-01 -9.393130000e-01
1445500000.0 -1.961050000e-01 -9.305610000e-01
1450000000.0 -2.041470000e-01 -9.345500000e-01
