! piloto_corto / corto_cobre / r05
# HZ S RI R 50
50000.0 1.006557000e+00 -7.329700000e-02
59500.0 1.002611000e+00 -6.019100000e-02
69000.0 1.004375000e+00 -4.693000000e-02
78500.0 1.001764000e+00 -3.407000000e-02
88000.0 1.000796000e+00 -2.077300000e-02
97500.0 1.000011000e+00 -8.226000000e-03
107000.0 9.991650000e-01 2.871000000e-03
116500.0 9.993340000e-01 1.518900000e-02
126000.0 9.996780000e-01 2.610900000e-02
135500.0 1.000359000e+00 4.045800000e-02
145000.0 9.995020000e-01 5.144400000e-02
154500.0 1.001067000e+00 6.221400000e-02
164000.0 1.001146000e+00 7.525500000e-02
173500.0 1.001790000e+00 8.686600000e-02
183000.0 1.001984000e+00 9.848100000e-02
192500.0 1.023868000e+00 1.784460000e-01
202000.0 1.005247000e+00 1.570260000e-01
211500.0 1.002705000e+00 1.322300000e-01
221000.0 1.041276000e+00 2.070740000e-01
230500.0 1.002978000e+00 1.547700000e-01
240000.0 1.001892000e+00 1.657430000e-01
249500.0 1.003934000e+00 1.769700000e-01
259000.0 1.004040000e+00 1.882050000e-01
268500.0 1.003845000e+00 1.989420000e-01
278000.0 1.003726000e+00 2.105420000e-01
287500.0 1.004107000e+00 2.209780000e-01
297000.0 1.003864000e+00 2.312820000e-01
306500.0 1.003156000e+00 2.423240000e-01
316000.0 1.005023000e+00 2.525130000e-01
325500.0 1.005018000e+00 2.637880000e-01
335000.0 1.005044000e+00 2.745770000e-01
344500.0 1.005404000e+00 2.854090000e-01
354000.0 1.004797000e+00 2.956120000e-01
363500.0 1.005664000e+00 3.059810000e-01
373000.0 1.004993000e+00 3.151190000e-01
382500.0 1.005850000e+00 3.266500000e-01
392000.0 1.006014000e+00 3.362490000e-01
401500.0 1.005253000e+00 3.475520000e-01
411000.0 1.005348000e+00 3.567010000e-01
420500.0 1.005855000e+00 3.676750000e-01
430000.0 1.006800000e+00 3.764910000e-01
439500.0 1.005970000e+00 3.871470000e-01
449000.0 1.007633000e+00 3.967570000e-01
458500.0 1.006419000e+00 4.071300000e-01
468000.0 1.007230000e+00 4.168620000e-01
477500.0 1.007387000e+00 4.271520000e-01
487000.0 1.008109000e+00 4.363840000e-01
496500.0 1.008158000e+00 4.469240000e-01
506000.0 1.007612000e+00 4.564160000e-01
515500.0 1.008332000e+00 4.662480000e-01
525000.0 1.008529000e+00 4.769870000e-01
534500.0 1.008567000e+00 4.855830000e-01
544000.0 1.009812000e+00 4.948090000e-01
553500.0 1.009660000e+00 5.049290000e-01
563000.0 1.010738000e+00 5.151900000e-01
572500.0 1.011036000e+00 5.247580000e-01
582000.0 1.010780000e+00 5.328140000e-01
591500.0 1.011582000e+00 5.423860000e-01
601000.0 1.011236000e+00 5.519120000e-01
610500.0 1.013372000e+00 5.623080000e-01
620000.0 1.012803000e+00 5.724140000e-01
629500.0 1.013247000e+00 5.813730000e-01
639000.0 1.012798000e+00 5.899730000e-01
648500.0 1.014486000e+00 5.988270000e-01
658000.0 1.014776000e+00 6.084230000e-01
667500.0 1.014706000e+00 6.171000000e-01
677000.0 1.016686000e+00 6.262010000e-01
686500.0 1.017808000e+00 6.371310000e-01
696000.0 1.017379000e+00 6.445420000e-01
705500.0 1.019053000e+00 6.547040000e-01
715000.0 1.018796000e+00 6.642580000e-01
724500.0 1.019531000e+00 6.729700000e-01
734000.0 1.021029000e+00 6.826070000e-01
743500.0 1.021385000e+00 6.919290000e-01
753000.0 1.021676000e+00 7.001270000e-01
762500.0 1.023943000e+00 7.100130000e-01
772000.0 1.024649000e+00 7.186580000e-01
781500.0 1.026528000e+00 7.282720000e-01
791000.0 1.025956000e+00 7.364020000e-01
800500.0 1.027864000e+00 7.460750000e-01
810000.0 1.028190000e+00 7.544170000e-01
819500.0 1.029829000e+00 7.634730000e-01
829000.0 1.030195000e+00 7.728230000e-01
838500.0 1.033343000e+00 7.807930000e-01
848000.0 1.034146000e+00 7.911260000e-01
857500.0 1.036030000e+00 7.999990000e-01
867000.0 1.037035000e+00 8.078860000e-01
876500.0 1.039230000e+00 8.161410000e-01
886000.0 1.039828000e+00 8.240660000e-01
895500.0 1.043761000e+00 8.339870000e-01
905000.0 1.044303000e+00 8.416490000e-01
914500.0 1.046048000e+00 8.506900000e-01
924000.0 1.048129000e+00 8.594030000e-01
933500.0 1.049014000e+00 8.678730000e-01
943000.0 1.050801000e+00 8.765450000e-01
952500.0 1.053852000e+00 8.861420000e-01
962000.0 1.055365000e+00 8.942190000e-01
971500.0 1.058684000e+00 9.035060000e-01
981000.0 1.059422000e+00 9.106800000e-01
990500.0 1.063074000e+00 9.206070000e-01
1000000.0 1.064610000e+00 9.287120000e-01
1090000.0 1.087841000e+00 1.005987000e+00
1180000.0 1.124098000e+00 1.081483000e+00
1270000.0 1.166744000e+00 1.150280000e+00
1360000.0 1.220300000e+00 1.212979000e+00
1450000.0 1.284119000e+00 1.268986000e+00
1540000.0 1.356794000e+00 1.309021000e+00
1630000.0 1.434973000e+00 1.338720000e+00
1720000.0 1.519946000e+00 1.350771000e+00
1810000.0 1.609358000e+00 1.341262000e+00
1900000.0 1.693412000e+00 1.314048000e+00
1990000.0 1.774342000e+00 1.266266000e+00
2080000.0 1.847557000e+00 1.202905000e+00
2170000.0 1.893359000e+00 1.128831000e+00
2260000.0 1.931320000e+00 1.042422000e+00
2350000.0 1.953706000e+00 9.551470000e-01
2440000.0 1.955215000e+00 8.635130000e-01
2530000.0 1.945256000e+00 8.036710000e-01
2620000.0 1.928081000e+00 7.019130000e-01
2710000.0 1.901165000e+00 6.292330000e-01
2800000.0 1.868490000e+00 5.666610000e-01
2890000.0 1.832553000e+00 5.128680000e-01
2980000.0 1.794340000e+00 4.608270000e-01
3070000.0 1.755287000e+00 4.185280000e-01
3160000.0 1.716953000e+00 3.791300000e-01
3250000.0 1.680617000e+00 3.469520000e-01
3340000.0 1.645821000e+00 3.142260000e-01
3430000.0 1.613116000e+00 2.898590000e-01
3520000.0 1.581349000e+00 2.641740000e-01
3610000.0 1.551017000e+00 2.415770000e-01
3700000.0 1.523460000e+00 2.213310000e-01
3790000.0 1.498100000e+00 2.020300000e-01
3880000.0 1.473366000e+00 1.845420000e-01
3970000.0 1.451530000e+00 1.663900000e-01
4060000.0 1.430511000e+00 1.498930000e-01
4150000.0 1.410849000e+00 1.345980000e-01
4240000.0 1.393541000e+00 1.201900000e-01
4330000.0 1.377613000e+00 1.020730000e-01
4420000.0 1.362261000e+00 8.952500000e-02
4510000.0 1.349392000e+00 7.627700000e-02
4600000.0 1.336486000e+00 6.268800000e-02
4690000.0 1.326344000e+00 5.008200000e-02
4780000.0 1.315469000e+00 3.427300000e-02
4870000.0 1.306944000e+00 2.337700000e-02
4960000.0 1.298359000e+00 1.061000000e-02
5050000.0 1.284234000e+00 -2.509000000e-03
5140000.0 1.278451000e+00 -1.528700000e-02
5230000.0 1.273226000e+00 -2.608200000e-02
5320000.0 1.268434000e+00 -3.971200000e-02
5410000.0 1.263386000e+00 -5.163700000e-02
5500000.0 1.259248000e+00 -6.375900000e-02
5590000.0 1.254639000e+00 -7.558100000e-02
5680000.0 1.250739000e+00 -8.894800000e-02
5770000.0 1.248256000e+00 -9.906800000e-02
5860000.0 1.244940000e+00 -1.110780000e-01
5950000.0 1.241816000e+00 -1.209320000e-01
6040000.0 1.237836000e+00 -1.317590000e-01
6130000.0 1.236194000e+00 -1.406970000e-01
6220000.0 1.233143000e+00 -1.506200000e-01
6310000.0 1.230853000e+00 -1.597180000e-01
6400000.0 1.229917000e+00 -1.686470000e-01
6490000.0 1.226390000e+00 -1.764220000e-01
6580000.0 1.224339000e+00 -1.851120000e-01
6670000.0 1.224313000e+00 -1.925910000e-01
6760000.0 1.221150000e+00 -1.974470000e-01
6850000.0 1.220816000e+00 -2.036350000e-01
6940000.0 1.219179000e+00 -2.066100000e-01
7030000.0 1.218677000e+00 -2.136440000e-01
7120000.0 1.219015000e+00 -2.173600000e-01
7210000.0 1.218157000e+00 -2.195720000e-01
7300000.0 1.217281000e+00 -2.212260000e-01
7390000.0 1.217872000e+00 -2.219760000e-01
7480000.0 1.217880000e+00 -2.221730000e-01
7570000.0 -2.736070000e-01 -1.255533000e+00
7660000.0 -2.722690000e-01 -1.256325000e+00
7750000.0 -2.727190000e-01 -1.254560000e+00
7840000.0 -2.732990000e-01 -1.257101000e+00
7930000.0 -2.710590000e-01 -1.256490000e+00
8020000.0 -2.710520000e-01 -1.257092000e+00
8110000.0 -2.703440000e-01 -1.257682000e+00
8200000.0 -2.686960000e-01 -1.257445000e+00
8290000.0 -2.692900000e-01 -1.258963000e+00
8380000.0 -2.680030000e-01 -1.259576000e+00
8470000.0 -2.689790000e-01 -1.258150000e+00
8560000.0 -2.685250000e-01 -1.260066000e+00
8650000.0 -2.695660000e-01 -1.259721000e+00
8740000.0 -2.681770000e-01 -1.260564000e+00
8830000.0 -2.662750000e-01 -1.260923000e+00
8920000.0 -2.655930000e-01 -1.262259000e+00
9010000.0 -2.646780000e-01 -1.264285000e+00
9100000.0 -2.643920000e-01 -1.263828000e+00
9190000.0 -2.629370000e-01 -1.264556000e+00
9280000.0 -2.626090000e-01 -1.265939000e+00
9370000.0 -2.628540000e-01 -1.265370000e+00
9460000.0 -2.617580000e-01 -1.267542000e+00
9550000.0 -2.624150000e-01 -1.267577000e+00
9640000.0 -2.620590000e-01 -1.267643000e+00
9730000.0 -2.624120000e-01 -1.269343000e+00
9820000.0 -2.610150000e-01 -1.269326000e+00
9910000.0 -2.604140000e-01 -1.269130000e+00
10000000.0 -2.604350000e-01 -1.270676000e+00
10900000.0 -2.554880000e-01 -1.280185000e+00
11800000.0 -2.536150000e-01 -1.288104000e+00
12700000.0 -2.507000000e-01 -1.299438000e+00
13600000.0 -2.488170000e-01 -1.308383000e+00
14500000.0 -2.458360000e-01 -1.318214000e+00
15400000.0 -2.424600000e-01 -1.328697000e+00
16300000.0 -2.393130000e-01 -1.341798000e+00
17200000.0 -2.359020000e-01 -1.353415000e+00
18100000.0 -2.306260000e-01 -1.364992000e+00
19000000.0 -2.260310000e-01 -1.377945000e+00
19900000.0 -2.202670000e-01 -1.389515000e+00
20800000.0 -2.172100000e-01 -1.402228000e+00
21700000.0 -2.115870000e-01 -1.415355000e+00
22600000.0 -2.061720000e-01 -1.427769000e+00
23500000.0 -2.012820000e-01 -1.440850000e+00
24400000.0 -1.954690000e-01 -1.454632000e+00
25300000.0 -1.902880000e-01 -1.468859000e+00
26200000.0 -1.823050000e-01 -1.483641000e+00
27100000.0 -1.757850000e-01 -1.497760000e+00
28000000.0 -1.675510000e-01 -1.512117000e+00
28900000.0 -1.590910000e-01 -1.526311000e+00
29800000.0 -1.500170000e-01 -1.539521000e+00
30700000.0 -1.419090000e-01 -1.555713000e+00
31600000.0 -1.336980000e-01 -1.570722000e+00
32500000.0 -1.235490000e-01 -1.585976000e+00
33400000.0 -1.134680000e-01 -1.601488000e+00
34300000.0 -1.009200000e-01 -1.617627000e+00
35200000.0 -9.032200000e-02 -1.633538000e+00
36100000.0 -7.684300000e-02 -1.648185000e+00
37000000.0 -6.367500000e-02 -1.665152000e+00
37900000.0 -4.830400000e-02 -1.679791000e+00
38800000.0 -3.446400000e-02 -1.696877000e+00
39700000.0 -2.125900000e-02 -1.712021000e+00
40600000.0 -4.148000000e-03 -1.728482000e+00
41500000.0 1.165300000e-02 -1.743796000e+00
42400000.0 2.686300000e-02 -1.759254000e+00
43300000.0 4.378200000e-02 -1.775220000e+00
44200000.0 6.059700000e-02 -1.791904000e+00
45100000.0 7.704000000e-02 -1.808350000e+00
46000000.0 9.801900000e-02 -1.824091000e+00
46900000.0 1.144960000e-01 -1.837336000e+00
47800000.0 1.346400000e-01 -1.852483000e+00
48700000.0 1.563240000e-01 -1.865273000e+00
49600000.0 1.787580000e-01 -1.879596000e+00
50500000.0 2.035260000e-01 -1.891824000e+00
51400000.0 2.309330000e-01 -1.908011000e+00
52300000.0 2.594000000e-01 -1.916690000e+00
53200000.0 2.891940000e-01 -1.929514000e+00
54100000.0 3.177080000e-01 -1.939146000e+00
55000000.0 3.445410000e-01 -1.950689000e+00
55900000.0 3.761910000e-01 -1.957984000e+00
56800000.0 4.071190000e-01 -1.966501000e+00
57700000.0 4.402690000e-01 -1.973311000e+00
58600000.0 4.755480000e-01 -1.976380000e+00
59500000.0 5.114250000e-01 -1.981929000e+00
60400000.0 5.491430000e-01 -1.983991000e+00
61300000.0 5.840010000e-01 -1.984467000e+00
62200000.0 6.210170000e-01 -1.983544000e+00
63100000.0 6.547890000e-01 -1.982511000e+00
64000000.0 6.912040000e-01 -1.980638000e+00
64900000.0 7.277710000e-01 -1.975796000e+00
65800000.0 7.642380000e-01 -1.971269000e+00
66700000.0 7.998390000e-01 -1.960121000e+00
67600000.0 8.372360000e-01 -1.953033000e+00
68500000.0 8.786920000e-01 -1.939588000e+00
69400000.0 9.164830000e-01 -1.924340000e+00
70300000.0 9.582760000e-01 -1.904450000e+00
71200000.0 9.982400000e-01 -1.889420000e+00
72100000.0 1.036134000e+00 -1.867399000e+00
73000000.0 1.070464000e+00 -1.847393000e+00
73900000.0 1.096369000e+00 -1.828442000e+00
74800000.0 1.120627000e+00 -1.812361000e+00
75700000.0 1.149140000e+00 -1.788557000e+00
76600000.0 1.174895000e+00 -1.764759000e+00
77500000.0 1.202281000e+00 -1.740672000e+00
78400000.0 1.227621000e+00 -1.710751000e+00
79300000.0 1.258007000e+00 -1.680299000e+00
80200000.0 1.286915000e+00 -1.646922000e+00
81100000.0 1.310183000e+00 -1.614001000e+00
82000000.0 1.332551000e+00 -1.582463000e+00
82900000.0 1.349056000e+00 -1.549616000e+00
83800000.0 1.366113000e+00 -1.520842000e+00
84700000.0 1.379025000e+00 -1.491743000e+00
85600000.0 1.391391000e+00 -1.461313000e+00
86500000.0 1.402141000e+00 -1.429510000e+00
87400000.0 1.414773000e+00 -1.394876000e+00
88300000.0 1.425250000e+00 -1.360050000e+00
89200000.0 1.437553000e+00 -1.326057000e+00
90100000.0 1.444110000e+00 -1.292283000e+00
91000000.0 1.447204000e+00 -1.263054000e+00
91900000.0 1.450702000e+00 -1.234989000e+00
92800000.0 1.450629000e+00 -1.206836000e+00
93700000.0 1.451440000e+00 -1.179694000e+00
94600000.0 1.453460000e+00 -1.150694000e+00
95500000.0 1.453619000e+00 -1.121434000e+00
96400000.0 1.450151000e+00 -1.091671000e+00
97300000.0 1.454322000e+00 -1.060995000e+00
98200000.0 1.450721000e+00 -1.031349000e+00
99100000.0 1.449261000e+00 -1.003182000e+00
100000000.0 1.443167000e+00 -9.779540000e-01
109000000.0 1.377047000e+00 -7.470960000e-01
118000000.0 1.277596000e+00 -5.849230000e-01
127000000.0 1.175962000e+00 -4.717620000e-01
136000000.0 1.075057000e+00 -3.983690000e-01
145000000.0 9.859390000e-01 -3.408470000e-01
154000000.0 9.375240000e-01 -3.238220000e-01
163000000.0 9.306350000e-01 -3.411740000e-01
172000000.0 9.259850000e-01 -3.563710000e-01
181000000.0 9.199590000e-01 -3.703950000e-01
190000000.0 9.130820000e-01 -3.857620000e-01
199000000.0 9.070830000e-01 -3.993160000e-01
208000000.0 9.004230000e-01 -4.152570000e-01
217000000.0 8.915590000e-01 -4.314260000e-01
226000000.0 8.806570000e-01 -4.502210000e-01
235000000.0 8.715500000e-01 -4.685380000e-01
244000000.0 8.612490000e-01 -4.865300000e-01
253000000.0 8.506840000e-01 -5.030520000e-01
262000000.0 8.403300000e-01 -5.173310000e-01
271000000.0 8.328050000e-01 -5.303330000e-01
280000000.0 8.243360000e-01 -5.403020000e-01
289000000.0 8.156130000e-01 -5.500400000e-01
298000000.0 8.075060000e-01 -5.595130000e-01
307000000.0 7.998960000e-01 -5.723990000e-01
316000000.0 7.923430000e-01 -5.832590000e-01
325000000.0 7.815880000e-01 -6.010230000e-01
334000000.0 7.672850000e-01 -6.173390000e-01
343000000.0 7.547360000e-01 -6.322940000e-01
352000000.0 7.426270000e-01 -6.515410000e-01
361000000.0 7.332180000e-01 -6.614590000e-01
370000000.0 7.228570000e-01 -6.686900000e-01
379000000.0 6.846100000e-01 -6.965450000e-01
388000000.0 7.095050000e-01 -6.834410000e-01
397000000.0 7.003090000e-01 -6.918490000e-01
406000000.0 6.881730000e-01 -7.015530000e-01
415000000.0 6.726280000e-01 -7.159910000e-01
424000000.0 6.539450000e-01 -7.299580000e-01
433000000.0 6.340870000e-01 -7.477570000e-01
442000000.0 6.154310000e-01 -7.578020000e-01
451000000.0 6.011640000e-01 -7.705490000e-01
460000000.0 5.906680000e-01 -7.803130000e-01
469000000.0 5.818970000e-01 -7.894170000e-01
478000000.0 5.759860000e-01 -7.962430000e-01
487000000.0 5.681110000e-01 -8.046790000e-01
496000000.0 5.559290000e-01 -8.146930000e-01
505000000.0 5.424670000e-01 -8.238790000e-01
514000000.0 5.237500000e-01 -8.362940000e-01
523000000.0 5.026850000e-01 -8.507000000e-01
532000000.0 4.823180000e-01 -8.622860000e-01
541000000.0 4.585010000e-01 -8.768170000e-01
550000000.0 4.424470000e-01 -8.841770000e-01
559000000.0 4.260340000e-01 -8.911620000e-01
568000000.0 4.183660000e-01 -8.937310000e-01
577000000.0 4.088430000e-01 -8.973840000e-01
586000000.0 4.019990000e-01 -8.949240000e-01
595000000.0 3.883860000e-01 -9.017130000e-01
604000000.0 3.754710000e-01 -9.080030000e-01
613000000.0 3.615810000e-01 -9.179170000e-01
622000000.0 3.395230000e-01 -9.275980000e-01
631000000.0 3.239990000e-01 -9.376370000e-01
640000000.0 3.054150000e-01 -9.454970000e-01
649000000.0 2.884590000e-01 -9.526430000e-01
658000000.0 2.717040000e-01 -9.585000000e-01
667000000.0 2.578160000e-01 -9.657360000e-01
676000000.0 2.343610000e-01 -9.680480000e-01
685000000.0 2.191070000e-01 -9.733580000e-01
694000000.0 2.085980000e-01 -9.741530000e-01
703000000.0 1.980220000e-01 -9.719960000e-01
712000000.0 1.844090000e-01 -9.708080000e-01
721000000.0 1.732930000e-01 -9.709580000e-01
730000000.0 1.648160000e-01 -9.703070000e-01
739000000.0 1.449280000e-01 -9.680900000e-01
748000000.0 1.293000000e-01 -9.650050000e-01
757000000.0 1.061350000e-01 -9.688880000e-01
766000000.0 8.016900000e-02 -9.736390000e-01
775000000.0 5.781200000e-02 -9.765520000e-01
784000000.0 3.220500000e-02 -9.793570000e-01
793000000.0 1.228800000e-02 -9.798330000e-01
802000000.0 4.250000000e-04 -9.804320000e-01
811000000.0 -1.112100000e-02 -9.804970000e-01
820000000.0 -1.894400000e-02 -9.802310000e-01
829000000.0 -3.215400000e-02 -9.793900000e-01
838000000.0 -5.288100000e-02 -9.766640000e-01
847000000.0 -7.383200000e-02 -9.753450000e-01
856000000.0 -8.907200000e-02 -9.736840000e-01
865000000.0 -1.099550000e-01 -9.684210000e-01
874000000.0 -1.207270000e-01 -9.681830000e-01
883000000.0 -1.263110000e-01 -9.651430000e-01
892000000.0 -1.210460000e-01 -9.646310000e-01
901000000.0 -1.160020000e-01 -9.633750000e-01
910000000.0 -1.194690000e-01 -9.612280000e-01
919000000.0 -1.304190000e-01 -9.597390000e-01
928000000.0 -1.455450000e-01 -9.576130000e-01
937000000.0 -1.651380000e-01 -9.538390000e-01
946000000.0 -1.954600000e-01 -9.483910000e-01
955000000.0 -2.214460000e-01 -9.422130000e-01
964000000.0 -2.409200000e-01 -9.369520000e-01
973000000.0 -2.466960000e-01 -9.360310000e-01
982000000.0 -2.556340000e-01 -9.331080000e-01
991000000.0 -2.545920000e-01 -9.335330000e-01
1000000000.0 -2.561910000e-01 -9.333570000e-01
1004500000.0 -1.782740000e-01 -9.490150000e-01
1009000000.0 -1.849410000e-01 -9.477160000e-01
1013500000.0 -2.008540000e-01 -9.448020000e-01
1018000000.0 -2.117910000e-01 -9.440850000e-01
1022500000.0 -2.289310000e-01 -9.404170000e-01
1027000000.0 -2.450650000e-01 -9.375420000e-01
1031500000.0 -2.562240000e-01 -9.342900000e-01
1036000000.0 -2.668570000e-01 -9.309540000e-01
1040500000.0 -2.598830000e-01 -9.317190000e-01
1045000000.0 -2.562420000e-01 -9.337960000e-01
1049500000.0 -2.478370000e-01 -9.375090000e-01
1054000000.0 -2.411550000e-01 -9.363040000e-01
1058500000.0 -2.338060000e-01 -9.388560000e-01
1063000000.0 -2.420140000e-01 -9.393720000e-01
1067500000.0 -2.572690000e-01 -9.340000000e-01
1072000000.0 -2.757840000e-01 -9.261690000e-01
1076500000.0 -2.843290000e-01 -9.275430000e-01
1081000000.0 -3.031800000e-01 -9.224900000e-01
1085500000.0 -3.145330000e-01 -9.200720000e-01
1090000000.0 -3.193040000e-01 -9.155720000e-01
1094500000.0 -3.212610000e-01 -9.148710000e-01
1099000000.0 -3.146200000e-01 -9.164440000e-01
1103500000.0 -3.193610000e-01 -9.195240000e-01
1108000000.0 -3.179980000e-01 -9.183670000e-01
1112500000.0 -3.061550000e-01 -9.193450000e-01
1117000000.0 -3.086080000e-01 -9.231810000e-01
1121500000.0 -3.286360000e-01 -9.162750000e-01
1126000000.0 -3.451810000e-01 -9.093910000e-01
1130500000.0 -3.585040000e-01 -9.067000000e-01
1135000000.0 -3.625790000e-01 -9.025210000e-01
1139500000.0 -3.747430000e-01 -8.987150000e-01
1144000000.0 -3.720430000e-01 -8.987010000e-01
1148500000.0 -3.621760000e-01 -8.983960000e-01
1153000000.0 -3.590010000e-01 -8.989850000e-01
1157500000.0 -3.558000000e-01 -9.064260000e-01
1162000000.0 -3.599120000e-01 -9.033070000e-01
1166500000.0 -3.795830000e-01 -8.868820000e-01
1171000000.0 -3.971380000e-01 -8.785730000e-01
1175500000.0 -4.159030000e-01 -8.759150000e-01
1180000000.0 -4.230810000e-01 -8.711860000e-01
1184500000.0 -4.290870000e-01 -8.688470000e-01
1189000000.0 -4.295110000e-01 -8.741370000e-01
1193500000.0 -4.254170000e-01 -8.721600000e-01
1198000000.0 -4.254240000e-01 -8.709650000e-01
1202500000.0 -4.189060000e-01 -8.681210000e-01
1207000000.0 -4.224910000e-01 -8.721910000e-01
1211500000.0 -4.383710000e-01 -8.645480000e-01
1216000000.0 -4.497330000e-01 -8.561060000e-01
1220500000.0 -4.632410000e-01 -8.499920000e-01
1225000000.0 -4.944210000e-01 -8.353410000e-01
1229500000.0 -5.114380000e-01 -8.313090000e-01
1234000000.0 -5.128190000e-01 -8.304370000e-01
1238500000.0 -5.137470000e-01 -8.272400000e-01
1243000000.0 -5.174940000e-01 -8.215220000e-01
1247500000.0 -5.135020000e-01 -8.288880000e-01
1252000000.0 -5.090840000e-01 -8.341560000e-01
1256500000.0 -5.109600000e-01 -8.256460000e-01
1261000000.0 -5.185340000e-01 -8.290590000e-01
1265500000.0 -5.348730000e-01 -8.145300000e-01
1270000000.0 -5.345910000e-01 -8.124510000e-01
1274500000.0 -5.492280000e-01 -8.125320000e-01
1279000000.0 -5.515440000e-01 -7.990880000e-01
1283500000.0 -5.540550000e-01 -8.000300000e-01
1288000000.0 -5.612560000e-01 -7.981040000e-01
1292500000.0 -5.526020000e-01 -7.984740000e-01
1297000000.0 -5.549570000e-01 -7.984300000e-01
1301500000.0 -5.499390000e-01 -8.058100000e-01
1306000000.0 -5.611160000e-01 -8.000830000e-01
1310500000.0 -5.583760000e-01 -8.024500000e-01
1315000000.0 -5.722840000e-01 -7.929560000e-01
1319500000.0 -5.802800000e-01 -7.837020000e-01
1324000000.0 -5.866520000e-01 -7.775920000e-01
1328500000.0 -6.042850000e-01 -7.607910000e-01
1333000000.0 -6.133340000e-01 -7.619060000e-01
1337500000.0 -6.258770000e-01 -7.449580000e-01
1342000000.0 -6.338940000e-01 -7.429800000e-01
1346500000.0 -6.407230000e-01 -7.419680000e-01
1351000000.0 -6.414830000e-01 -7.296750000e-01
1355500000.0 -6.386790000e-01 -7.336340000e-01
1360000000.0 -6.425810000e-01 -7.330410000e-01
1364500000.0 -6.386240000e-01 -7.410660000e-01
1369000000.0 -6.508040000e-01 -7.362060000e-01
1373500000.0 -6.486760000e-01 -7.342550000e-01
1378000000.0 -6.556930000e-01 -7.253280000e-01
1382500000.0 -6.657630000e-01 -7.158420000e-01
1387000000.0 -6.767250000e-01 -7.147840000e-01
1391500000.0 -6.719020000e-01 -7.188360000e-01
1396000000.0 -6.841320000e-01 -7.140160000e-01
1400500000.0 -6.745490000e-01 -7.189550000e-01
1405000000.0 -6.638850000e-01 -7.215320000e-01
1409500000.0 -6.771630000e-01 -7.244840000e-01
1414000000.0 -6.659300000e-01 -7.256930000e-01
1418500000.0 -6.778760000e-01 -7.189280000e-01
1423000000.0 -6.792950000e-01 -7.213150000e-01
1427500000.0 -6.915080000e-01 -7.069900000e-01
1432000000.0 -6.990840000e-01 -6.988780000e-01
1436500000.0 -7.116930000e-01 -6.930440000e-01
1441000000.0 -7.135160000e-01 -6.837070000e-01
1445500000.0 -7.198270000e-01 -6.771250000e-01
1450000000.0 -7.166230000e-01 -6.809430000e-01
