! piloto_corto / corto_aluminio / r07
# HZ S RI R 50
50000.0 -9.932970000e-01 -3.817200000e-02
59500.0 -9.964050000e-01 -1.699700000e-02
69000.0 -9.950000000e-01 -8.738000000e-03
78500.0 -9.969560000e-01 -1.320000000e-04
88000.0 -9.974990000e-01 2.167000000e-03
97500.0 -9.976650000e-01 5.230000000e-04
107000.0 -9.965500000e-01 -1.767000000e-03
116500.0 -9.975450000e-01 -5.607000000e-03
126000.0 -9.970780000e-01 -9.746000000e-03
135500.0 -9.976270000e-01 -1.549000000e-02
145000.0 -9.978790000e-01 -2.098100000e-02
154500.0 -9.975050000e-01 -2.703000000e-02
164000.0 -9.981570000e-01 -3.441700000e-02
173500.0 -9.970870000e-01 -4.222700000e-02
183000.0 -9.969900000e-01 -4.990100000e-02
192500.0 -9.963420000e-01 -5.777400000e-02
202000.0 -9.959320000e-01 -4.917400000e-02
211500.0 -9.969420000e-01 -7.441200000e-02
221000.0 -9.958490000e-01 -8.323300000e-02
230500.0 -9.959920000e-01 -9.222400000e-02
240000.0 -9.965890000e-01 -1.004820000e-01
249500.0 -9.977770000e-01 -1.093730000e-01
259000.0 -9.983870000e-01 -1.190110000e-01
268500.0 -9.988440000e-01 -1.280690000e-01
278000.0 -9.991420000e-01 -1.374960000e-01
287500.0 -9.988510000e-01 -1.467270000e-01
297000.0 -9.991360000e-01 -1.553570000e-01
306500.0 -9.995140000e-01 -1.650200000e-01
316000.0 -1.000341000e+00 -1.736400000e-01
325500.0 -1.000561000e+00 -1.831410000e-01
335000.0 -9.998340000e-01 -1.917430000e-01
344500.0 -1.000459000e+00 -2.019210000e-01
354000.0 -1.000212000e+00 -2.108640000e-01
363500.0 -1.000195000e+00 -2.196490000e-01
373000.0 -9.983500000e-01 -2.280690000e-01
382500.0 -1.000179000e+00 -2.382250000e-01
392000.0 -1.001087000e+00 -2.473920000e-01
401500.0 -1.000203000e+00 -2.563720000e-01
411000.0 -1.000350000e+00 -2.653020000e-01
420500.0 -1.000991000e+00 -2.743670000e-01
430000.0 -1.000773000e+00 -2.840750000e-01
439500.0 -1.001320000e+00 -2.933670000e-01
449000.0 -1.000776000e+00 -3.028650000e-01
458500.0 -1.001050000e+00 -3.113810000e-01
468000.0 -1.001499000e+00 -3.210900000e-01
477500.0 -1.001598000e+00 -3.302130000e-01
487000.0 -1.001896000e+00 -3.389320000e-01
496500.0 -1.002600000e+00 -3.478290000e-01
506000.0 -1.002974000e+00 -3.561330000e-01
515500.0 -1.002844000e+00 -3.661260000e-01
525000.0 -1.002798000e+00 -3.744810000e-01
534500.0 -1.003612000e+00 -3.836050000e-01
544000.0 -1.003662000e+00 -3.935470000e-01
553500.0 -1.004306000e+00 -4.027660000e-01
563000.0 -1.004474000e+00 -4.116270000e-01
572500.0 -1.004333000e+00 -4.205740000e-01
582000.0 -1.004618000e+00 -4.289220000e-01
591500.0 -1.003474000e+00 -4.388610000e-01
601000.0 -1.003986000e+00 -4.466580000e-01
610500.0 -1.004470000e+00 -4.559590000e-01
620000.0 -1.004805000e+00 -4.642960000e-01
629500.0 -1.005269000e+00 -4.739020000e-01
639000.0 -1.006234000e+00 -4.818300000e-01
648500.0 -1.007271000e+00 -4.919980000e-01
658000.0 -1.007350000e+00 -5.008060000e-01
667500.0 -1.008193000e+00 -5.104190000e-01
677000.0 -1.010165000e+00 -5.180270000e-01
686500.0 -1.010588000e+00 -5.269340000e-01
696000.0 -1.010965000e+00 -5.358310000e-01
705500.0 -1.011736000e+00 -5.465380000e-01
715000.0 -1.013064000e+00 -5.538520000e-01
724500.0 -1.012112000e+00 -5.621810000e-01
734000.0 -1.013242000e+00 -5.720130000e-01
743500.0 -1.013826000e+00 -5.809880000e-01
753000.0 -1.016546000e+00 -5.888810000e-01
762500.0 -1.017032000e+00 -5.974990000e-01
772000.0 -1.018962000e+00 -6.070580000e-01
781500.0 -1.018483000e+00 -6.152090000e-01
791000.0 -1.020546000e+00 -6.231860000e-01
800500.0 -1.020429000e+00 -6.322870000e-01
810000.0 -1.022041000e+00 -6.425000000e-01
819500.0 -1.023083000e+00 -6.499880000e-01
829000.0 -1.024169000e+00 -6.594120000e-01
838500.0 -1.026183000e+00 -6.668700000e-01
848000.0 -1.027477000e+00 -6.773010000e-01
857500.0 -1.029922000e+00 -6.850450000e-01
867000.0 -1.031357000e+00 -6.935400000e-01
876500.0 -1.032524000e+00 -7.016970000e-01
886000.0 -1.032624000e+00 -7.096490000e-01
895500.0 -1.036131000e+00 -7.189580000e-01
905000.0 -1.036700000e+00 -7.266390000e-01
914500.0 -1.038530000e+00 -7.345330000e-01
924000.0 -1.040932000e+00 -7.442210000e-01
933500.0 -1.042567000e+00 -7.537930000e-01
943000.0 -1.045222000e+00 -7.609710000e-01
952500.0 -1.047268000e+00 -7.694170000e-01
962000.0 -1.049605000e+00 -7.788180000e-01
971500.0 -1.050636000e+00 -7.848120000e-01
981000.0 -1.053960000e+00 -7.931130000e-01
990500.0 -1.056645000e+00 -8.027140000e-01
1000000.0 -1.058646000e+00 -8.083200000e-01
1090000.0 -1.083594000e+00 -8.856000000e-01
1180000.0 -1.119680000e+00 -9.595770000e-01
1270000.0 -1.165801000e+00 -1.028182000e+00
1360000.0 -1.217213000e+00 -1.087298000e+00
1450000.0 -1.280640000e+00 -1.140591000e+00
1540000.0 -1.357125000e+00 -1.179242000e+00
1630000.0 -1.437854000e+00 -1.202675000e+00
1720000.0 -1.524238000e+00 -1.203991000e+00
1810000.0 -1.611979000e+00 -1.188016000e+00
1900000.0 -1.698786000e+00 -1.147079000e+00
1990000.0 -1.771726000e+00 -1.093864000e+00
2080000.0 -1.829901000e+00 -1.019834000e+00
2170000.0 -1.873964000e+00 -9.362430000e-01
2260000.0 -1.900512000e+00 -8.450650000e-01
2350000.0 -1.905173000e+00 -7.515270000e-01
2440000.0 -1.895831000e+00 -6.660880000e-01
2530000.0 -1.875227000e+00 -5.857000000e-01
2620000.0 -1.843604000e+00 -5.119250000e-01
2710000.0 -1.805739000e+00 -4.494780000e-01
2800000.0 -1.763782000e+00 -3.976500000e-01
2890000.0 -1.485920000e+00 -1.233170000e-01
2980000.0 -1.679608000e+00 -3.072550000e-01
3070000.0 -1.637997000e+00 -2.709020000e-01
3160000.0 -1.599098000e+00 -2.421540000e-01
3250000.0 -1.560886000e+00 -2.140530000e-01
3340000.0 -1.524843000e+00 -1.912930000e-01
3430000.0 -1.490167000e+00 -1.691940000e-01
3520000.0 -1.461916000e+00 -1.513580000e-01
3610000.0 -1.434689000e+00 -1.322070000e-01
3700000.0 -1.407235000e+00 -1.168730000e-01
3790000.0 -1.381007000e+00 -1.006760000e-01
3880000.0 -1.355603000e+00 -8.684900000e-02
3970000.0 -1.333287000e+00 -7.384600000e-02
4060000.0 -1.314306000e+00 -6.095200000e-02
4150000.0 -1.295717000e+00 -4.868500000e-02
4240000.0 -1.279460000e+00 -3.565100000e-02
4330000.0 -1.262736000e+00 -2.320300000e-02
4420000.0 -1.244914000e+00 -1.158100000e-02
4510000.0 -1.233087000e+00 -1.747000000e-03
4600000.0 -1.220159000e+00 1.175600000e-02
4690000.0 -1.210740000e+00 2.175600000e-02
4780000.0 -1.199867000e+00 3.288500000e-02
4870000.0 -1.191132000e+00 4.474500000e-02
4960000.0 -1.182494000e+00 5.576300000e-02
5050000.0 -1.168934000e+00 6.608300000e-02
5140000.0 -1.162837000e+00 7.675200000e-02
5230000.0 -1.157964000e+00 8.846400000e-02
5320000.0 -1.153203000e+00 9.736100000e-02
5410000.0 -1.147919000e+00 1.110700000e-01
5500000.0 -1.144063000e+00 1.209790000e-01
5590000.0 -1.141195000e+00 1.300340000e-01
5680000.0 -1.136888000e+00 1.393490000e-01
5770000.0 -1.133757000e+00 1.491380000e-01
5860000.0 -1.131121000e+00 1.576590000e-01
5950000.0 -1.127786000e+00 1.666870000e-01
6040000.0 -1.123287000e+00 1.770860000e-01
6130000.0 -1.120840000e+00 1.854990000e-01
6220000.0 -1.117393000e+00 1.932210000e-01
6310000.0 -1.115166000e+00 1.998960000e-01
6400000.0 -1.112360000e+00 2.084370000e-01
6490000.0 -1.110876000e+00 2.152100000e-01
6580000.0 -1.107066000e+00 2.208720000e-01
6670000.0 -1.105940000e+00 2.278990000e-01
6760000.0 -1.103146000e+00 2.328070000e-01
6850000.0 -1.100703000e+00 2.357110000e-01
6940000.0 -1.100736000e+00 2.412070000e-01
7030000.0 -1.099165000e+00 2.430950000e-01
7120000.0 -1.098721000e+00 2.457830000e-01
7210000.0 -1.097606000e+00 2.485850000e-01
7300000.0 -1.096880000e+00 2.510450000e-01
7390000.0 -1.096630000e+00 2.512310000e-01
7480000.0 -1.097216000e+00 2.505370000e-01
7570000.0 2.039130000e-01 1.069565000e+00
7660000.0 2.025520000e-01 1.070856000e+00
7750000.0 2.012480000e-01 1.068667000e+00
7840000.0 2.005940000e-01 1.069604000e+00
7930000.0 2.007390000e-01 1.068436000e+00
8020000.0 2.001200000e-01 1.067703000e+00
8110000.0 1.986040000e-01 1.069558000e+00
8200000.0 1.986630000e-01 1.069339000e+00
8290000.0 1.972480000e-01 1.071145000e+00
8380000.0 1.967310000e-01 1.070180000e+00
8470000.0 1.960110000e-01 1.068125000e+00
8560000.0 1.954670000e-01 1.070243000e+00
8650000.0 1.947060000e-01 1.070132000e+00
8740000.0 1.947460000e-01 1.072083000e+00
8830000.0 1.938950000e-01 1.072385000e+00
8920000.0 1.938100000e-01 1.072987000e+00
9010000.0 1.924710000e-01 1.071934000e+00
9100000.0 1.922120000e-01 1.073284000e+00
9190000.0 1.915080000e-01 1.075923000e+00
9280000.0 1.921830000e-01 1.077628000e+00
9370000.0 1.895580000e-01 1.078349000e+00
9460000.0 1.888480000e-01 1.078658000e+00
9550000.0 1.900960000e-01 1.078904000e+00
9640000.0 1.886410000e-01 1.077577000e+00
9730000.0 1.871510000e-01 1.077834000e+00
9820000.0 1.869950000e-01 1.078780000e+00
9910000.0 1.871270000e-01 1.081029000e+00
10000000.0 1.862620000e-01 1.079989000e+00
10900000.0 1.795330000e-01 1.086766000e+00
11800000.0 1.742280000e-01 1.093049000e+00
12700000.0 1.701120000e-01 1.100445000e+00
13600000.0 1.640090000e-01 1.108068000e+00
14500000.0 1.590950000e-01 1.113390000e+00
15400000.0 1.540940000e-01 1.124631000e+00
16300000.0 1.481540000e-01 1.137156000e+00
17200000.0 1.413170000e-01 1.144957000e+00
18100000.0 1.359090000e-01 1.154545000e+00
19000000.0 1.296370000e-01 1.165674000e+00
19900000.0 1.223750000e-01 1.170706000e+00
20800000.0 1.155770000e-01 1.182139000e+00
21700000.0 1.081680000e-01 1.193792000e+00
22600000.0 1.007380000e-01 1.205148000e+00
23500000.0 9.406400000e-02 1.213085000e+00
24400000.0 8.447600000e-02 1.223399000e+00
25300000.0 7.592800000e-02 1.233559000e+00
26200000.0 6.535900000e-02 1.243814000e+00
27100000.0 5.715600000e-02 1.255588000e+00
28000000.0 4.718700000e-02 1.265331000e+00
28900000.0 3.689800000e-02 1.275087000e+00
29800000.0 2.632100000e-02 1.282767000e+00
30700000.0 1.648500000e-02 1.292377000e+00
31600000.0 3.623000000e-03 1.301622000e+00
32500000.0 -9.980000000e-03 1.311117000e+00
33400000.0 -2.126000000e-02 1.321060000e+00
34300000.0 -3.391300000e-02 1.333177000e+00
35200000.0 -4.666400000e-02 1.340788000e+00
36100000.0 -6.051600000e-02 1.353079000e+00
37000000.0 -7.435000000e-02 1.356303000e+00
37900000.0 -8.860400000e-02 1.375028000e+00
38800000.0 -1.049490000e-01 1.388468000e+00
39700000.0 -1.210750000e-01 1.399087000e+00
40600000.0 -1.358210000e-01 1.406560000e+00
41500000.0 -1.536640000e-01 1.415594000e+00
42400000.0 -1.692880000e-01 1.423989000e+00
43300000.0 -1.868860000e-01 1.432161000e+00
44200000.0 -2.061980000e-01 1.440707000e+00
45100000.0 -2.228150000e-01 1.447948000e+00
46000000.0 -2.433310000e-01 1.454529000e+00
46900000.0 -2.623420000e-01 1.463037000e+00
47800000.0 -2.812700000e-01 1.467240000e+00
48700000.0 -3.018930000e-01 1.474603000e+00
49600000.0 -3.218580000e-01 1.480079000e+00
50500000.0 -3.426740000e-01 1.485031000e+00
51400000.0 -3.633740000e-01 1.488016000e+00
52300000.0 -3.826620000e-01 1.484302000e+00
53200000.0 -4.034440000e-01 1.489867000e+00
54100000.0 -4.255820000e-01 1.495379000e+00
55000000.0 -4.480080000e-01 1.497223000e+00
55900000.0 -4.709700000e-01 1.497482000e+00
56800000.0 -4.941210000e-01 1.499474000e+00
57700000.0 -5.158730000e-01 1.499336000e+00
58600000.0 -5.397250000e-01 1.500071000e+00
59500000.0 -5.625850000e-01 1.500118000e+00
60400000.0 -5.859490000e-01 1.496855000e+00
61300000.0 -6.097680000e-01 1.495182000e+00
62200000.0 -6.319210000e-01 1.490110000e+00
63100000.0 -6.538150000e-01 1.486742000e+00
64000000.0 -6.787990000e-01 1.481802000e+00
64900000.0 -6.987710000e-01 1.477590000e+00
65800000.0 -7.242380000e-01 1.472991000e+00
66700000.0 -7.459840000e-01 1.462271000e+00
67600000.0 -7.692000000e-01 1.453512000e+00
68500000.0 -7.933290000e-01 1.448479000e+00
69400000.0 -8.167560000e-01 1.438873000e+00
70300000.0 -8.376290000e-01 1.428390000e+00
71200000.0 -8.616210000e-01 1.419585000e+00
72100000.0 -8.826550000e-01 1.409821000e+00
73000000.0 -9.055260000e-01 1.399509000e+00
73900000.0 -9.278150000e-01 1.386090000e+00
74800000.0 -9.466340000e-01 1.374489000e+00
75700000.0 -9.673000000e-01 1.360750000e+00
76600000.0 -9.872020000e-01 1.346058000e+00
77500000.0 -1.004310000e+00 1.333985000e+00
78400000.0 -1.025580000e+00 1.317694000e+00
79300000.0 -1.043767000e+00 1.302500000e+00
80200000.0 -1.062330000e+00 1.286242000e+00
81100000.0 -1.079265000e+00 1.268458000e+00
82000000.0 -1.096961000e+00 1.253221000e+00
82900000.0 -1.112862000e+00 1.235976000e+00
83800000.0 -1.129430000e+00 1.218727000e+00
84700000.0 -1.143838000e+00 1.198631000e+00
85600000.0 -1.159757000e+00 1.180995000e+00
86500000.0 -1.172380000e+00 1.162562000e+00
87400000.0 -1.186872000e+00 1.140379000e+00
88300000.0 -1.199164000e+00 1.122018000e+00
89200000.0 -1.211545000e+00 1.102813000e+00
90100000.0 -1.223664000e+00 1.080920000e+00
91000000.0 -1.233401000e+00 1.060245000e+00
91900000.0 -1.220958000e+00 1.056429000e+00
92800000.0 -1.251488000e+00 1.018724000e+00
93700000.0 -1.260353000e+00 9.970810000e-01
94600000.0 -1.268668000e+00 9.766610000e-01
95500000.0 -1.276183000e+00 9.554940000e-01
96400000.0 -1.284731000e+00 9.347010000e-01
97300000.0 -1.290395000e+00 9.139970000e-01
98200000.0 -1.294788000e+00 8.928860000e-01
99100000.0 -1.300300000e+00 8.711300000e-01
100000000.0 -1.304248000e+00 8.514150000e-01
109000000.0 -1.301368000e+00 6.439850000e-01
118000000.0 -1.261895000e+00 4.749120000e-01
127000000.0 -1.196595000e+00 3.424070000e-01
136000000.0 -1.096718000e+00 2.407870000e-01
145000000.0 -1.019633000e+00 1.705820000e-01
154000000.0 -9.777190000e-01 1.433980000e-01
163000000.0 -9.793120000e-01 1.503030000e-01
172000000.0 -9.797810000e-01 1.571440000e-01
181000000.0 -9.785800000e-01 1.633400000e-01
190000000.0 -9.784720000e-01 1.710210000e-01
199000000.0 -9.780740000e-01 1.780160000e-01
208000000.0 -9.773990000e-01 1.848980000e-01
217000000.0 -9.742660000e-01 1.939060000e-01
226000000.0 -9.692500000e-01 2.022570000e-01
235000000.0 -9.701350000e-01 2.094910000e-01
244000000.0 -9.684180000e-01 2.180450000e-01
253000000.0 -9.654670000e-01 2.277170000e-01
262000000.0 -9.618700000e-01 2.375220000e-01
271000000.0 -9.578930000e-01 2.453060000e-01
280000000.0 -9.533590000e-01 2.545540000e-01
289000000.0 -9.480990000e-01 2.630080000e-01
298000000.0 -9.438510000e-01 2.737830000e-01
307000000.0 -9.422030000e-01 2.825070000e-01
316000000.0 -9.426330000e-01 2.896900000e-01
325000000.0 -9.432140000e-01 2.993850000e-01
334000000.0 -9.435640000e-01 3.077050000e-01
343000000.0 -9.401660000e-01 3.158070000e-01
352000000.0 -9.415750000e-01 3.266430000e-01
361000000.0 -9.356910000e-01 3.308880000e-01
370000000.0 -9.335740000e-01 3.395930000e-01
379000000.0 -9.306110000e-01 3.468530000e-01
388000000.0 -9.468080000e-01 3.269970000e-01
397000000.0 -9.234900000e-01 3.619380000e-01
406000000.0 -9.180940000e-01 3.692470000e-01
415000000.0 -9.139960000e-01 3.772190000e-01
424000000.0 -9.106260000e-01 3.842420000e-01
433000000.0 -9.041300000e-01 3.893680000e-01
442000000.0 -8.982290000e-01 3.994720000e-01
451000000.0 -8.928770000e-01 4.036960000e-01
460000000.0 -8.933610000e-01 4.121250000e-01
469000000.0 -8.909660000e-01 4.209390000e-01
478000000.0 -8.895280000e-01 4.299590000e-01
487000000.0 -8.856800000e-01 4.409040000e-01
496000000.0 -8.815300000e-01 4.481710000e-01
505000000.0 -8.795230000e-01 4.564730000e-01
514000000.0 -8.785420000e-01 4.628260000e-01
523000000.0 -8.743180000e-01 4.710200000e-01
532000000.0 -8.688240000e-01 4.779920000e-01
541000000.0 -8.653490000e-01 4.824210000e-01
550000000.0 -8.605950000e-01 4.883660000e-01
559000000.0 -8.502960000e-01 4.932820000e-01
568000000.0 -8.460050000e-01 4.988190000e-01
577000000.0 -8.363150000e-01 5.025770000e-01
586000000.0 -8.285940000e-01 5.079840000e-01
595000000.0 -8.195390000e-01 5.120840000e-01
604000000.0 -8.036970000e-01 5.353170000e-01
613000000.0 -8.171020000e-01 5.365330000e-01
622000000.0 -8.230430000e-01 5.319300000e-01
631000000.0 -8.056500000e-01 5.526680000e-01
640000000.0 -8.032990000e-01 5.605020000e-01
649000000.0 -7.935390000e-01 5.715150000e-01
658000000.0 -7.886250000e-01 5.777340000e-01
667000000.0 -7.909830000e-01 5.835640000e-01
676000000.0 -7.850520000e-01 5.873200000e-01
685000000.0 -7.776130000e-01 5.928850000e-01
694000000.0 -7.787430000e-01 6.006780000e-01
703000000.0 -7.739570000e-01 6.119210000e-01
712000000.0 -7.608760000e-01 6.146380000e-01
721000000.0 -7.639580000e-01 6.126470000e-01
730000000.0 -7.549550000e-01 6.206480000e-01
739000000.0 -7.465590000e-01 6.298850000e-01
748000000.0 -7.441170000e-01 6.332610000e-01
757000000.0 -7.352900000e-01 6.384000000e-01
766000000.0 -7.341440000e-01 6.447470000e-01
775000000.0 -7.318170000e-01 6.473060000e-01
784000000.0 -7.234280000e-01 6.593950000e-01
793000000.0 -7.245570000e-01 6.595040000e-01
802000000.0 -7.149400000e-01 6.677810000e-01
811000000.0 -7.096880000e-01 6.767900000e-01
820000000.0 -7.038970000e-01 6.791000000e-01
829000000.0 -6.996320000e-01 6.855980000e-01
838000000.0 -6.935220000e-01 6.928490000e-01
847000000.0 -6.843060000e-01 6.945850000e-01
856000000.0 -6.792890000e-01 6.992380000e-01
865000000.0 -6.707400000e-01 7.052990000e-01
874000000.0 -6.661410000e-01 7.082810000e-01
883000000.0 -6.568230000e-01 7.160330000e-01
892000000.0 -6.516470000e-01 7.200260000e-01
901000000.0 -6.466330000e-01 7.252060000e-01
910000000.0 -6.382490000e-01 7.319510000e-01
919000000.0 -6.368660000e-01 7.372050000e-01
928000000.0 -6.307020000e-01 7.454140000e-01
937000000.0 -6.172470000e-01 7.534370000e-01
946000000.0 -6.103220000e-01 7.623580000e-01
955000000.0 -6.054270000e-01 7.645640000e-01
964000000.0 -6.031990000e-01 7.695670000e-01
973000000.0 -5.949580000e-01 7.757450000e-01
982000000.0 -5.871670000e-01 7.814280000e-01
991000000.0 -5.790580000e-01 7.861170000e-01
1000000000.0 -5.726860000e-01 7.900730000e-01
1004500000.0 -5.646220000e-01 7.811900000e-01
1009000000.0 -5.639420000e-01 7.791960000e-01
1013500000.0 -5.593220000e-01 7.823740000e-01
1018000000.0 -5.527090000e-01 7.860660000e-01
1022500000.0 -5.527770000e-01 7.868090000e-01
1027000000.0 -5.622870000e-01 7.822700000e-01
1031500000.0 -5.250380000e-01 7.996230000e-01
1036000000.0 -5.224620000e-01 8.014230000e-01
1040500000.0 -5.328080000e-01 7.962740000e-01
1045000000.0 -5.437300000e-01 7.915520000e-01
1049500000.0 -5.221940000e-01 7.985150000e-01
1054000000.0 -5.047920000e-01 8.118950000e-01
1058500000.0 -5.146920000e-01 8.065200000e-01
1063000000.0 -5.301290000e-01 8.024220000e-01
1067500000.0 -5.147400000e-01 8.108380000e-01
1072000000.0 -5.115510000e-01 8.136430000e-01
1076500000.0 -5.067910000e-01 8.159840000e-01
1081000000.0 -5.011220000e-01 8.222830000e-01
1085500000.0 -5.032840000e-01 8.216470000e-01
1090000000.0 -4.985820000e-01 8.251940000e-01
1094500000.0 -4.932300000e-01 8.280510000e-01
1099000000.0 -4.890010000e-01 8.326380000e-01
1103500000.0 -4.903750000e-01 8.317740000e-01
1108000000.0 -4.897330000e-01 8.326930000e-01
1112500000.0 -4.824060000e-01 8.347200000e-01
1117000000.0 -4.763900000e-01 8.400130000e-01
1121500000.0 -4.750190000e-01 8.403840000e-01
1126000000.0 -4.381750000e-01 8.511180000e-01
1130500000.0 -4.669290000e-01 8.463830000e-01
1135000000.0 -4.620310000e-01 8.481620000e-01
1139500000.0 -4.574110000e-01 8.523120000e-01
1144000000.0 -4.548710000e-01 8.507160000e-01
1148500000.0 -4.497320000e-01 8.526920000e-01
1153000000.0 -4.449880000e-01 8.471310000e-01
1157500000.0 -4.094150000e-01 8.654670000e-01
1162000000.0 -4.362950000e-01 8.585520000e-01
1166500000.0 -4.322150000e-01 8.631800000e-01
1171000000.0 -4.248970000e-01 8.644210000e-01
1175500000.0 -4.240180000e-01 8.656920000e-01
1180000000.0 -4.168900000e-01 8.725060000e-01
1184500000.0 -4.154940000e-01 8.791750000e-01
1189000000.0 -4.206990000e-01 8.793170000e-01
1193500000.0 -4.144230000e-01 8.790910000e-01
1198000000.0 -4.072230000e-01 8.837990000e-01
1202500000.0 -4.084800000e-01 8.854880000e-01
1207000000.0 -3.979310000e-01 8.889590000e-01
1211500000.0 -3.956580000e-01 8.926460000e-01
1216000000.0 -3.960690000e-01 8.928030000e-01
1220500000.0 -3.923600000e-01 8.946060000e-01
1225000000.0 -3.813540000e-01 9.008760000e-01
1229500000.0 -3.783800000e-01 9.019150000e-01
1234000000.0 -3.765400000e-01 9.030430000e-01
1238500000.0 -3.714130000e-01 9.065090000e-01
1243000000.0 -3.693360000e-01 9.020590000e-01
1247500000.0 -3.679060000e-01 9.050930000e-01
1252000000.0 -3.577100000e-01 9.096720000e-01
1256500000.0 -3.605110000e-01 9.103490000e-01
1261000000.0 -3.601300000e-01 9.104940000e-01
1265500000.0 -3.469460000e-01 9.133350000e-01
1270000000.0 -3.437850000e-01 9.185920000e-01
1274500000.0 -3.433170000e-01 9.147690000e-01
1279000000.0 -3.381090000e-01 9.178830000e-01
1283500000.0 -3.367270000e-01 9.183500000e-01
1288000000.0 -3.337000000e-01 9.178460000e-01
1292500000.0 -3.282270000e-01 9.192740000e-01
1297000000.0 -3.177040000e-01 9.221550000e-01
1301500000.0 -3.187940000e-01 9.221660000e-01
1306000000.0 -2.271830000e-01 9.197670000e-01
1310500000.0 -3.097410000e-01 9.264160000e-01
1315000000.0 -3.037400000e-01 9.237090000e-01
1319500000.0 -2.986650000e-01 9.219750000e-01
1324000000.0 -2.972700000e-01 9.271400000e-01
1328500000.0 -2.896160000e-01 9.266430000e-01
1333000000.0 -2.737990000e-01 9.228800000e-01
1337500000.0 -2.903250000e-01 9.210100000e-01
1342000000.0 -2.728770000e-01 9.274890000e-01
1346500000.0 -2.722620000e-01 9.275570000e-01
1351000000.0 -2.686980000e-01 9.273230000e-01
1355500000.0 -2.616340000e-01 9.227420000e-01
1360000000.0 -2.510960000e-01 9.291470000e-01
1364500000.0 -2.503550000e-01 9.349100000e-01
1369000000.0 -2.414810000e-01 9.344090000e-01
1373500000.0 -2.386220000e-01 9.370000000e-01
1378000000.0 -2.416130000e-01 9.371890000e-01
1382500000.0 -2.427910000e-01 9.351060000e-01
1387000000.0 -2.354000000e-01 9.415220000e-01
1391500000.0 -2.238750000e-01 9.476690000e-01
1396000000.0 -2.228790000e-01 9.421320000e-01
1400500000.0 -2.221170000e-01 9.455370000e-01
1405000000.0 -2.193590000e-01 9.442670000e-01
1409500000.0 -2.210700000e-01 9.491360000e-01
1414000000.0 -2.090720000e-01 9.465410000e-01
1418500000.0 -2.024870000e-01 9.474030000e-01
1423000000.0 -2.052670000e-01 9.518610000e-01
1427500000.0 -1.879450000e-01 9.494240000e-01
1432000000.0 -1.962940000e-01 9.542830000e-01
1436500000.0 -1.822800000e-01 9.541090000e-01
1441000000.0 -1.814550000e-01 9.512660000e-01
1445500000.0 -1.741220000e-01 9.624250000e-01
1450000000.0 -1.715350000e-01 9.562570000e-01
