! piloto_corto / corto_aluminio / r09
# HZ S RI R 50
50000.0 -9.942040000e-01 -3.539500000e-02
59500.0 -9.929050000e-01 -1.820300000e-02
69000.0 -9.954180000e-01 -8.351000000e-03
78500.0 -9.969200000e-01 -5.430000000e-04
88000.0 -9.971750000e-01 1.702000000e-03
97500.0 -9.978230000e-01 1.208000000e-03
107000.0 -9.977490000e-01 -1.128000000e-03
116500.0 -9.973950000e-01 -4.061000000e-03
126000.0 -9.968890000e-01 -9.689000000e-03
135500.0 -9.970090000e-01 -1.440400000e-02
145000.0 -9.973190000e-01 -2.071100000e-02
154500.0 -9.975830000e-01 -2.785400000e-02
164000.0 -9.971510000e-01 -3.512100000e-02
173500.0 -9.974750000e-01 -4.281500000e-02
183000.0 -9.981540000e-01 -5.022300000e-02
192500.0 -9.975250000e-01 -5.760700000e-02
202000.0 -9.980240000e-01 -6.611000000e-02
211500.0 -9.983560000e-01 -7.454900000e-02
221000.0 -9.980070000e-01 -8.350900000e-02
230500.0 -9.984250000e-01 -9.163600000e-02
240000.0 -9.975580000e-01 -1.012700000e-01
249500.0 -9.989040000e-01 -1.103190000e-01
259000.0 -9.991250000e-01 -1.188370000e-01
268500.0 -9.986440000e-01 -1.278220000e-01
278000.0 -9.989420000e-01 -1.370710000e-01
287500.0 -9.996010000e-01 -1.459700000e-01
297000.0 -9.996700000e-01 -1.559900000e-01
306500.0 -9.993240000e-01 -1.649420000e-01
316000.0 -9.995570000e-01 -1.742780000e-01
325500.0 -1.000205000e+00 -1.837870000e-01
335000.0 -1.001151000e+00 -1.920250000e-01
344500.0 -1.000321000e+00 -2.025430000e-01
354000.0 -1.000364000e+00 -2.103570000e-01
363500.0 -1.000048000e+00 -2.201890000e-01
373000.0 -1.001658000e+00 -2.282950000e-01
382500.0 -1.000844000e+00 -2.381790000e-01
392000.0 -1.000909000e+00 -2.473420000e-01
401500.0 -1.000786000e+00 -2.571120000e-01
411000.0 -1.001234000e+00 -2.664580000e-01
420500.0 -1.002212000e+00 -2.752570000e-01
430000.0 -1.002477000e+00 -2.843140000e-01
439500.0 -1.002240000e+00 -2.932510000e-01
449000.0 -1.003421000e+00 -3.023100000e-01
458500.0 -1.002465000e+00 -3.121100000e-01
468000.0 -1.002606000e+00 -3.213130000e-01
477500.0 -1.003242000e+00 -3.305080000e-01
487000.0 -1.002630000e+00 -3.391230000e-01
496500.0 -1.003415000e+00 -3.496320000e-01
506000.0 -1.003483000e+00 -3.574610000e-01
515500.0 -1.005076000e+00 -3.669610000e-01
525000.0 -1.004465000e+00 -3.760180000e-01
534500.0 -1.004131000e+00 -3.847980000e-01
544000.0 -1.003166000e+00 -3.937900000e-01
553500.0 -1.003999000e+00 -4.026170000e-01
563000.0 -1.003947000e+00 -4.117340000e-01
572500.0 -1.004241000e+00 -4.209780000e-01
582000.0 -1.004688000e+00 -4.306720000e-01
591500.0 -1.005893000e+00 -4.388430000e-01
601000.0 -1.006325000e+00 -4.488820000e-01
610500.0 -1.007250000e+00 -4.566380000e-01
620000.0 -1.008812000e+00 -4.656440000e-01
629500.0 -1.010353000e+00 -4.748060000e-01
639000.0 -1.010210000e+00 -4.841250000e-01
648500.0 -1.009632000e+00 -4.942540000e-01
658000.0 -1.012128000e+00 -5.028790000e-01
667500.0 -1.012440000e+00 -5.114800000e-01
677000.0 -1.012338000e+00 -5.211210000e-01
686500.0 -1.011536000e+00 -5.279860000e-01
696000.0 -1.012264000e+00 -5.382110000e-01
705500.0 -1.013990000e+00 -5.475570000e-01
715000.0 -1.014596000e+00 -5.560570000e-01
724500.0 -1.014994000e+00 -5.647380000e-01
734000.0 -1.016374000e+00 -5.729230000e-01
743500.0 -1.017547000e+00 -5.816260000e-01
753000.0 -1.018397000e+00 -5.914640000e-01
762500.0 -1.020769000e+00 -5.989080000e-01
772000.0 -1.020211000e+00 -6.077000000e-01
781500.0 -1.022221000e+00 -6.173080000e-01
791000.0 -1.022515000e+00 -6.262700000e-01
800500.0 -1.024036000e+00 -6.347910000e-01
810000.0 -1.024837000e+00 -6.439670000e-01
819500.0 -1.026935000e+00 -6.525660000e-01
829000.0 -1.026723000e+00 -6.601630000e-01
838500.0 -1.028485000e+00 -6.702170000e-01
848000.0 -1.030122000e+00 -6.769000000e-01
857500.0 -1.030324000e+00 -6.852450000e-01
867000.0 -1.033154000e+00 -6.943430000e-01
876500.0 -1.035558000e+00 -7.038930000e-01
886000.0 -1.034692000e+00 -7.136580000e-01
895500.0 -1.038024000e+00 -7.211130000e-01
905000.0 -1.038506000e+00 -7.290900000e-01
914500.0 -1.040419000e+00 -7.375500000e-01
924000.0 -1.044619000e+00 -7.465900000e-01
933500.0 -1.044542000e+00 -7.551740000e-01
943000.0 -1.047427000e+00 -7.635130000e-01
952500.0 -1.049964000e+00 -7.708160000e-01
962000.0 -1.051507000e+00 -7.810180000e-01
971500.0 -1.054989000e+00 -7.902400000e-01
981000.0 -1.056793000e+00 -7.970730000e-01
990500.0 -1.057692000e+00 -8.051220000e-01
1000000.0 -1.060692000e+00 -8.132950000e-01
1090000.0 -1.084933000e+00 -8.873160000e-01
1180000.0 -1.120231000e+00 -9.595320000e-01
1270000.0 -1.164786000e+00 -1.027989000e+00
1360000.0 -1.218863000e+00 -1.086707000e+00
1450000.0 -1.283230000e+00 -1.141532000e+00
1540000.0 -1.357819000e+00 -1.176510000e+00
1630000.0 -1.440546000e+00 -1.200668000e+00
1720000.0 -1.526581000e+00 -1.204649000e+00
1810000.0 -1.615308000e+00 -1.190490000e+00
1900000.0 -1.701974000e+00 -1.150739000e+00
1990000.0 -1.778890000e+00 -1.090562000e+00
2080000.0 -1.833905000e+00 -1.018809000e+00
2170000.0 -1.875413000e+00 -9.363530000e-01
2260000.0 -1.900424000e+00 -8.455730000e-01
2350000.0 -1.905863000e+00 -7.515250000e-01
2440000.0 -1.893643000e+00 -6.686030000e-01
2530000.0 -1.870164000e+00 -5.864790000e-01
2620000.0 -1.842081000e+00 -5.144060000e-01
2710000.0 -1.804523000e+00 -4.482160000e-01
2800000.0 -1.764152000e+00 -3.966110000e-01
2890000.0 -1.721245000e+00 -3.481130000e-01
2980000.0 -1.680707000e+00 -3.079810000e-01
3070000.0 -1.638578000e+00 -2.716230000e-01
3160000.0 -1.600632000e+00 -2.383930000e-01
3250000.0 -1.563004000e+00 -2.147570000e-01
3340000.0 -1.526668000e+00 -1.919470000e-01
3430000.0 -1.493334000e+00 -1.703020000e-01
3520000.0 -1.461169000e+00 -1.504680000e-01
3610000.0 -1.434210000e+00 -1.326670000e-01
3700000.0 -1.407032000e+00 -1.166320000e-01
3790000.0 -1.382255000e+00 -1.008120000e-01
3880000.0 -1.356564000e+00 -8.743700000e-02
3970000.0 -1.334769000e+00 -7.316200000e-02
4060000.0 -1.315491000e+00 -6.171400000e-02
4150000.0 -1.296572000e+00 -4.795400000e-02
4240000.0 -1.279033000e+00 -3.463600000e-02
4330000.0 -1.263198000e+00 -2.307200000e-02
4420000.0 -1.248617000e+00 -1.077900000e-02
4510000.0 -1.235632000e+00 -6.400000000e-04
4600000.0 -1.223777000e+00 1.223400000e-02
4690000.0 -1.211192000e+00 2.374700000e-02
4780000.0 -1.202254000e+00 3.499400000e-02
4870000.0 -1.192844000e+00 4.487500000e-02
4960000.0 -1.185340000e+00 5.511800000e-02
5050000.0 -1.169709000e+00 6.640500000e-02
5140000.0 -1.165542000e+00 7.744100000e-02
5230000.0 -1.159170000e+00 8.727200000e-02
5320000.0 -1.155005000e+00 9.825700000e-02
5410000.0 -1.149620000e+00 1.086660000e-01
5500000.0 -1.143663000e+00 1.202960000e-01
5590000.0 -1.140438000e+00 1.286410000e-01
5680000.0 -1.135519000e+00 1.390560000e-01
5770000.0 -1.131850000e+00 1.489350000e-01
5860000.0 -1.128438000e+00 1.579830000e-01
5950000.0 -1.124754000e+00 1.671190000e-01
6040000.0 -1.121068000e+00 1.755730000e-01
6130000.0 -1.118362000e+00 1.841590000e-01
6220000.0 -1.115981000e+00 1.927600000e-01
6310000.0 -1.112037000e+00 2.003060000e-01
6400000.0 -1.110616000e+00 2.071630000e-01
6490000.0 -1.108316000e+00 2.145320000e-01
6580000.0 -1.105162000e+00 2.215790000e-01
6670000.0 -1.102435000e+00 2.282450000e-01
6760000.0 -1.102401000e+00 2.311230000e-01
6850000.0 -1.100370000e+00 2.359260000e-01
6940000.0 -1.098774000e+00 2.410800000e-01
7030000.0 -1.099119000e+00 2.435460000e-01
7120000.0 -1.097570000e+00 2.463340000e-01
7210000.0 -1.104257000e+00 2.298970000e-01
7300000.0 -1.097181000e+00 2.503890000e-01
7390000.0 -1.096276000e+00 2.512300000e-01
7480000.0 -1.096720000e+00 2.513380000e-01
7570000.0 2.036610000e-01 1.069191000e+00
7660000.0 2.025010000e-01 1.068407000e+00
7750000.0 2.014940000e-01 1.069072000e+00
7840000.0 2.027840000e-01 1.068207000e+00
7930000.0 2.009740000e-01 1.069408000e+00
8020000.0 2.006550000e-01 1.069629000e+00
8110000.0 1.997640000e-01 1.070892000e+00
8200000.0 1.985690000e-01 1.071212000e+00
8290000.0 1.985860000e-01 1.071361000e+00
8380000.0 1.973210000e-01 1.071452000e+00
8470000.0 1.966890000e-01 1.071665000e+00
8560000.0 1.961540000e-01 1.072626000e+00
8650000.0 1.956210000e-01 1.074607000e+00
8740000.0 1.948120000e-01 1.073331000e+00
8830000.0 1.942310000e-01 1.074650000e+00
8920000.0 1.940540000e-01 1.075050000e+00
9010000.0 1.927760000e-01 1.075165000e+00
9100000.0 1.924620000e-01 1.074460000e+00
9190000.0 1.920110000e-01 1.077010000e+00
9280000.0 1.905410000e-01 1.077242000e+00
9370000.0 1.900750000e-01 1.078192000e+00
9460000.0 1.900000000e-01 1.077688000e+00
9550000.0 1.897760000e-01 1.078292000e+00
9640000.0 1.887490000e-01 1.078625000e+00
9730000.0 1.884710000e-01 1.080549000e+00
9820000.0 1.877620000e-01 1.081250000e+00
9910000.0 1.865800000e-01 1.080960000e+00
10000000.0 1.862330000e-01 1.080504000e+00
10900000.0 1.804530000e-01 1.086465000e+00
11800000.0 1.757210000e-01 1.092430000e+00
12700000.0 1.698010000e-01 1.101907000e+00
13600000.0 1.640690000e-01 1.110121000e+00
14500000.0 1.590440000e-01 1.116897000e+00
15400000.0 1.541240000e-01 1.125907000e+00
16300000.0 1.467060000e-01 1.136343000e+00
17200000.0 1.422170000e-01 1.145931000e+00
18100000.0 1.363150000e-01 1.153406000e+00
19000000.0 1.292320000e-01 1.163557000e+00
19900000.0 1.224400000e-01 1.174055000e+00
20800000.0 1.148490000e-01 1.182161000e+00
21700000.0 1.085260000e-01 1.191844000e+00
22600000.0 1.000020000e-01 1.202514000e+00
23500000.0 9.267500000e-02 1.212829000e+00
24400000.0 8.346200000e-02 1.222950000e+00
25300000.0 7.433900000e-02 1.232027000e+00
26200000.0 6.611600000e-02 1.243577000e+00
27100000.0 5.639100000e-02 1.253689000e+00
28000000.0 4.710300000e-02 1.263448000e+00
28900000.0 3.611600000e-02 1.273012000e+00
29800000.0 2.533600000e-02 1.284167000e+00
30700000.0 1.426700000e-02 1.293379000e+00
31600000.0 2.576000000e-03 1.304751000e+00
32500000.0 -8.930000000e-03 1.314797000e+00
33400000.0 -2.312900000e-02 1.324816000e+00
34300000.0 -3.492100000e-02 1.335096000e+00
35200000.0 -4.772400000e-02 1.344736000e+00
36100000.0 -6.066400000e-02 1.354657000e+00
37000000.0 -7.489500000e-02 1.364652000e+00
37900000.0 -9.059900000e-02 1.373729000e+00
38800000.0 -1.042620000e-01 1.383197000e+00
39700000.0 -1.202210000e-01 1.391450000e+00
40600000.0 -1.360950000e-01 1.400974000e+00
41500000.0 -1.535220000e-01 1.411419000e+00
42400000.0 -1.698620000e-01 1.418849000e+00
43300000.0 -1.870090000e-01 1.428056000e+00
44200000.0 -2.056490000e-01 1.434603000e+00
45100000.0 -2.232660000e-01 1.442850000e+00
46000000.0 -2.403230000e-01 1.451599000e+00
46900000.0 -2.612960000e-01 1.456933000e+00
47800000.0 -2.793860000e-01 1.463057000e+00
48700000.0 -3.009140000e-01 1.467963000e+00
49600000.0 -3.197950000e-01 1.474984000e+00
50500000.0 -3.421130000e-01 1.478860000e+00
51400000.0 -3.621500000e-01 1.483590000e+00
52300000.0 -3.844810000e-01 1.486984000e+00
53200000.0 -4.049910000e-01 1.490333000e+00
54100000.0 -4.267560000e-01 1.493331000e+00
55000000.0 -4.484770000e-01 1.495309000e+00
55900000.0 -4.713120000e-01 1.496197000e+00
56800000.0 -4.934320000e-01 1.495285000e+00
57700000.0 -5.171430000e-01 1.498714000e+00
58600000.0 -5.409560000e-01 1.495448000e+00
59500000.0 -5.634100000e-01 1.494927000e+00
60400000.0 -5.852760000e-01 1.494697000e+00
61300000.0 -6.095750000e-01 1.491332000e+00
62200000.0 -6.327960000e-01 1.488286000e+00
63100000.0 -6.550690000e-01 1.483738000e+00
64000000.0 -6.779760000e-01 1.480177000e+00
64900000.0 -7.030140000e-01 1.473861000e+00
65800000.0 -7.244730000e-01 1.466993000e+00
66700000.0 -7.480900000e-01 1.460267000e+00
67600000.0 -7.702100000e-01 1.453113000e+00
68500000.0 -7.943830000e-01 1.444817000e+00
69400000.0 -8.168550000e-01 1.436838000e+00
70300000.0 -8.398590000e-01 1.426520000e+00
71200000.0 -8.605340000e-01 1.417282000e+00
72100000.0 -8.812030000e-01 1.405454000e+00
73000000.0 -9.038420000e-01 1.396338000e+00
73900000.0 -9.239130000e-01 1.383675000e+00
74800000.0 -9.448440000e-01 1.371891000e+00
75700000.0 -9.672920000e-01 1.358248000e+00
76600000.0 -9.846790000e-01 1.344212000e+00
77500000.0 -1.005324000e+00 1.330204000e+00
78400000.0 -1.025293000e+00 1.315107000e+00
79300000.0 -1.043209000e+00 1.298500000e+00
80200000.0 -1.059368000e+00 1.283527000e+00
81100000.0 -1.076284000e+00 1.266438000e+00
82000000.0 -1.094107000e+00 1.250579000e+00
82900000.0 -1.111099000e+00 1.231985000e+00
83800000.0 -1.127374000e+00 1.215898000e+00
84700000.0 -1.141117000e+00 1.196085000e+00
85600000.0 -1.158089000e+00 1.177651000e+00
86500000.0 -1.170358000e+00 1.158952000e+00
87400000.0 -1.184368000e+00 1.138862000e+00
88300000.0 -1.197503000e+00 1.120387000e+00
89200000.0 -1.211191000e+00 1.098398000e+00
90100000.0 -1.220068000e+00 1.079617000e+00
91000000.0 -1.230462000e+00 1.059850000e+00
91900000.0 -1.241665000e+00 1.036950000e+00
92800000.0 -1.250725000e+00 1.017299000e+00
93700000.0 -1.259588000e+00 9.972820000e-01
94600000.0 -1.267312000e+00 9.756340000e-01
95500000.0 -1.275293000e+00 9.548190000e-01
96400000.0 -1.281072000e+00 9.327370000e-01
97300000.0 -1.288428000e+00 9.137250000e-01
98200000.0 -1.292856000e+00 8.898880000e-01
99100000.0 -1.297073000e+00 8.692150000e-01
100000000.0 -1.301732000e+00 8.498570000e-01
109000000.0 -1.311520000e+00 6.493370000e-01
118000000.0 -1.272102000e+00 4.773270000e-01
127000000.0 -1.208140000e+00 3.426490000e-01
136000000.0 -1.103494000e+00 2.416360000e-01
145000000.0 -1.025000000e+00 1.706340000e-01
154000000.0 -9.831980000e-01 1.426130000e-01
163000000.0 -9.845010000e-01 1.485450000e-01
172000000.0 -9.865630000e-01 1.548400000e-01
181000000.0 -9.867530000e-01 1.621800000e-01
190000000.0 -9.868510000e-01 1.683650000e-01
199000000.0 -9.870220000e-01 1.766970000e-01
208000000.0 -9.867280000e-01 1.839620000e-01
217000000.0 -9.862300000e-01 1.915170000e-01
226000000.0 -9.841060000e-01 2.009440000e-01
235000000.0 -9.823160000e-01 2.091310000e-01
244000000.0 -9.800440000e-01 2.166420000e-01
253000000.0 -9.766360000e-01 2.255170000e-01
262000000.0 -9.737100000e-01 2.343090000e-01
271000000.0 -9.688080000e-01 2.450130000e-01
280000000.0 -9.637100000e-01 2.535210000e-01
289000000.0 -9.604840000e-01 2.610490000e-01
298000000.0 -9.549570000e-01 2.729180000e-01
307000000.0 -9.533550000e-01 2.786790000e-01
316000000.0 -9.552410000e-01 2.887840000e-01
325000000.0 -9.549070000e-01 2.963360000e-01
334000000.0 -9.541090000e-01 3.044650000e-01
343000000.0 -8.868440000e-01 3.620420000e-01
352000000.0 -9.515610000e-01 3.214890000e-01
361000000.0 -9.485590000e-01 3.307510000e-01
370000000.0 -9.672290000e-01 3.086590000e-01
379000000.0 -9.645700000e-01 3.141180000e-01
388000000.0 -9.409080000e-01 3.529570000e-01
397000000.0 -9.466190000e-01 3.438940000e-01
406000000.0 -9.130080000e-01 3.963450000e-01
415000000.0 -9.291200000e-01 3.761700000e-01
424000000.0 -9.232230000e-01 3.819610000e-01
433000000.0 -9.181640000e-01 3.885550000e-01
442000000.0 -9.127370000e-01 3.969120000e-01
451000000.0 -9.023340000e-01 4.020680000e-01
460000000.0 -9.047830000e-01 4.120170000e-01
469000000.0 -9.034060000e-01 4.210150000e-01
478000000.0 -9.008280000e-01 4.307790000e-01
487000000.0 -8.973780000e-01 4.410030000e-01
496000000.0 -8.947410000e-01 4.487710000e-01
505000000.0 -8.930270000e-01 4.558950000e-01
514000000.0 -8.898490000e-01 4.639410000e-01
523000000.0 -8.856440000e-01 4.738460000e-01
532000000.0 -8.808710000e-01 4.793170000e-01
541000000.0 -8.751310000e-01 4.860190000e-01
550000000.0 -8.735800000e-01 4.919430000e-01
559000000.0 -8.643380000e-01 4.990910000e-01
568000000.0 -8.599050000e-01 5.059720000e-01
577000000.0 -8.541880000e-01 5.068890000e-01
586000000.0 -8.480100000e-01 5.133960000e-01
595000000.0 -8.422270000e-01 5.163180000e-01
604000000.0 -8.340750000e-01 5.256250000e-01
613000000.0 -8.303740000e-01 5.365320000e-01
622000000.0 -8.258140000e-01 5.432300000e-01
631000000.0 -8.230310000e-01 5.522970000e-01
640000000.0 -8.199160000e-01 5.615730000e-01
649000000.0 -8.156810000e-01 5.718030000e-01
658000000.0 -8.103110000e-01 5.750780000e-01
667000000.0 -7.988610000e-01 5.782050000e-01
676000000.0 -8.092210000e-01 5.765330000e-01
685000000.0 -7.935740000e-01 5.931670000e-01
694000000.0 -7.887060000e-01 6.037650000e-01
703000000.0 -7.826250000e-01 6.090770000e-01
712000000.0 -7.776000000e-01 6.124000000e-01
721000000.0 -7.732990000e-01 6.189940000e-01
730000000.0 -7.643100000e-01 6.233630000e-01
739000000.0 -7.592620000e-01 6.264950000e-01
748000000.0 -7.553950000e-01 6.333430000e-01
757000000.0 -7.500600000e-01 6.366280000e-01
766000000.0 -7.438420000e-01 6.457760000e-01
775000000.0 -7.392620000e-01 6.512280000e-01
784000000.0 -7.314320000e-01 6.587580000e-01
793000000.0 -7.280640000e-01 6.643060000e-01
802000000.0 -7.239380000e-01 6.707800000e-01
811000000.0 -7.165200000e-01 6.798800000e-01
820000000.0 -7.113110000e-01 6.814660000e-01
829000000.0 -7.088380000e-01 6.859040000e-01
838000000.0 -7.007550000e-01 6.940570000e-01
847000000.0 -6.937290000e-01 6.992070000e-01
856000000.0 -6.886120000e-01 7.042620000e-01
865000000.0 -6.840790000e-01 7.096870000e-01
874000000.0 -6.772230000e-01 7.151460000e-01
883000000.0 -6.695270000e-01 7.210180000e-01
892000000.0 -6.632120000e-01 7.261130000e-01
901000000.0 -6.567950000e-01 7.303230000e-01
910000000.0 -6.538620000e-01 7.369380000e-01
919000000.0 -6.482270000e-01 7.421680000e-01
928000000.0 -6.408160000e-01 7.519890000e-01
937000000.0 -6.385590000e-01 7.526120000e-01
946000000.0 -6.324810000e-01 7.629250000e-01
955000000.0 -6.240600000e-01 7.689880000e-01
964000000.0 -6.215770000e-01 7.727150000e-01
973000000.0 -6.136110000e-01 7.769130000e-01
982000000.0 -6.034350000e-01 7.866340000e-01
991000000.0 -5.997000000e-01 7.901950000e-01
1000000000.0 -5.913040000e-01 7.948750000e-01
1004500000.0 -5.845550000e-01 7.965480000e-01
1009000000.0 -5.779660000e-01 8.011540000e-01
1013500000.0 -5.775670000e-01 8.016630000e-01
1018000000.0 -5.719190000e-01 8.039330000e-01
1022500000.0 -5.706320000e-01 8.064410000e-01
1027000000.0 -5.817540000e-01 7.982850000e-01
1031500000.0 -5.605720000e-01 8.101340000e-01
1036000000.0 -5.428910000e-01 8.187690000e-01
1040500000.0 -5.517700000e-01 8.146420000e-01
1045000000.0 -5.630520000e-01 8.102330000e-01
1049500000.0 -5.447620000e-01 8.170340000e-01
1054000000.0 -5.277290000e-01 8.259580000e-01
1058500000.0 -5.362690000e-01 8.237810000e-01
1063000000.0 -5.512580000e-01 8.178140000e-01
1067500000.0 -5.296900000e-01 8.281700000e-01
1072000000.0 -5.151760000e-01 8.381930000e-01
1076500000.0 -5.269800000e-01 8.338260000e-01
1081000000.0 -5.183730000e-01 8.384190000e-01
1085500000.0 -5.194130000e-01 8.404610000e-01
1090000000.0 -5.166240000e-01 8.402190000e-01
1094500000.0 -5.139330000e-01 8.454160000e-01
1099000000.0 -5.069930000e-01 8.476020000e-01
1103500000.0 -5.068090000e-01 8.511240000e-01
1108000000.0 -5.016770000e-01 8.526730000e-01
1112500000.0 -4.938590000e-01 8.563340000e-01
1117000000.0 -4.935240000e-01 8.570260000e-01
1121500000.0 -4.870890000e-01 8.599180000e-01
1126000000.0 -4.834920000e-01 8.598290000e-01
1130500000.0 -4.806100000e-01 8.626100000e-01
1135000000.0 -4.739510000e-01 8.624130000e-01
1139500000.0 -5.239350000e-01 8.571090000e-01
1144000000.0 -4.677480000e-01 8.663900000e-01
1148500000.0 -4.656630000e-01 8.683820000e-01
1153000000.0 -4.564700000e-01 8.736900000e-01
1157500000.0 -4.520210000e-01 8.765900000e-01
1162000000.0 -4.538740000e-01 8.730290000e-01
1166500000.0 -4.473710000e-01 8.756580000e-01
1171000000.0 -4.393690000e-01 8.811760000e-01
1175500000.0 -4.403260000e-01 8.795950000e-01
1180000000.0 -4.388850000e-01 8.800980000e-01
1184500000.0 -4.254910000e-01 8.851740000e-01
1189000000.0 -4.267320000e-01 8.843240000e-01
1193500000.0 -4.213270000e-01 8.834940000e-01
1198000000.0 -4.149690000e-01 8.883980000e-01
1202500000.0 -4.124270000e-01 8.869390000e-01
1207000000.0 -4.081730000e-01 8.910650000e-01
1211500000.0 -4.012620000e-01 8.959180000e-01
1216000000.0 -4.027650000e-01 8.953350000e-01
1220500000.0 -4.007340000e-01 8.962660000e-01
1225000000.0 -3.948410000e-01 9.008350000e-01
1229500000.0 -3.915530000e-01 9.020290000e-01
1234000000.0 -3.838870000e-01 9.060450000e-01
1238500000.0 -3.778240000e-01 9.070040000e-01
1243000000.0 -3.721590000e-01 9.071910000e-01
1247500000.0 -3.727120000e-01 9.116960000e-01
1252000000.0 -3.677430000e-01 9.127950000e-01
1256500000.0 -3.617780000e-01 9.130950000e-01
1261000000.0 -3.627470000e-01 9.140170000e-01
1265500000.0 -3.584510000e-01 9.174730000e-01
1270000000.0 -3.520850000e-01 9.188120000e-01
1274500000.0 -3.496060000e-01 9.187890000e-01
1279000000.0 -3.406950000e-01 9.220250000e-01
1283500000.0 -3.347680000e-01 9.239800000e-01
1288000000.0 -3.342450000e-01 9.222940000e-01
1292500000.0 -3.299740000e-01 9.207820000e-01
1297000000.0 -3.257930000e-01 9.222850000e-01
1301500000.0 -3.222050000e-01 9.196120000e-01
1306000000.0 -3.219820000e-01 9.264920000e-01
1310500000.0 -3.134590000e-01 9.220230000e-01
1315000000.0 -3.090650000e-01 9.206060000e-01
1319500000.0 -3.034380000e-01 9.257840000e-01
1324000000.0 -2.997290000e-01 9.262270000e-01
1328500000.0 -3.010950000e-01 9.234650000e-01
1333000000.0 -2.857350000e-01 9.238360000e-01
1337500000.0 -2.854910000e-01 9.292300000e-01
1342000000.0 -2.732780000e-01 9.227630000e-01
1346500000.0 -2.752840000e-01 9.235730000e-01
1351000000.0 -2.786830000e-01 9.247380000e-01
1355500000.0 -2.698820000e-01 9.288380000e-01
1360000000.0 -2.610510000e-01 9.341520000e-01
1364500000.0 -2.661890000e-01 9.353620000e-01
1369000000.0 -2.519420000e-01 9.342780000e-01
1373500000.0 -2.551970000e-01 9.312500000e-01
1378000000.0 -2.453910000e-01 9.385920000e-01
1382500000.0 -2.393500000e-01 9.377710000e-01
1387000000.0 -2.296780000e-01 9.425230000e-01
1391500000.0 -2.274360000e-01 9.424250000e-01
1396000000.0 -2.303150000e-01 9.433250000e-01
1400500000.0 -2.308260000e-01 9.476180000e-01
1405000000.0 -2.183920000e-01 9.432580000e-01
1409500000.0 -2.140280000e-01 9.454580000e-01
1414000000.0 -2.087200000e-01 9.479340000e-01
1418500000.0 -1.992100000e-01 9.500320000e-01
1423000000.0 -2.080870000e-01 9.571080000e-01
1427500000.0 -1.909320000e-01 9.536230000e-01
1432000000.0 -1.946640000e-01 9.546890000e-01
1436500000.0 -1.932260000e-01 9.577690000e-01
1441000000.0 -1.842000000e-01 9.615390000e-01
1445500000.0 -1.794320000e-01 9.529430000e-01
1450000000.0 -1.682460000e-01 9.591960000e-01
