! piloto_corto / aire / r08
# HZ S RI R 50
50000.0 1.006483000e+00 -7.316900000e-02
59500.0 1.006061000e+00 -6.011700000e-02
69000.0 1.004355000e+00 -4.672900000e-02
78500.0 1.002415000e+00 -3.261900000e-02
88000.0 1.001665000e+00 -2.049200000e-02
97500.0 1.000572000e+00 -8.257000000e-03
107000.0 9.995150000e-01 4.596000000e-03
116500.0 9.999870000e-01 1.567000000e-02
126000.0 1.002630000e+00 2.906100000e-02
135500.0 1.000337000e+00 4.085200000e-02
145000.0 1.000104000e+00 5.232400000e-02
154500.0 1.000997000e+00 6.419800000e-02
164000.0 1.000764000e+00 7.525300000e-02
173500.0 1.002523000e+00 8.741400000e-02
183000.0 1.001568000e+00 9.889800000e-02
192500.0 1.002277000e+00 1.110800000e-01
202000.0 1.003265000e+00 1.219880000e-01
211500.0 1.002612000e+00 1.339810000e-01
221000.0 1.002968000e+00 1.448020000e-01
230500.0 1.003082000e+00 1.557560000e-01
240000.0 1.003338000e+00 1.672400000e-01
249500.0 1.003392000e+00 1.781520000e-01
259000.0 1.003360000e+00 1.893390000e-01
268500.0 1.004265000e+00 2.010010000e-01
278000.0 1.004598000e+00 2.111950000e-01
287500.0 1.004183000e+00 2.222570000e-01
297000.0 1.004179000e+00 2.328690000e-01
306500.0 1.004560000e+00 2.433370000e-01
316000.0 1.005347000e+00 2.543400000e-01
325500.0 1.004297000e+00 2.654140000e-01
335000.0 1.005657000e+00 2.755170000e-01
344500.0 1.005569000e+00 2.857930000e-01
354000.0 1.005455000e+00 2.969220000e-01
363500.0 1.004967000e+00 3.068880000e-01
373000.0 1.005555000e+00 3.177650000e-01
382500.0 1.006561000e+00 3.271970000e-01
392000.0 1.006274000e+00 3.377470000e-01
401500.0 1.005566000e+00 3.482980000e-01
411000.0 1.007111000e+00 3.590670000e-01
420500.0 1.005906000e+00 3.689210000e-01
430000.0 1.006945000e+00 3.785580000e-01
439500.0 1.006856000e+00 3.887180000e-01
449000.0 1.006943000e+00 3.986320000e-01
458500.0 1.007517000e+00 4.087250000e-01
468000.0 1.007270000e+00 4.190940000e-01
477500.0 1.007268000e+00 4.290290000e-01
487000.0 1.008378000e+00 4.380650000e-01
496500.0 1.008501000e+00 4.484050000e-01
506000.0 1.007842000e+00 4.584610000e-01
515500.0 1.009149000e+00 4.684000000e-01
525000.0 1.009057000e+00 4.777100000e-01
534500.0 1.010322000e+00 4.874470000e-01
544000.0 1.008898000e+00 4.972200000e-01
553500.0 1.010514000e+00 5.064520000e-01
563000.0 1.010334000e+00 5.167150000e-01
572500.0 1.011428000e+00 5.263020000e-01
582000.0 1.010558000e+00 5.356510000e-01
591500.0 1.011576000e+00 5.457590000e-01
601000.0 1.012743000e+00 5.549790000e-01
610500.0 1.011810000e+00 5.632610000e-01
620000.0 1.013702000e+00 5.724840000e-01
629500.0 1.014060000e+00 5.833420000e-01
639000.0 1.014184000e+00 5.927040000e-01
648500.0 1.014600000e+00 6.018590000e-01
658000.0 1.013854000e+00 6.112370000e-01
667500.0 1.015634000e+00 6.209740000e-01
677000.0 1.014752000e+00 6.299520000e-01
686500.0 1.016576000e+00 6.381990000e-01
696000.0 1.017862000e+00 6.488680000e-01
705500.0 1.017877000e+00 6.574250000e-01
715000.0 1.018710000e+00 6.674920000e-01
724500.0 1.019499000e+00 6.762920000e-01
734000.0 1.021188000e+00 6.861320000e-01
743500.0 1.022014000e+00 6.937100000e-01
753000.0 1.022807000e+00 7.037090000e-01
762500.0 1.023227000e+00 7.128890000e-01
772000.0 1.026297000e+00 7.211600000e-01
781500.0 1.025468000e+00 7.307380000e-01
791000.0 1.026937000e+00 7.399290000e-01
800500.0 1.027760000e+00 7.465300000e-01
810000.0 1.029564000e+00 7.587990000e-01
819500.0 1.029775000e+00 7.669630000e-01
829000.0 1.030592000e+00 7.753430000e-01
838500.0 1.033857000e+00 7.837420000e-01
848000.0 1.034746000e+00 7.932990000e-01
857500.0 1.036433000e+00 8.022130000e-01
867000.0 1.038207000e+00 8.116190000e-01
876500.0 1.039868000e+00 8.202060000e-01
886000.0 1.040275000e+00 8.291920000e-01
895500.0 1.042771000e+00 8.380260000e-01
905000.0 1.043994000e+00 8.453170000e-01
914500.0 1.046000000e+00 8.552550000e-01
924000.0 1.046988000e+00 8.632300000e-01
933500.0 1.051517000e+00 8.725510000e-01
943000.0 1.052503000e+00 8.819410000e-01
952500.0 1.054833000e+00 8.892920000e-01
962000.0 1.054802000e+00 8.986240000e-01
971500.0 1.058480000e+00 9.066680000e-01
981000.0 1.059951000e+00 9.148880000e-01
990500.0 1.063274000e+00 9.242540000e-01
1000000.0 1.064180000e+00 9.326200000e-01
1090000.0 1.089712000e+00 1.010309000e+00
1180000.0 1.124687000e+00 1.084884000e+00
1270000.0 1.168918000e+00 1.155701000e+00
1360000.0 1.221999000e+00 1.218473000e+00
1450000.0 1.287268000e+00 1.272200000e+00
1540000.0 1.358629000e+00 1.313087000e+00
1630000.0 1.437744000e+00 1.342471000e+00
1720000.0 1.524449000e+00 1.350254000e+00
1810000.0 1.615222000e+00 1.341112000e+00
1900000.0 1.698466000e+00 1.313573000e+00
1990000.0 1.778250000e+00 1.266029000e+00
2080000.0 1.846521000e+00 1.199177000e+00
2170000.0 1.898227000e+00 1.124353000e+00
2260000.0 1.934527000e+00 1.035097000e+00
2350000.0 1.955205000e+00 9.504490000e-01
2440000.0 1.956627000e+00 8.600830000e-01
2530000.0 1.944983000e+00 7.775810000e-01
2620000.0 1.923759000e+00 7.000430000e-01
2710000.0 1.897198000e+00 6.288140000e-01
2800000.0 1.863026000e+00 5.678480000e-01
2890000.0 1.826237000e+00 5.151110000e-01
2980000.0 1.787478000e+00 4.673310000e-01
3070000.0 1.749907000e+00 4.234850000e-01
3160000.0 1.713510000e+00 3.844700000e-01
3250000.0 1.674747000e+00 3.523830000e-01
3340000.0 1.641209000e+00 3.209150000e-01
3430000.0 1.608711000e+00 2.945080000e-01
3520000.0 1.576940000e+00 2.702410000e-01
3610000.0 1.549352000e+00 2.487600000e-01
3700000.0 1.521150000e+00 2.268320000e-01
3790000.0 1.495167000e+00 2.078590000e-01
3880000.0 1.471452000e+00 1.905790000e-01
3970000.0 1.449753000e+00 1.734270000e-01
4060000.0 1.427238000e+00 1.579190000e-01
4150000.0 1.408985000e+00 1.414470000e-01
4240000.0 1.390580000e+00 1.262340000e-01
4330000.0 1.376129000e+00 1.124790000e-01
4420000.0 1.361936000e+00 9.880000000e-02
4510000.0 1.346885000e+00 8.211100000e-02
4600000.0 1.335502000e+00 7.035200000e-02
4690000.0 1.323283000e+00 5.523300000e-02
4780000.0 1.314552000e+00 4.168500000e-02
4870000.0 1.305957000e+00 3.015400000e-02
4960000.0 1.297305000e+00 1.644600000e-02
5050000.0 1.283470000e+00 3.406000000e-03
5140000.0 1.277544000e+00 -9.228000000e-03
5230000.0 1.272720000e+00 -1.936100000e-02
5320000.0 1.269351000e+00 -3.353000000e-02
5410000.0 1.263778000e+00 -4.557200000e-02
5500000.0 1.258465000e+00 -5.753900000e-02
5590000.0 1.255210000e+00 -6.894700000e-02
5680000.0 1.252301000e+00 -8.044500000e-02
5770000.0 1.248919000e+00 -9.055600000e-02
5860000.0 1.245053000e+00 -1.017410000e-01
5950000.0 1.241900000e+00 -1.123230000e-01
6040000.0 1.239191000e+00 -1.231090000e-01
6130000.0 1.236138000e+00 -1.329100000e-01
6220000.0 1.234160000e+00 -1.426540000e-01
6310000.0 1.231555000e+00 -1.509830000e-01
6400000.0 1.229345000e+00 -1.589070000e-01
6490000.0 1.228086000e+00 -1.679080000e-01
6580000.0 1.226792000e+00 -1.744530000e-01
6670000.0 1.224634000e+00 -1.811790000e-01
6760000.0 1.222518000e+00 -1.881010000e-01
6850000.0 1.221480000e+00 -1.939940000e-01
6940000.0 1.221643000e+00 -1.973630000e-01
7030000.0 1.219758000e+00 -2.027910000e-01
7120000.0 1.218232000e+00 -2.060780000e-01
7210000.0 1.217997000e+00 -2.084370000e-01
7300000.0 1.218296000e+00 -2.096650000e-01
7390000.0 1.218263000e+00 -2.123370000e-01
7480000.0 1.219188000e+00 -2.115060000e-01
7570000.0 -2.617920000e-01 -1.257864000e+00
7660000.0 -2.611200000e-01 -1.258514000e+00
7750000.0 -2.603350000e-01 -1.257907000e+00
7840000.0 -2.585740000e-01 -1.259288000e+00
7930000.0 -2.594210000e-01 -1.257895000e+00
8020000.0 -2.593340000e-01 -1.258603000e+00
8110000.0 -2.583270000e-01 -1.259969000e+00
8200000.0 -2.573530000e-01 -1.259246000e+00
8290000.0 -2.568060000e-01 -1.261036000e+00
8380000.0 -2.570080000e-01 -1.261447000e+00
8470000.0 -2.558460000e-01 -1.261816000e+00
8560000.0 -2.556680000e-01 -1.262211000e+00
8650000.0 -2.548720000e-01 -1.261662000e+00
8740000.0 -2.535490000e-01 -1.263468000e+00
8830000.0 -2.541490000e-01 -1.264300000e+00
8920000.0 -2.529420000e-01 -1.264338000e+00
9010000.0 -2.534890000e-01 -1.264337000e+00
9100000.0 -2.513170000e-01 -1.266148000e+00
9190000.0 -2.526660000e-01 -1.264562000e+00
9280000.0 -2.515780000e-01 -1.267411000e+00
9370000.0 -2.509190000e-01 -1.267324000e+00
9460000.0 -2.513340000e-01 -1.267442000e+00
9550000.0 -2.508640000e-01 -1.269334000e+00
9640000.0 -2.489130000e-01 -1.270017000e+00
9730000.0 -2.490650000e-01 -1.271312000e+00
9820000.0 -2.496750000e-01 -1.271571000e+00
9910000.0 -2.486140000e-01 -1.271685000e+00
10000000.0 -2.482800000e-01 -1.273611000e+00
10900000.0 -2.446750000e-01 -1.282323000e+00
11800000.0 -2.410690000e-01 -1.291072000e+00
12700000.0 -2.365410000e-01 -1.301089000e+00
13600000.0 -2.341050000e-01 -1.311218000e+00
14500000.0 -2.302020000e-01 -1.321860000e+00
15400000.0 -2.256860000e-01 -1.333093000e+00
16300000.0 -2.216200000e-01 -1.345227000e+00
17200000.0 -2.165540000e-01 -1.355404000e+00
18100000.0 -2.119410000e-01 -1.367872000e+00
19000000.0 -2.080150000e-01 -1.380305000e+00
19900000.0 -2.033520000e-01 -1.391181000e+00
20800000.0 -1.974530000e-01 -1.405699000e+00
21700000.0 -1.911470000e-01 -1.417703000e+00
22600000.0 -1.854740000e-01 -1.430506000e+00
23500000.0 -1.792050000e-01 -1.443084000e+00
24400000.0 -1.719140000e-01 -1.457601000e+00
25300000.0 -1.640410000e-01 -1.471264000e+00
26200000.0 -1.557330000e-01 -1.486946000e+00
27100000.0 -1.480030000e-01 -1.499840000e+00
28000000.0 -1.397010000e-01 -1.514594000e+00
28900000.0 -1.302750000e-01 -1.528184000e+00
29800000.0 -1.213700000e-01 -1.542863000e+00
30700000.0 -1.104710000e-01 -1.558827000e+00
31600000.0 -9.961500000e-02 -1.572967000e+00
32500000.0 -8.930200000e-02 -1.589646000e+00
33400000.0 -7.759700000e-02 -1.604132000e+00
34300000.0 -6.433000000e-02 -1.619399000e+00
35200000.0 -5.113900000e-02 -1.633870000e+00
36100000.0 -3.711400000e-02 -1.649931000e+00
37000000.0 -2.389000000e-02 -1.664663000e+00
37900000.0 -7.202000000e-03 -1.681401000e+00
38800000.0 8.749000000e-03 -1.696289000e+00
39700000.0 2.531300000e-02 -1.712422000e+00
40600000.0 4.134100000e-02 -1.728373000e+00
41500000.0 6.105300000e-02 -1.742838000e+00
42400000.0 7.786600000e-02 -1.758391000e+00
43300000.0 9.816200000e-02 -1.773153000e+00
44200000.0 1.208210000e-01 -1.787583000e+00
45100000.0 1.410110000e-01 -1.803843000e+00
46000000.0 1.620420000e-01 -1.817997000e+00
46900000.0 1.861980000e-01 -1.832712000e+00
47800000.0 2.103390000e-01 -1.844717000e+00
48700000.0 2.351420000e-01 -1.856421000e+00
49600000.0 2.601170000e-01 -1.870292000e+00
50500000.0 2.870730000e-01 -1.883459000e+00
51400000.0 3.152260000e-01 -1.895540000e+00
52300000.0 3.443880000e-01 -1.904164000e+00
53200000.0 3.718670000e-01 -1.913922000e+00
54100000.0 4.029460000e-01 -1.923907000e+00
55000000.0 3.947380000e-01 -1.935448000e+00
55900000.0 5.046270000e-01 -1.933424000e+00
56800000.0 4.623430000e-01 -1.949686000e+00
57700000.0 5.703350000e-01 -1.940845000e+00
58600000.0 5.303330000e-01 -1.960778000e+00
59500000.0 6.415430000e-01 -1.945686000e+00
60400000.0 6.001600000e-01 -1.964771000e+00
61300000.0 7.135310000e-01 -1.943281000e+00
62200000.0 6.738040000e-01 -1.965243000e+00
63100000.0 7.871800000e-01 -1.937779000e+00
64000000.0 8.217670000e-01 -1.928702000e+00
64900000.0 8.237390000e-01 -1.936126000e+00
65800000.0 8.603600000e-01 -1.928876000e+00
66700000.0 8.971420000e-01 -1.917467000e+00
67600000.0 9.367410000e-01 -1.905921000e+00
68500000.0 9.732280000e-01 -1.891795000e+00
69400000.0 1.006939000e+00 -1.877859000e+00
70300000.0 1.044556000e+00 -1.858739000e+00
71200000.0 1.078996000e+00 -1.840382000e+00
72100000.0 1.109482000e+00 -1.818896000e+00
73000000.0 1.145319000e+00 -1.798091000e+00
73900000.0 1.175668000e+00 -1.772537000e+00
74800000.0 1.208713000e+00 -1.748192000e+00
75700000.0 1.238563000e+00 -1.721521000e+00
76600000.0 1.265447000e+00 -1.693395000e+00
77500000.0 1.295401000e+00 -1.665555000e+00
78400000.0 1.320386000e+00 -1.636020000e+00
79300000.0 1.342047000e+00 -1.605664000e+00
80200000.0 1.366137000e+00 -1.574468000e+00
81100000.0 1.386167000e+00 -1.541231000e+00
82000000.0 1.405176000e+00 -1.509628000e+00
82900000.0 1.422736000e+00 -1.475864000e+00
83800000.0 1.440426000e+00 -1.442673000e+00
84700000.0 1.454400000e+00 -1.407553000e+00
85600000.0 1.465906000e+00 -1.376465000e+00
86500000.0 1.477519000e+00 -1.340157000e+00
87400000.0 1.486618000e+00 -1.306667000e+00
88300000.0 1.495135000e+00 -1.275632000e+00
89200000.0 1.501739000e+00 -1.240011000e+00
90100000.0 1.506960000e+00 -1.207150000e+00
91000000.0 1.511209000e+00 -1.175070000e+00
91900000.0 1.513946000e+00 -1.144380000e+00
92800000.0 1.517537000e+00 -1.111721000e+00
93700000.0 1.516660000e+00 -1.082327000e+00
94600000.0 1.517778000e+00 -1.050874000e+00
95500000.0 1.514048000e+00 -1.019439000e+00
96400000.0 1.512538000e+00 -9.924040000e-01
97300000.0 1.510253000e+00 -9.633670000e-01
98200000.0 1.507773000e+00 -9.347720000e-01
99100000.0 1.500871000e+00 -9.082610000e-01
100000000.0 1.494942000e+00 -8.821440000e-01
109000000.0 1.414885000e+00 -6.582210000e-01
118000000.0 1.309962000e+00 -4.969260000e-01
127000000.0 1.203961000e+00 -3.829870000e-01
136000000.0 1.102310000e+00 -3.086500000e-01
145000000.0 1.012106000e+00 -2.524710000e-01
154000000.0 9.630230000e-01 -2.335710000e-01
163000000.0 9.600950000e-01 -2.463220000e-01
172000000.0 9.570580000e-01 -2.608700000e-01
181000000.0 9.541120000e-01 -2.740050000e-01
190000000.0 9.490010000e-01 -2.875030000e-01
199000000.0 9.460210000e-01 -2.984900000e-01
208000000.0 9.405830000e-01 -3.107290000e-01
217000000.0 9.366590000e-01 -3.241170000e-01
226000000.0 9.314260000e-01 -3.363490000e-01
235000000.0 9.263820000e-01 -3.475120000e-01
244000000.0 9.213620000e-01 -3.601600000e-01
253000000.0 9.165020000e-01 -3.708550000e-01
262000000.0 9.114040000e-01 -3.816630000e-01
271000000.0 9.038630000e-01 -3.944500000e-01
280000000.0 8.988040000e-01 -4.062100000e-01
289000000.0 8.926120000e-01 -4.174170000e-01
298000000.0 8.862180000e-01 -4.292960000e-01
307000000.0 8.774100000e-01 -4.403680000e-01
316000000.0 8.742000000e-01 -4.517640000e-01
325000000.0 8.702010000e-01 -4.622660000e-01
334000000.0 8.660910000e-01 -4.743230000e-01
343000000.0 8.564260000e-01 -4.841460000e-01
352000000.0 8.529270000e-01 -4.947330000e-01
361000000.0 8.564680000e-01 -4.897700000e-01
370000000.0 8.509000000e-01 -5.006720000e-01
379000000.0 8.327930000e-01 -5.257670000e-01
388000000.0 8.366770000e-01 -5.194260000e-01
397000000.0 8.186550000e-01 -5.436930000e-01
406000000.0 8.082760000e-01 -5.556870000e-01
415000000.0 8.030370000e-01 -5.650360000e-01
424000000.0 7.920880000e-01 -5.754370000e-01
433000000.0 7.838470000e-01 -5.844760000e-01
442000000.0 7.733290000e-01 -5.934780000e-01
451000000.0 7.681160000e-01 -6.018890000e-01
460000000.0 7.606340000e-01 -6.119810000e-01
469000000.0 7.545070000e-01 -6.223560000e-01
478000000.0 7.489870000e-01 -6.312010000e-01
487000000.0 7.424040000e-01 -6.425140000e-01
496000000.0 7.360510000e-01 -6.523850000e-01
505000000.0 7.306420000e-01 -6.601750000e-01
514000000.0 7.235770000e-01 -6.686300000e-01
523000000.0 7.143930000e-01 -6.795610000e-01
532000000.0 7.060190000e-01 -6.884360000e-01
541000000.0 6.949390000e-01 -6.961890000e-01
550000000.0 6.917560000e-01 -7.015550000e-01
559000000.0 6.806910000e-01 -7.141040000e-01
568000000.0 6.709250000e-01 -7.205560000e-01
577000000.0 6.577570000e-01 -7.279710000e-01
586000000.0 6.484100000e-01 -7.353710000e-01
595000000.0 6.406040000e-01 -7.404890000e-01
604000000.0 6.264740000e-01 -7.477900000e-01
613000000.0 6.163870000e-01 -7.608180000e-01
622000000.0 6.107320000e-01 -7.687300000e-01
631000000.0 5.999810000e-01 -7.792910000e-01
640000000.0 5.957560000e-01 -7.910370000e-01
649000000.0 5.873540000e-01 -7.974230000e-01
658000000.0 5.780540000e-01 -8.037050000e-01
667000000.0 5.630440000e-01 -8.134900000e-01
676000000.0 5.555970000e-01 -8.170930000e-01
685000000.0 5.421430000e-01 -8.278930000e-01
694000000.0 5.343470000e-01 -8.313150000e-01
703000000.0 5.270530000e-01 -8.383390000e-01
712000000.0 5.187450000e-01 -8.389750000e-01
721000000.0 4.995050000e-01 -8.457590000e-01
730000000.0 4.905430000e-01 -8.454800000e-01
739000000.0 4.798090000e-01 -8.498620000e-01
748000000.0 4.665810000e-01 -8.475100000e-01
757000000.0 4.517220000e-01 -8.559450000e-01
766000000.0 4.419190000e-01 -8.658590000e-01
775000000.0 4.328510000e-01 -8.742220000e-01
784000000.0 4.183730000e-01 -8.820080000e-01
793000000.0 4.107960000e-01 -8.851970000e-01
802000000.0 3.948550000e-01 -8.936360000e-01
811000000.0 3.827870000e-01 -8.991570000e-01
820000000.0 3.741920000e-01 -8.999030000e-01
829000000.0 3.661280000e-01 -9.041590000e-01
838000000.0 3.535650000e-01 -9.101330000e-01
847000000.0 3.431850000e-01 -9.131470000e-01
856000000.0 3.296440000e-01 -9.138120000e-01
865000000.0 3.247640000e-01 -9.180170000e-01
874000000.0 3.175720000e-01 -9.185520000e-01
883000000.0 3.037460000e-01 -9.203860000e-01
892000000.0 2.984530000e-01 -9.200390000e-01
901000000.0 2.892490000e-01 -9.213780000e-01
910000000.0 2.779370000e-01 -9.243590000e-01
919000000.0 2.669390000e-01 -9.261840000e-01
928000000.0 2.546520000e-01 -9.289170000e-01
937000000.0 2.437400000e-01 -9.306790000e-01
946000000.0 2.284440000e-01 -9.330600000e-01
955000000.0 2.209580000e-01 -9.348000000e-01
964000000.0 2.138180000e-01 -9.362480000e-01
973000000.0 2.064840000e-01 -9.383650000e-01
982000000.0 1.927350000e-01 -9.409270000e-01
991000000.0 1.801430000e-01 -9.406710000e-01
1000000000.0 1.745570000e-01 -9.431010000e-01
1004500000.0 1.729670000e-01 -9.433900000e-01
1009000000.0 1.626690000e-01 -9.461870000e-01
1013500000.0 1.587020000e-01 -9.456100000e-01
1018000000.0 1.553360000e-01 -9.463240000e-01
1022500000.0 1.520850000e-01 -9.483210000e-01
1027000000.0 1.447040000e-01 -9.498320000e-01
1031500000.0 1.380930000e-01 -9.517360000e-01
1036000000.0 1.379960000e-01 -9.506980000e-01
1040500000.0 1.295370000e-01 -9.517820000e-01
1045000000.0 1.274020000e-01 -9.520360000e-01
1049500000.0 1.239000000e-01 -9.528870000e-01
1054000000.0 1.202430000e-01 -9.520660000e-01
1058500000.0 1.105450000e-01 -9.522930000e-01
1063000000.0 1.057420000e-01 -9.538610000e-01
1067500000.0 1.047500000e-01 -9.538870000e-01
1072000000.0 9.881100000e-02 -9.570370000e-01
1076500000.0 9.231700000e-02 -9.556740000e-01
1081000000.0 8.830400000e-02 -9.569010000e-01
1085500000.0 8.209000000e-02 -9.557330000e-01
1090000000.0 8.374700000e-02 -9.564970000e-01
1094500000.0 6.973600000e-02 -9.584620000e-01
1099000000.0 7.261700000e-02 -9.579400000e-01
1103500000.0 6.250100000e-02 -9.611980000e-01
1108000000.0 6.044500000e-02 -9.601930000e-01
1112500000.0 5.180700000e-02 -9.597160000e-01
1117000000.0 5.036500000e-02 -9.614220000e-01
1121500000.0 4.356600000e-02 -9.609510000e-01
1126000000.0 3.908800000e-02 -9.625050000e-01
1130500000.0 2.399400000e-02 -9.639970000e-01
1135000000.0 2.446800000e-02 -9.636450000e-01
1139500000.0 2.222300000e-02 -9.625380000e-01
1144000000.0 1.735100000e-02 -9.635610000e-01
1148500000.0 1.334300000e-02 -9.632820000e-01
1153000000.0 7.981000000e-03 -9.589180000e-01
1157500000.0 1.206000000e-03 -9.608660000e-01
1162000000.0 -6.979000000e-03 -9.615540000e-01
1166500000.0 -8.453000000e-03 -9.586620000e-01
1171000000.0 -1.732600000e-02 -9.599510000e-01
1175500000.0 -2.309000000e-02 -9.587780000e-01
1180000000.0 -2.536400000e-02 -9.574940000e-01
1184500000.0 -2.843900000e-02 -9.593420000e-01
1189000000.0 -3.517500000e-02 -9.591740000e-01
1193500000.0 -4.013100000e-02 -9.573430000e-01
1198000000.0 -4.837800000e-02 -9.576740000e-01
1202500000.0 -4.879500000e-02 -9.583390000e-01
1207000000.0 -5.480000000e-02 -9.590310000e-01
1211500000.0 -6.153600000e-02 -9.612480000e-01
1216000000.0 -6.471800000e-02 -9.597940000e-01
1220500000.0 -6.878600000e-02 -9.576670000e-01
1225000000.0 -7.511800000e-02 -9.583390000e-01
1229500000.0 -7.929700000e-02 -9.577190000e-01
1234000000.0 -7.798700000e-02 -9.592610000e-01
1238500000.0 -8.413800000e-02 -9.616440000e-01
1243000000.0 -8.839400000e-02 -9.598580000e-01
1247500000.0 -9.570000000e-02 -9.578810000e-01
1252000000.0 -9.885600000e-02 -9.598670000e-01
1256500000.0 -1.065390000e-01 -9.579480000e-01
1261000000.0 -1.094680000e-01 -9.625640000e-01
1265500000.0 -1.104770000e-01 -9.610060000e-01
1270000000.0 -1.170590000e-01 -9.555480000e-01
1274500000.0 -1.250470000e-01 -9.565780000e-01
1279000000.0 -1.264380000e-01 -9.495740000e-01
1283500000.0 -1.287630000e-01 -9.517070000e-01
1288000000.0 -1.326520000e-01 -9.557760000e-01
1292500000.0 -1.441770000e-01 -9.510510000e-01
1297000000.0 -1.499330000e-01 -9.527190000e-01
1301500000.0 -1.565010000e-01 -9.478910000e-01
1306000000.0 -1.531490000e-01 -9.532680000e-01
1310500000.0 -1.531200000e-01 -9.585800000e-01
1315000000.0 -1.687240000e-01 -9.443400000e-01
1319500000.0 -1.785830000e-01 -9.482040000e-01
1324000000.0 -1.750100000e-01 -9.489170000e-01
1328500000.0 -1.794420000e-01 -9.426560000e-01
1333000000.0 -1.797460000e-01 -9.444330000e-01
1337500000.0 -1.863720000e-01 -9.440780000e-01
1342000000.0 -1.956390000e-01 -9.435920000e-01
1346500000.0 -2.050990000e-01 -9.341070000e-01
1351000000.0 -2.135430000e-01 -9.408020000e-01
1355500000.0 -2.119350000e-01 -9.372140000e-01
1360000000.0 -2.136420000e-01 -9.407640000e-01
1364500000.0 -2.161010000e-01 -9.396550000e-01
1369000000.0 -2.191510000e-01 -9.460780000e-01
1373500000.0 -2.225070000e-01 -9.408720000e-01
1378000000.0 -2.254420000e-01 -9.399430000e-01
1382500000.0 -2.345930000e-01 -9.374800000e-01
1387000000.0 -2.377730000e-01 -9.382850000e-01
1391500000.0 -2.473230000e-01 -9.412410000e-01
1396000000.0 -2.502210000e-01 -9.439650000e-01
1400500000.0 -2.539630000e-01 -9.363680000e-01
1405000000.0 -2.578510000e-01 -9.370150000e-01
1409500000.0 -2.610510000e-01 -9.432480000e-01
1414000000.0 -2.713960000e-01 -9.401910000e-01
1418500000.0 -2.699130000e-01 -9.390820000e-01
1423000000.0 -2.715480000e-01 -9.365580000e-01
1427500000.0 -2.799550000e-01 -9.321090000e-01
1432000000.0 -2.789340000e-01 -9.412960000e-01
1436500000.0 -2.824330000e-01 -9.347950000e-01
1441000000.0 -2.935890000e-01 -9.294850000e-01
1445500000.0 -2.939780000e-01 -9.355460000e-01
1450000000.0 -3.017880000e-01 -9.293940000e-01
