! piloto_corto / aire / r01
# HZ S RI R 50
50000.0 1.005870000e+00 -7.344500000e-02
59500.0 1.005564000e+00 -6.197500000e-02
69000.0 1.003387000e+00 -4.786700000e-02
78500.0 1.002515000e+00 -3.507200000e-02
88000.0 1.000073000e+00 -2.327600000e-02
97500.0 9.989940000e-01 -1.178400000e-02
107000.0 1.000391000e+00 1.119000000e-03
116500.0 9.997090000e-01 1.331300000e-02
126000.0 1.002525000e+00 2.603000000e-02
135500.0 9.996510000e-01 3.726400000e-02
145000.0 9.994940000e-01 4.867500000e-02
154500.0 1.000625000e+00 6.036200000e-02
164000.0 1.000219000e+00 7.127800000e-02
173500.0 1.000184000e+00 8.305300000e-02
183000.0 1.001105000e+00 9.466200000e-02
192500.0 1.000864000e+00 1.061230000e-01
202000.0 1.001677000e+00 1.173320000e-01
211500.0 1.001700000e+00 1.282930000e-01
221000.0 1.001068000e+00 1.395320000e-01
230500.0 1.001986000e+00 1.515450000e-01
240000.0 1.001727000e+00 1.620870000e-01
249500.0 1.002422000e+00 1.725750000e-01
259000.0 1.002586000e+00 1.837110000e-01
268500.0 1.002329000e+00 1.944880000e-01
278000.0 1.003220000e+00 2.042060000e-01
287500.0 1.002532000e+00 2.157050000e-01
297000.0 1.003165000e+00 2.267150000e-01
306500.0 1.003137000e+00 2.371000000e-01
316000.0 1.003272000e+00 2.474730000e-01
325500.0 1.002707000e+00 2.579710000e-01
335000.0 1.003129000e+00 2.686630000e-01
344500.0 1.003175000e+00 2.783470000e-01
354000.0 1.003026000e+00 2.886280000e-01
363500.0 1.003505000e+00 2.997080000e-01
373000.0 1.003615000e+00 3.100530000e-01
382500.0 1.003628000e+00 3.204370000e-01
392000.0 1.003439000e+00 3.289420000e-01
401500.0 1.004064000e+00 3.392080000e-01
411000.0 1.003803000e+00 3.500590000e-01
420500.0 1.004558000e+00 3.593350000e-01
430000.0 1.003280000e+00 3.695410000e-01
439500.0 1.004031000e+00 3.795080000e-01
449000.0 1.004756000e+00 3.891280000e-01
458500.0 1.003865000e+00 3.988870000e-01
468000.0 1.004921000e+00 4.095990000e-01
477500.0 1.003841000e+00 4.188680000e-01
487000.0 1.005194000e+00 4.284870000e-01
496500.0 1.005308000e+00 4.382280000e-01
506000.0 1.005177000e+00 4.485930000e-01
515500.0 1.004422000e+00 4.581190000e-01
525000.0 1.005736000e+00 4.672840000e-01
534500.0 1.005825000e+00 4.760360000e-01
544000.0 1.005643000e+00 4.857360000e-01
553500.0 1.006705000e+00 4.951700000e-01
563000.0 1.005999000e+00 5.051760000e-01
572500.0 1.006985000e+00 5.147180000e-01
582000.0 1.007443000e+00 5.254630000e-01
591500.0 1.007485000e+00 5.336360000e-01
601000.0 1.007844000e+00 5.430510000e-01
610500.0 1.007410000e+00 5.519130000e-01
620000.0 1.007992000e+00 5.612370000e-01
629500.0 1.008972000e+00 5.711300000e-01
639000.0 1.008493000e+00 5.796760000e-01
648500.0 1.009774000e+00 5.878660000e-01
658000.0 1.009238000e+00 5.977620000e-01
667500.0 1.010764000e+00 6.070250000e-01
677000.0 1.009956000e+00 6.165270000e-01
686500.0 1.011446000e+00 6.252230000e-01
696000.0 1.012763000e+00 6.341770000e-01
705500.0 1.013038000e+00 6.438590000e-01
715000.0 1.012871000e+00 6.516160000e-01
724500.0 1.014122000e+00 6.616340000e-01
734000.0 1.015067000e+00 6.712890000e-01
743500.0 1.014668000e+00 6.797820000e-01
753000.0 1.016266000e+00 6.879850000e-01
762500.0 1.015802000e+00 6.971640000e-01
772000.0 1.018881000e+00 7.070360000e-01
781500.0 1.019032000e+00 7.159230000e-01
791000.0 1.020734000e+00 7.235900000e-01
800500.0 1.021416000e+00 7.330130000e-01
810000.0 1.021789000e+00 7.406220000e-01
819500.0 1.021417000e+00 7.498600000e-01
829000.0 1.023011000e+00 7.591660000e-01
838500.0 1.024193000e+00 7.682080000e-01
848000.0 1.026156000e+00 7.765740000e-01
857500.0 1.027818000e+00 7.847730000e-01
867000.0 1.028517000e+00 7.930850000e-01
876500.0 1.031214000e+00 8.025570000e-01
886000.0 1.032331000e+00 8.118500000e-01
895500.0 1.032314000e+00 8.199930000e-01
905000.0 1.034001000e+00 8.282960000e-01
914500.0 1.036069000e+00 8.373310000e-01
924000.0 1.036590000e+00 8.456310000e-01
933500.0 1.038931000e+00 8.542100000e-01
943000.0 1.039503000e+00 8.619270000e-01
952500.0 1.043782000e+00 8.706260000e-01
962000.0 1.045753000e+00 8.780530000e-01
971500.0 1.046195000e+00 8.875940000e-01
981000.0 1.049240000e+00 8.960680000e-01
990500.0 1.051327000e+00 9.046080000e-01
1000000.0 1.051961000e+00 9.114310000e-01
1090000.0 1.073456000e+00 9.879850000e-01
1180000.0 1.104875000e+00 1.063681000e+00
1270000.0 1.143935000e+00 1.131925000e+00
1360000.0 1.192970000e+00 1.197263000e+00
1450000.0 1.249761000e+00 1.251210000e+00
1540000.0 1.315590000e+00 1.298760000e+00
1630000.0 1.392185000e+00 1.331182000e+00
1720000.0 1.473410000e+00 1.346515000e+00
1810000.0 1.557006000e+00 1.348852000e+00
1900000.0 1.644011000e+00 1.330589000e+00
1990000.0 1.725545000e+00 1.290353000e+00
2080000.0 1.795760000e+00 1.234011000e+00
2170000.0 1.857788000e+00 1.165243000e+00
2260000.0 1.901094000e+00 1.088820000e+00
2350000.0 1.930409000e+00 9.994680000e-01
2440000.0 1.941109000e+00 9.151750000e-01
2530000.0 1.941533000e+00 8.302430000e-01
2620000.0 1.926825000e+00 7.462600000e-01
2710000.0 1.902759000e+00 6.734420000e-01
2800000.0 1.873086000e+00 6.091850000e-01
2890000.0 1.843035000e+00 5.455840000e-01
2980000.0 1.807980000e+00 4.943800000e-01
3070000.0 1.770053000e+00 4.470210000e-01
3160000.0 1.731612000e+00 4.055130000e-01
3250000.0 1.695481000e+00 3.678950000e-01
3340000.0 1.662224000e+00 3.348070000e-01
3430000.0 1.628298000e+00 3.066010000e-01
3520000.0 1.594594000e+00 2.797060000e-01
3610000.0 1.563463000e+00 2.556540000e-01
3700000.0 1.536216000e+00 2.341540000e-01
3790000.0 1.508708000e+00 2.125670000e-01
3880000.0 1.484880000e+00 1.931580000e-01
3970000.0 1.462158000e+00 1.758080000e-01
4060000.0 1.440970000e+00 1.587240000e-01
4150000.0 1.419726000e+00 1.424150000e-01
4240000.0 1.402490000e+00 1.255530000e-01
4330000.0 1.385691000e+00 1.107960000e-01
4420000.0 1.369953000e+00 9.763400000e-02
4510000.0 1.356537000e+00 8.220000000e-02
4600000.0 1.343217000e+00 6.766000000e-02
4690000.0 1.332771000e+00 5.507700000e-02
4780000.0 1.320782000e+00 4.019200000e-02
4870000.0 1.312756000e+00 2.682100000e-02
4960000.0 1.303581000e+00 1.483500000e-02
5050000.0 1.290979000e+00 2.304000000e-02
5140000.0 1.282960000e+00 -1.080500000e-02
5230000.0 1.276825000e+00 -2.283000000e-02
5320000.0 1.273482000e+00 -3.527500000e-02
5410000.0 1.267019000e+00 -4.828500000e-02
5500000.0 1.263963000e+00 -5.890200000e-02
5590000.0 1.259575000e+00 -7.138800000e-02
5680000.0 1.255198000e+00 -8.291300000e-02
5770000.0 1.252898000e+00 -9.395100000e-02
5860000.0 1.248834000e+00 -1.044780000e-01
5950000.0 1.245778000e+00 -1.150600000e-01
6040000.0 1.244155000e+00 -1.242570000e-01
6130000.0 1.239150000e+00 -1.357590000e-01
6220000.0 1.236543000e+00 -1.432350000e-01
6310000.0 1.233256000e+00 -1.530540000e-01
6400000.0 1.232753000e+00 -1.604900000e-01
6490000.0 1.231158000e+00 -1.689220000e-01
6580000.0 1.227211000e+00 -1.762920000e-01
6670000.0 1.226630000e+00 -1.832640000e-01
6760000.0 1.225181000e+00 -1.892860000e-01
6850000.0 1.224478000e+00 -1.948850000e-01
6940000.0 1.222871000e+00 -2.004530000e-01
7030000.0 1.222724000e+00 -2.049900000e-01
7120000.0 1.220765000e+00 -2.067510000e-01
7210000.0 1.220776000e+00 -2.097310000e-01
7300000.0 1.220342000e+00 -2.123520000e-01
7390000.0 1.220859000e+00 -2.117410000e-01
7480000.0 1.220525000e+00 -2.131900000e-01
7570000.0 -2.639650000e-01 -1.259348000e+00
7660000.0 -2.623680000e-01 -1.259400000e+00
7750000.0 -2.618130000e-01 -1.260035000e+00
7840000.0 -2.610600000e-01 -1.259703000e+00
7930000.0 -2.617910000e-01 -1.259075000e+00
8020000.0 -2.603510000e-01 -1.261414000e+00
8110000.0 -2.600690000e-01 -1.260971000e+00
8200000.0 -2.595010000e-01 -1.261757000e+00
8290000.0 -2.595840000e-01 -1.261154000e+00
8380000.0 -2.580870000e-01 -1.263290000e+00
8470000.0 -2.570880000e-01 -1.262223000e+00
8560000.0 -2.575420000e-01 -1.263798000e+00
8650000.0 -2.561120000e-01 -1.264216000e+00
8740000.0 -2.569200000e-01 -1.264494000e+00
8830000.0 -2.557780000e-01 -1.264497000e+00
8920000.0 -2.555710000e-01 -1.264312000e+00
9010000.0 -2.542200000e-01 -1.266789000e+00
9100000.0 -2.541170000e-01 -1.266828000e+00
9190000.0 -2.537800000e-01 -1.267372000e+00
9280000.0 -2.525600000e-01 -1.268548000e+00
9370000.0 -2.524190000e-01 -1.268872000e+00
9460000.0 -2.519780000e-01 -1.268748000e+00
9550000.0 -2.521900000e-01 -1.271088000e+00
9640000.0 -2.507290000e-01 -1.269554000e+00
9730000.0 -2.505790000e-01 -1.272367000e+00
9820000.0 -2.506330000e-01 -1.272460000e+00
9910000.0 -2.504540000e-01 -1.274248000e+00
10000000.0 -2.498710000e-01 -1.274090000e+00
10900000.0 -2.464690000e-01 -1.281962000e+00
11800000.0 -2.409170000e-01 -1.292051000e+00
12700000.0 -2.385850000e-01 -1.300950000e+00
13600000.0 -2.331240000e-01 -1.311236000e+00
14500000.0 -2.300000000e-01 -1.322894000e+00
15400000.0 -2.265270000e-01 -1.333653000e+00
16300000.0 -2.226450000e-01 -1.344600000e+00
17200000.0 -2.178170000e-01 -1.357571000e+00
18100000.0 -2.138940000e-01 -1.367693000e+00
19000000.0 -2.080440000e-01 -1.381115000e+00
19900000.0 -2.035780000e-01 -1.393195000e+00
20800000.0 -1.977760000e-01 -1.405787000e+00
21700000.0 -1.917350000e-01 -1.418959000e+00
22600000.0 -1.857480000e-01 -1.432361000e+00
23500000.0 -1.784930000e-01 -1.445286000e+00
24400000.0 -1.729560000e-01 -1.458465000e+00
25300000.0 -1.645220000e-01 -1.472878000e+00
26200000.0 -1.557270000e-01 -1.487097000e+00
27100000.0 -1.481440000e-01 -1.500756000e+00
28000000.0 -1.399670000e-01 -1.515136000e+00
28900000.0 -1.315380000e-01 -1.531546000e+00
29800000.0 -1.208770000e-01 -1.544307000e+00
30700000.0 -1.115500000e-01 -1.559231000e+00
31600000.0 -9.936600000e-02 -1.574715000e+00
32500000.0 -8.954200000e-02 -1.590211000e+00
33400000.0 -7.668300000e-02 -1.605402000e+00
34300000.0 -6.489400000e-02 -1.619259000e+00
35200000.0 -5.132700000e-02 -1.636655000e+00
36100000.0 -3.871600000e-02 -1.650830000e+00
37000000.0 -2.346900000e-02 -1.666717000e+00
37900000.0 -7.542000000e-03 -1.682804000e+00
38800000.0 7.420000000e-03 -1.699082000e+00
39700000.0 2.345900000e-02 -1.713733000e+00
40600000.0 4.066300000e-02 -1.728818000e+00
41500000.0 6.051500000e-02 -1.744894000e+00
42400000.0 7.871900000e-02 -1.758329000e+00
43300000.0 9.949100000e-02 -1.774794000e+00
44200000.0 1.177440000e-01 -1.789798000e+00
45100000.0 1.398230000e-01 -1.804556000e+00
46000000.0 1.605870000e-01 -1.818794000e+00
46900000.0 1.833800000e-01 -1.831796000e+00
47800000.0 2.092810000e-01 -1.845912000e+00
48700000.0 2.358570000e-01 -1.859365000e+00
49600000.0 2.612300000e-01 -1.871937000e+00
50500000.0 2.871130000e-01 -1.882756000e+00
51400000.0 3.148170000e-01 -1.895396000e+00
52300000.0 3.435140000e-01 -1.904836000e+00
53200000.0 3.725960000e-01 -1.914624000e+00
54100000.0 4.044440000e-01 -1.924250000e+00
55000000.0 4.359420000e-01 -1.933473000e+00
55900000.0 4.660060000e-01 -1.941414000e+00
56800000.0 4.995720000e-01 -1.944788000e+00
57700000.0 5.359440000e-01 -1.949454000e+00
58600000.0 5.693200000e-01 -1.951525000e+00
59500000.0 6.011040000e-01 -1.956331000e+00
60400000.0 6.391870000e-01 -1.956194000e+00
61300000.0 6.765620000e-01 -1.956669000e+00
62200000.0 7.127370000e-01 -1.954016000e+00
63100000.0 7.477240000e-01 -1.949562000e+00
64000000.0 7.868160000e-01 -1.946445000e+00
64900000.0 8.228540000e-01 -1.938668000e+00
65800000.0 8.603580000e-01 -1.931028000e+00
66700000.0 8.973160000e-01 -1.917720000e+00
67600000.0 9.358830000e-01 -1.904841000e+00
68500000.0 9.729820000e-01 -1.892853000e+00
69400000.0 1.008777000e+00 -1.874691000e+00
70300000.0 1.046571000e+00 -1.857826000e+00
71200000.0 1.077850000e+00 -1.840845000e+00
72100000.0 1.115463000e+00 -1.819029000e+00
73000000.0 1.145220000e+00 -1.797463000e+00
73900000.0 1.177071000e+00 -1.774648000e+00
74800000.0 1.209268000e+00 -1.748331000e+00
75700000.0 1.238081000e+00 -1.723337000e+00
76600000.0 1.267638000e+00 -1.698004000e+00
77500000.0 1.296217000e+00 -1.667591000e+00
78400000.0 1.320560000e+00 -1.637548000e+00
79300000.0 1.342281000e+00 -1.606557000e+00
80200000.0 1.366724000e+00 -1.572938000e+00
81100000.0 1.387071000e+00 -1.542175000e+00
82000000.0 1.435025000e+00 -1.483659000e+00
82900000.0 1.423785000e+00 -1.476007000e+00
83800000.0 1.439773000e+00 -1.442782000e+00
84700000.0 1.452390000e+00 -1.407918000e+00
85600000.0 1.466798000e+00 -1.376154000e+00
86500000.0 1.479732000e+00 -1.340227000e+00
87400000.0 1.486838000e+00 -1.309347000e+00
88300000.0 1.496911000e+00 -1.275412000e+00
89200000.0 1.503819000e+00 -1.237995000e+00
90100000.0 1.506959000e+00 -1.206681000e+00
91000000.0 1.512011000e+00 -1.174532000e+00
91900000.0 1.515935000e+00 -1.141535000e+00
92800000.0 1.515583000e+00 -1.111613000e+00
93700000.0 1.518056000e+00 -1.080919000e+00
94600000.0 1.516121000e+00 -1.049788000e+00
95500000.0 1.515721000e+00 -1.021856000e+00
96400000.0 1.513498000e+00 -9.917690000e-01
97300000.0 1.509996000e+00 -9.627760000e-01
98200000.0 1.507616000e+00 -9.366380000e-01
99100000.0 1.502361000e+00 -9.073060000e-01
100000000.0 1.493409000e+00 -8.819750000e-01
109000000.0 1.415802000e+00 -6.596980000e-01
118000000.0 1.310516000e+00 -4.968910000e-01
127000000.0 1.203801000e+00 -3.817880000e-01
136000000.0 1.101987000e+00 -3.083950000e-01
145000000.0 1.011609000e+00 -2.524410000e-01
154000000.0 9.640140000e-01 -2.346610000e-01
163000000.0 9.610200000e-01 -2.458780000e-01
172000000.0 9.576210000e-01 -2.593800000e-01
181000000.0 9.538650000e-01 -2.725120000e-01
190000000.0 9.502510000e-01 -2.847310000e-01
199000000.0 9.457850000e-01 -2.979390000e-01
208000000.0 9.426890000e-01 -3.103720000e-01
217000000.0 9.372240000e-01 -3.228330000e-01
226000000.0 9.341200000e-01 -3.349200000e-01
235000000.0 9.277360000e-01 -3.466500000e-01
244000000.0 9.231840000e-01 -3.588140000e-01
253000000.0 9.177690000e-01 -3.712980000e-01
262000000.0 9.114300000e-01 -3.824150000e-01
271000000.0 9.045630000e-01 -3.930250000e-01
280000000.0 8.984910000e-01 -4.067960000e-01
289000000.0 8.920060000e-01 -4.163300000e-01
298000000.0 8.953930000e-01 -4.115850000e-01
307000000.0 8.817820000e-01 -4.396570000e-01
316000000.0 8.673970000e-01 -4.653040000e-01
325000000.0 8.712080000e-01 -4.630420000e-01
334000000.0 8.739490000e-01 -4.563780000e-01
343000000.0 8.588460000e-01 -4.815220000e-01
352000000.0 8.410030000e-01 -5.055190000e-01
361000000.0 8.591330000e-01 -4.904870000e-01
370000000.0 8.286080000e-01 -5.295220000e-01
379000000.0 8.465390000e-01 -5.091180000e-01
388000000.0 8.268200000e-01 -5.335620000e-01
397000000.0 7.757440000e-01 -5.743720000e-01
406000000.0 7.990850000e-01 -5.666550000e-01
415000000.0 8.282130000e-01 -5.393320000e-01
424000000.0 7.950520000e-01 -5.727860000e-01
433000000.0 7.868320000e-01 -5.829740000e-01
442000000.0 7.770980000e-01 -5.906550000e-01
451000000.0 7.700100000e-01 -6.016190000e-01
460000000.0 7.627380000e-01 -6.126630000e-01
469000000.0 7.570110000e-01 -6.214210000e-01
478000000.0 7.505350000e-01 -6.318490000e-01
487000000.0 7.462000000e-01 -6.402870000e-01
496000000.0 7.393030000e-01 -6.497810000e-01
505000000.0 7.317410000e-01 -6.577190000e-01
514000000.0 7.233260000e-01 -6.676960000e-01
523000000.0 7.144210000e-01 -6.769210000e-01
532000000.0 7.114920000e-01 -6.849410000e-01
541000000.0 6.997810000e-01 -6.942090000e-01
550000000.0 6.912730000e-01 -7.007840000e-01
559000000.0 6.791690000e-01 -7.109620000e-01
568000000.0 6.720680000e-01 -7.197350000e-01
577000000.0 6.618330000e-01 -7.299150000e-01
586000000.0 6.498620000e-01 -7.341880000e-01
595000000.0 6.398790000e-01 -7.418520000e-01
604000000.0 6.282230000e-01 -7.503810000e-01
613000000.0 6.225500000e-01 -7.600720000e-01
622000000.0 6.150730000e-01 -7.682920000e-01
631000000.0 6.074500000e-01 -7.788570000e-01
640000000.0 5.986540000e-01 -7.891180000e-01
649000000.0 5.894960000e-01 -7.957680000e-01
658000000.0 5.800140000e-01 -8.060910000e-01
667000000.0 5.669830000e-01 -8.127870000e-01
676000000.0 5.589350000e-01 -8.209550000e-01
685000000.0 5.499000000e-01 -8.233610000e-01
694000000.0 5.433800000e-01 -8.295360000e-01
703000000.0 5.596910000e-01 -8.252330000e-01
712000000.0 5.141550000e-01 -8.419810000e-01
721000000.0 5.052260000e-01 -8.412680000e-01
730000000.0 4.940650000e-01 -8.487830000e-01
739000000.0 4.826460000e-01 -8.488620000e-01
748000000.0 4.671640000e-01 -8.500880000e-01
757000000.0 4.563730000e-01 -8.565020000e-01
766000000.0 4.449180000e-01 -8.653530000e-01
775000000.0 4.320810000e-01 -8.741970000e-01
784000000.0 4.207490000e-01 -8.814540000e-01
793000000.0 4.074400000e-01 -8.878160000e-01
802000000.0 3.988450000e-01 -8.928570000e-01
811000000.0 3.876130000e-01 -8.987620000e-01
820000000.0 3.768700000e-01 -9.028480000e-01
829000000.0 3.647090000e-01 -9.079220000e-01
838000000.0 3.538670000e-01 -9.113730000e-01
847000000.0 3.476100000e-01 -9.120650000e-01
856000000.0 3.365330000e-01 -9.152000000e-01
865000000.0 3.276230000e-01 -9.177840000e-01
874000000.0 3.207480000e-01 -9.168740000e-01
883000000.0 3.095360000e-01 -9.194610000e-01
892000000.0 3.015710000e-01 -9.206290000e-01
901000000.0 2.942280000e-01 -9.204480000e-01
910000000.0 2.810010000e-01 -9.259340000e-01
919000000.0 2.680240000e-01 -9.264750000e-01
928000000.0 2.619110000e-01 -9.276250000e-01
937000000.0 2.433970000e-01 -9.321710000e-01
946000000.0 2.369880000e-01 -9.344910000e-01
955000000.0 2.218400000e-01 -9.365120000e-01
964000000.0 2.157870000e-01 -9.373790000e-01
973000000.0 2.046580000e-01 -9.395740000e-01
982000000.0 1.890930000e-01 -9.410980000e-01
991000000.0 1.848930000e-01 -9.438100000e-01
1000000000.0 1.709870000e-01 -9.451440000e-01
1004500000.0 1.719860000e-01 -9.452900000e-01
1009000000.0 1.663050000e-01 -9.449030000e-01
1013500000.0 1.612840000e-01 -9.467100000e-01
1018000000.0 1.547170000e-01 -9.485380000e-01
1022500000.0 1.513310000e-01 -9.495890000e-01
1027000000.0 1.461600000e-01 -9.503790000e-01
1031500000.0 1.428880000e-01 -9.500860000e-01
1036000000.0 1.374550000e-01 -9.517920000e-01
1040500000.0 1.343590000e-01 -9.540960000e-01
1045000000.0 1.245230000e-01 -9.523490000e-01
1049500000.0 1.240220000e-01 -9.534000000e-01
1054000000.0 1.193470000e-01 -9.547540000e-01
1058500000.0 1.143460000e-01 -9.546710000e-01
1063000000.0 1.126750000e-01 -9.564700000e-01
1067500000.0 1.004950000e-01 -9.571880000e-01
1072000000.0 9.769900000e-02 -9.569110000e-01
1076500000.0 9.384800000e-02 -9.563970000e-01
1081000000.0 9.128500000e-02 -9.581800000e-01
1085500000.0 8.315800000e-02 -9.577270000e-01
1090000000.0 8.388300000e-02 -9.585010000e-01
1094500000.0 7.461500000e-02 -9.601830000e-01
1099000000.0 6.942800000e-02 -9.598780000e-01
1103500000.0 6.263800000e-02 -9.626670000e-01
1108000000.0 5.930000000e-02 -9.604810000e-01
1112500000.0 5.486200000e-02 -9.594000000e-01
1117000000.0 5.455300000e-02 -9.598660000e-01
1121500000.0 4.330800000e-02 -9.617070000e-01
1126000000.0 4.220300000e-02 -9.598190000e-01
1130500000.0 6.409800000e-02 -9.698620000e-01
1135000000.0 3.287600000e-02 -9.606870000e-01
1139500000.0 2.326300000e-02 -9.637870000e-01
1144000000.0 1.951300000e-02 -9.628840000e-01
1148500000.0 5.126700000e-02 -9.670130000e-01
1153000000.0 6.427000000e-03 -9.615820000e-01
1157500000.0 6.933000000e-03 -9.623400000e-01
1162000000.0 -2.168000000e-03 -9.619350000e-01
1166500000.0 -1.002100000e-02 -9.584980000e-01
1171000000.0 -1.887400000e-02 -9.600470000e-01
1175500000.0 -1.340300000e-02 -9.614480000e-01
1180000000.0 -2.330500000e-02 -9.593670000e-01
1184500000.0 -2.892600000e-02 -9.578760000e-01
1189000000.0 -3.766200000e-02 -9.575290000e-01
1193500000.0 -4.221000000e-02 -9.569360000e-01
1198000000.0 -4.278400000e-02 -9.599450000e-01
1202500000.0 -5.075300000e-02 -9.596300000e-01
1207000000.0 -5.512200000e-02 -9.597360000e-01
1211500000.0 -5.762100000e-02 -9.588420000e-01
1216000000.0 -6.406600000e-02 -9.579770000e-01
1220500000.0 -6.479100000e-02 -9.569860000e-01
1225000000.0 -6.757000000e-02 -9.611160000e-01
1229500000.0 -8.007800000e-02 -9.593400000e-01
1234000000.0 -8.164600000e-02 -9.624460000e-01
1238500000.0 -7.826800000e-02 -9.602270000e-01
1243000000.0 -8.830900000e-02 -9.620930000e-01
1247500000.0 -8.793500000e-02 -9.573560000e-01
1252000000.0 -9.363400000e-02 -9.598140000e-01
1256500000.0 -1.014890000e-01 -9.642770000e-01
1261000000.0 -1.099900000e-01 -9.660440000e-01
1265500000.0 -1.105760000e-01 -9.534010000e-01
1270000000.0 -1.156070000e-01 -9.609850000e-01
1274500000.0 -1.310970000e-01 -9.601310000e-01
1279000000.0 -1.233520000e-01 -9.524120000e-01
1283500000.0 -1.291570000e-01 -9.547910000e-01
1288000000.0 -1.349730000e-01 -9.564660000e-01
1292500000.0 -1.384450000e-01 -9.522810000e-01
1297000000.0 -1.460440000e-01 -9.563800000e-01
1301500000.0 -1.463650000e-01 -9.535850000e-01
1306000000.0 -1.982990000e-01 -8.698100000e-01
1310500000.0 -1.607530000e-01 -9.568830000e-01
1315000000.0 -1.620900000e-01 -9.461160000e-01
1319500000.0 -1.726360000e-01 -9.511150000e-01
1324000000.0 -1.770170000e-01 -9.482340000e-01
1328500000.0 -1.734630000e-01 -9.432650000e-01
1333000000.0 -1.854260000e-01 -9.438230000e-01
1337500000.0 -1.885700000e-01 -9.451550000e-01
1342000000.0 -2.001480000e-01 -9.356090000e-01
1346500000.0 -2.088600000e-01 -9.384170000e-01
1351000000.0 -2.075280000e-01 -9.383550000e-01
1355500000.0 -2.126830000e-01 -9.449240000e-01
1360000000.0 -2.184600000e-01 -9.386900000e-01
1364500000.0 -2.164240000e-01 -9.424900000e-01
1369000000.0 -2.230860000e-01 -9.433160000e-01
1373500000.0 -2.315940000e-01 -9.384980000e-01
1378000000.0 -2.326790000e-01 -9.398420000e-01
1382500000.0 -2.293400000e-01 -9.457730000e-01
1387000000.0 -2.403990000e-01 -9.413790000e-01
1391500000.0 -2.344400000e-01 -9.483850000e-01
1396000000.0 -2.397820000e-01 -9.485860000e-01
1400500000.0 -2.718170000e-01 -9.421730000e-01
1405000000.0 -2.575310000e-01 -9.495120000e-01
1409500000.0 -2.587760000e-01 -9.371020000e-01
1414000000.0 -2.641520000e-01 -9.394260000e-01
1418500000.0 -2.702030000e-01 -9.414540000e-01
1423000000.0 -2.742930000e-01 -9.394990000e-01
1427500000.0 -2.665970000e-01 -9.468600000e-01
1432000000.0 -2.832450000e-01 -9.392060000e-01
1436500000.0 -2.892260000e-01 -9.298200000e-01
1441000000.0 -2.876300000e-01 -9.334140000e-01
1445500000.0 -2.989790000e-01 -9.317040000e-01
1450000000.0 -2.965430000e-01 -9.315130000e-01
