! piloto_corto / corto_aluminio / r06
# HZ S RI R 50
50000.0 -9.944220000e-01 -3.615900000e-02
59500.0 -9.919640000e-01 -1.777200000e-02
69000.0 -9.936590000e-01 -4.852000000e-03
78500.0 -9.958910000e-01 -2.910000000e-04
88000.0 -9.961450000e-01 1.581000000e-03
97500.0 -9.966560000e-01 1.737000000e-03
107000.0 -9.970470000e-01 -1.213000000e-03
116500.0 -9.973350000e-01 -4.424000000e-03
126000.0 -9.970720000e-01 -8.888000000e-03
135500.0 -9.974760000e-01 -1.418000000e-02
145000.0 -9.979680000e-01 -2.079000000e-02
154500.0 -9.972460000e-01 -2.724900000e-02
164000.0 -9.971260000e-01 -3.458300000e-02
173500.0 -9.968320000e-01 -4.167500000e-02
183000.0 -9.962390000e-01 -4.964000000e-02
192500.0 -9.964770000e-01 -5.737100000e-02
202000.0 -9.962060000e-01 -6.622400000e-02
211500.0 -9.973940000e-01 -7.378700000e-02
221000.0 -9.968540000e-01 -8.314700000e-02
230500.0 -9.973720000e-01 -9.242300000e-02
240000.0 -9.986960000e-01 -1.004280000e-01
249500.0 -8.449230000e-01 -5.096200000e-02
259000.0 -9.982330000e-01 -1.190520000e-01
268500.0 -9.981810000e-01 -1.271280000e-01
278000.0 -9.987930000e-01 -1.363820000e-01
287500.0 -9.982970000e-01 -1.457450000e-01
297000.0 -9.985480000e-01 -1.549820000e-01
306500.0 -9.983380000e-01 -1.640520000e-01
316000.0 -9.994750000e-01 -1.734200000e-01
325500.0 -9.989890000e-01 -1.832510000e-01
335000.0 -1.000172000e+00 -1.930090000e-01
344500.0 -9.996090000e-01 -2.014200000e-01
354000.0 -9.993590000e-01 -2.101290000e-01
363500.0 -9.998680000e-01 -2.189090000e-01
373000.0 -9.993500000e-01 -2.292900000e-01
382500.0 -1.000770000e+00 -2.380040000e-01
392000.0 -1.000935000e+00 -2.467610000e-01
401500.0 -1.001446000e+00 -2.560180000e-01
411000.0 -1.001444000e+00 -2.658970000e-01
420500.0 -1.000665000e+00 -2.736710000e-01
430000.0 -1.001427000e+00 -2.839730000e-01
439500.0 -1.001721000e+00 -2.927190000e-01
449000.0 -1.001517000e+00 -3.031190000e-01
458500.0 -1.002087000e+00 -3.116020000e-01
468000.0 -1.002505000e+00 -3.199700000e-01
477500.0 -1.002139000e+00 -3.296030000e-01
487000.0 -1.002213000e+00 -3.377560000e-01
496500.0 -1.002126000e+00 -3.468200000e-01
506000.0 -1.002449000e+00 -3.569830000e-01
515500.0 -1.002785000e+00 -3.646150000e-01
525000.0 -1.002080000e+00 -3.742820000e-01
534500.0 -1.004110000e+00 -3.845230000e-01
544000.0 -1.004669000e+00 -3.932660000e-01
553500.0 -1.003836000e+00 -4.020350000e-01
563000.0 -1.005098000e+00 -4.121180000e-01
572500.0 -1.004897000e+00 -4.193630000e-01
582000.0 -1.004752000e+00 -4.286650000e-01
591500.0 -1.006081000e+00 -4.381050000e-01
601000.0 -1.007201000e+00 -4.464420000e-01
610500.0 -1.005106000e+00 -4.555380000e-01
620000.0 -1.007012000e+00 -4.647900000e-01
629500.0 -1.008503000e+00 -4.732990000e-01
639000.0 -1.008173000e+00 -4.822080000e-01
648500.0 -1.007670000e+00 -4.914110000e-01
658000.0 -1.016446000e+00 -4.816830000e-01
667500.0 -1.001092000e+00 -5.285190000e-01
677000.0 -1.016447000e+00 -4.984950000e-01
686500.0 -1.000506000e+00 -5.449080000e-01
696000.0 -1.018321000e+00 -5.152100000e-01
705500.0 -1.001908000e+00 -5.631010000e-01
715000.0 -1.019591000e+00 -5.331280000e-01
724500.0 -1.002817000e+00 -5.811650000e-01
734000.0 -1.023038000e+00 -5.507850000e-01
743500.0 -1.014114000e+00 -5.794380000e-01
753000.0 -1.014594000e+00 -5.873220000e-01
762500.0 -1.015828000e+00 -5.959150000e-01
772000.0 -1.016749000e+00 -6.058340000e-01
781500.0 -1.017495000e+00 -6.134320000e-01
791000.0 -1.019385000e+00 -6.231920000e-01
800500.0 -1.019378000e+00 -6.316380000e-01
810000.0 -1.020795000e+00 -6.389700000e-01
819500.0 -1.021368000e+00 -6.488330000e-01
829000.0 -1.022509000e+00 -6.564710000e-01
838500.0 -1.025601000e+00 -6.658150000e-01
848000.0 -1.026683000e+00 -6.743730000e-01
857500.0 -1.026633000e+00 -6.829740000e-01
867000.0 -1.029667000e+00 -6.918900000e-01
876500.0 -1.029796000e+00 -6.998120000e-01
886000.0 -1.032419000e+00 -7.074160000e-01
895500.0 -1.032730000e+00 -7.163480000e-01
905000.0 -1.035280000e+00 -7.257840000e-01
914500.0 -1.035783000e+00 -7.327630000e-01
924000.0 -1.038499000e+00 -7.424610000e-01
933500.0 -1.039828000e+00 -7.500750000e-01
943000.0 -1.043577000e+00 -7.590560000e-01
952500.0 -1.043365000e+00 -7.676080000e-01
962000.0 -1.049007000e+00 -7.754960000e-01
971500.0 -1.049307000e+00 -7.834140000e-01
981000.0 -1.050996000e+00 -7.916760000e-01
990500.0 -1.051246000e+00 -7.999760000e-01
1000000.0 -1.056895000e+00 -8.086990000e-01
1090000.0 -1.077534000e+00 -8.792680000e-01
1180000.0 -1.112255000e+00 -9.516840000e-01
1270000.0 -1.155045000e+00 -1.019896000e+00
1360000.0 -1.209041000e+00 -1.081315000e+00
1450000.0 -1.271935000e+00 -1.131557000e+00
1540000.0 -1.346284000e+00 -1.169366000e+00
1630000.0 -1.426664000e+00 -1.192958000e+00
1720000.0 -1.510700000e+00 -1.197306000e+00
1810000.0 -1.601417000e+00 -1.182431000e+00
1900000.0 -1.684718000e+00 -1.145782000e+00
1990000.0 -1.759678000e+00 -1.091339000e+00
2080000.0 -1.819260000e+00 -1.016511000e+00
2170000.0 -1.864071000e+00 -9.338560000e-01
2260000.0 -1.887231000e+00 -8.437240000e-01
2350000.0 -1.891974000e+00 -7.514780000e-01
2440000.0 -1.885252000e+00 -6.658950000e-01
2530000.0 -1.862334000e+00 -5.862430000e-01
2620000.0 -1.830826000e+00 -5.166000000e-01
2710000.0 -1.796026000e+00 -4.531700000e-01
2800000.0 -1.754623000e+00 -3.972570000e-01
2890000.0 -1.716248000e+00 -3.475120000e-01
2980000.0 -1.672560000e+00 -3.085470000e-01
3070000.0 -1.632344000e+00 -2.712080000e-01
3160000.0 -1.593355000e+00 -2.432740000e-01
3250000.0 -1.554642000e+00 -2.147750000e-01
3340000.0 -1.521044000e+00 -1.911210000e-01
3430000.0 -1.486601000e+00 -1.684440000e-01
3520000.0 -1.456664000e+00 -1.496170000e-01
3610000.0 -1.424632000e+00 -1.321590000e-01
3700000.0 -1.399770000e+00 -1.153770000e-01
3790000.0 -1.374609000e+00 -1.014510000e-01
3880000.0 -1.349776000e+00 -8.633600000e-02
3970000.0 -1.328444000e+00 -7.325400000e-02
4060000.0 -1.308655000e+00 -6.107900000e-02
4150000.0 -1.289513000e+00 -4.663500000e-02
4240000.0 -1.273257000e+00 -3.393500000e-02
4330000.0 -1.258170000e+00 -2.265300000e-02
4420000.0 -1.241893000e+00 -1.274400000e-02
4510000.0 -1.229823000e+00 1.099000000e-03
4600000.0 -1.216395000e+00 1.165100000e-02
4690000.0 -1.204663000e+00 2.302400000e-02
4780000.0 -1.195164000e+00 3.375800000e-02
4870000.0 -1.186551000e+00 4.541300000e-02
4960000.0 -1.178602000e+00 5.471100000e-02
5050000.0 -1.163900000e+00 6.654400000e-02
5140000.0 -1.158782000e+00 7.621800000e-02
5230000.0 -1.152345000e+00 8.652200000e-02
5320000.0 -1.147386000e+00 9.705700000e-02
5410000.0 -1.141485000e+00 1.079650000e-01
5500000.0 -1.136671000e+00 1.194480000e-01
5590000.0 -1.132787000e+00 1.290850000e-01
5680000.0 -1.128766000e+00 1.383730000e-01
5770000.0 -1.124676000e+00 1.491740000e-01
5860000.0 -1.121560000e+00 1.570810000e-01
5950000.0 -1.117502000e+00 1.665250000e-01
6040000.0 -1.114905000e+00 1.756630000e-01
6130000.0 -1.111364000e+00 1.847200000e-01
6220000.0 -1.108161000e+00 1.910690000e-01
6310000.0 -1.105436000e+00 1.983090000e-01
6400000.0 -1.102508000e+00 2.063950000e-01
6490000.0 -1.100552000e+00 2.135840000e-01
6580000.0 -1.097406000e+00 2.188760000e-01
6670000.0 -1.096717000e+00 2.236080000e-01
6760000.0 -1.093883000e+00 2.295340000e-01
6850000.0 -1.092490000e+00 2.349100000e-01
6940000.0 -1.091000000e+00 2.389600000e-01
7030000.0 -1.089728000e+00 2.409730000e-01
7120000.0 -1.088143000e+00 2.445360000e-01
7210000.0 -1.087647000e+00 2.465870000e-01
7300000.0 -1.085907000e+00 2.478280000e-01
7390000.0 -1.086425000e+00 2.474220000e-01
7480000.0 -1.084418000e+00 2.475030000e-01
7570000.0 2.007920000e-01 1.058363000e+00
7660000.0 2.014330000e-01 1.059690000e+00
7750000.0 2.004490000e-01 1.059770000e+00
7840000.0 1.997040000e-01 1.059647000e+00
7930000.0 1.987730000e-01 1.059874000e+00
8020000.0 1.979180000e-01 1.059399000e+00
8110000.0 1.987640000e-01 1.061930000e+00
8200000.0 1.974740000e-01 1.063730000e+00
8290000.0 1.972970000e-01 1.064060000e+00
8380000.0 1.966760000e-01 1.065036000e+00
8470000.0 1.955520000e-01 1.066089000e+00
8560000.0 1.945900000e-01 1.065674000e+00
8650000.0 1.956410000e-01 1.066559000e+00
8740000.0 1.936250000e-01 1.068189000e+00
8830000.0 1.928480000e-01 1.068234000e+00
8920000.0 1.928410000e-01 1.068184000e+00
9010000.0 1.910550000e-01 1.068755000e+00
9100000.0 1.914290000e-01 1.069168000e+00
9190000.0 1.908860000e-01 1.070401000e+00
9280000.0 1.908830000e-01 1.069976000e+00
9370000.0 1.894290000e-01 1.071874000e+00
9460000.0 1.900190000e-01 1.072601000e+00
9550000.0 1.892730000e-01 1.071823000e+00
9640000.0 1.875740000e-01 1.072522000e+00
9730000.0 1.867160000e-01 1.074023000e+00
9820000.0 1.865440000e-01 1.074553000e+00
9910000.0 1.857380000e-01 1.075615000e+00
10000000.0 1.863480000e-01 1.076589000e+00
10900000.0 1.787960000e-01 1.076539000e+00
11800000.0 1.731730000e-01 1.085101000e+00
12700000.0 1.682280000e-01 1.092245000e+00
13600000.0 1.630820000e-01 1.101337000e+00
14500000.0 1.574610000e-01 1.109274000e+00
15400000.0 1.510770000e-01 1.117674000e+00
16300000.0 1.459010000e-01 1.126327000e+00
17200000.0 1.392770000e-01 1.134911000e+00
18100000.0 1.337430000e-01 1.145853000e+00
19000000.0 1.276810000e-01 1.154353000e+00
19900000.0 1.204460000e-01 1.162724000e+00
20800000.0 1.143930000e-01 1.173068000e+00
21700000.0 1.069120000e-01 1.183228000e+00
22600000.0 9.888000000e-02 1.192298000e+00
23500000.0 9.090700000e-02 1.203325000e+00
24400000.0 8.318900000e-02 1.213148000e+00
25300000.0 7.418600000e-02 1.222610000e+00
26200000.0 6.500100000e-02 1.231507000e+00
27100000.0 5.497300000e-02 1.242878000e+00
28000000.0 4.653100000e-02 1.253611000e+00
28900000.0 3.545800000e-02 1.263222000e+00
29800000.0 2.484200000e-02 1.273796000e+00
30700000.0 1.341700000e-02 1.282538000e+00
31600000.0 3.713000000e-03 1.293898000e+00
32500000.0 -8.759000000e-03 1.304839000e+00
33400000.0 -2.098600000e-02 1.314218000e+00
34300000.0 -3.531000000e-02 1.324783000e+00
35200000.0 -4.817800000e-02 1.333491000e+00
36100000.0 -6.101000000e-02 1.344751000e+00
37000000.0 -7.458400000e-02 1.353298000e+00
37900000.0 -8.965700000e-02 1.363997000e+00
38800000.0 -1.044760000e-01 1.372458000e+00
39700000.0 -1.200440000e-01 1.380788000e+00
40600000.0 -1.363820000e-01 1.389484000e+00
41500000.0 -1.520770000e-01 1.398746000e+00
42400000.0 -1.691830000e-01 1.407664000e+00
43300000.0 -1.845500000e-01 1.416288000e+00
44200000.0 -2.042820000e-01 1.423171000e+00
45100000.0 -2.230150000e-01 1.430652000e+00
46000000.0 -2.409460000e-01 1.436976000e+00
46900000.0 -2.589800000e-01 1.445065000e+00
47800000.0 -2.801790000e-01 1.451661000e+00
48700000.0 -2.981330000e-01 1.456658000e+00
49600000.0 -3.182280000e-01 1.461451000e+00
50500000.0 -3.391910000e-01 1.466683000e+00
51400000.0 -3.596560000e-01 1.470422000e+00
52300000.0 -3.802470000e-01 1.474920000e+00
53200000.0 -4.025710000e-01 1.478779000e+00
54100000.0 -4.246950000e-01 1.480792000e+00
55000000.0 -4.459780000e-01 1.481570000e+00
55900000.0 -4.690690000e-01 1.483433000e+00
56800000.0 -4.902650000e-01 1.481509000e+00
57700000.0 -5.116210000e-01 1.482234000e+00
58600000.0 -5.339090000e-01 1.477178000e+00
59500000.0 -5.569240000e-01 1.476214000e+00
60400000.0 -5.809330000e-01 1.475876000e+00
61300000.0 -6.022070000e-01 1.472879000e+00
62200000.0 -6.260900000e-01 1.470252000e+00
63100000.0 -6.477090000e-01 1.466599000e+00
64000000.0 -6.718520000e-01 1.461888000e+00
64900000.0 -6.942200000e-01 1.454762000e+00
65800000.0 -7.179410000e-01 1.451156000e+00
66700000.0 -7.396590000e-01 1.442863000e+00
67600000.0 -7.636350000e-01 1.436689000e+00
68500000.0 -7.848480000e-01 1.428976000e+00
69400000.0 -8.068360000e-01 1.418994000e+00
70300000.0 -8.292920000e-01 1.410042000e+00
71200000.0 -8.509680000e-01 1.399443000e+00
72100000.0 -8.732600000e-01 1.390193000e+00
73000000.0 -8.947860000e-01 1.377985000e+00
73900000.0 -9.151620000e-01 1.366930000e+00
74800000.0 -9.344990000e-01 1.354824000e+00
75700000.0 -9.555680000e-01 1.341148000e+00
76600000.0 -9.747180000e-01 1.327735000e+00
77500000.0 -9.950370000e-01 1.314274000e+00
78400000.0 -1.014057000e+00 1.299495000e+00
79300000.0 -1.033157000e+00 1.284240000e+00
80200000.0 -1.050620000e+00 1.266581000e+00
81100000.0 -1.068434000e+00 1.251977000e+00
82000000.0 -1.085377000e+00 1.234322000e+00
82900000.0 -1.100525000e+00 1.217750000e+00
83800000.0 -1.116428000e+00 1.200173000e+00
84700000.0 -1.130849000e+00 1.181351000e+00
85600000.0 -1.145761000e+00 1.163353000e+00
86500000.0 -1.158624000e+00 1.144835000e+00
87400000.0 -1.173617000e+00 1.126034000e+00
88300000.0 -1.185465000e+00 1.104532000e+00
89200000.0 -1.199100000e+00 1.086279000e+00
90100000.0 -1.209666000e+00 1.066534000e+00
91000000.0 -1.220112000e+00 1.045997000e+00
91900000.0 -1.230263000e+00 1.026462000e+00
92800000.0 -1.239485000e+00 1.006799000e+00
93700000.0 -1.248760000e+00 9.851280000e-01
94600000.0 -1.256092000e+00 9.640690000e-01
95500000.0 -1.264459000e+00 9.433790000e-01
96400000.0 -1.269816000e+00 9.223540000e-01
97300000.0 -1.275798000e+00 9.011300000e-01
98200000.0 -1.282664000e+00 8.803500000e-01
99100000.0 -1.286536000e+00 8.593790000e-01
100000000.0 -1.290665000e+00 8.381120000e-01
109000000.0 -1.302266000e+00 6.444680000e-01
118000000.0 -1.263519000e+00 4.731430000e-01
127000000.0 -1.196923000e+00 3.381010000e-01
136000000.0 -1.095721000e+00 2.398160000e-01
145000000.0 -1.017885000e+00 1.686900000e-01
154000000.0 -9.758670000e-01 1.409240000e-01
163000000.0 -9.774870000e-01 1.472520000e-01
172000000.0 -9.781150000e-01 1.523930000e-01
181000000.0 -9.797890000e-01 1.600770000e-01
190000000.0 -9.806410000e-01 1.660170000e-01
199000000.0 -9.797090000e-01 1.737660000e-01
208000000.0 -9.800490000e-01 1.809820000e-01
217000000.0 -9.785830000e-01 1.887820000e-01
226000000.0 -9.762480000e-01 1.977550000e-01
235000000.0 -9.751010000e-01 2.047310000e-01
244000000.0 -9.724880000e-01 2.138190000e-01
253000000.0 -9.696860000e-01 2.232890000e-01
262000000.0 -9.652460000e-01 2.315660000e-01
271000000.0 -9.626440000e-01 2.397080000e-01
280000000.0 -9.571920000e-01 2.497770000e-01
289000000.0 -9.525130000e-01 2.605110000e-01
298000000.0 -9.478890000e-01 2.689060000e-01
307000000.0 -9.468730000e-01 2.760240000e-01
316000000.0 -9.476310000e-01 2.843790000e-01
325000000.0 -9.478360000e-01 2.914630000e-01
334000000.0 -9.472390000e-01 3.016080000e-01
343000000.0 -9.450060000e-01 3.072800000e-01
352000000.0 -9.433840000e-01 3.188290000e-01
361000000.0 -9.437080000e-01 3.253740000e-01
370000000.0 -9.602700000e-01 3.041780000e-01
379000000.0 -9.382500000e-01 3.413710000e-01
388000000.0 -9.342860000e-01 3.484380000e-01
397000000.0 -9.112420000e-01 3.839630000e-01
406000000.0 -9.258570000e-01 3.635330000e-01
415000000.0 -9.312700000e-01 3.561920000e-01
424000000.0 -9.169130000e-01 3.765900000e-01
433000000.0 -9.124920000e-01 3.841770000e-01
442000000.0 -9.072770000e-01 3.893800000e-01
451000000.0 -8.987060000e-01 3.999200000e-01
460000000.0 -8.992810000e-01 4.062670000e-01
469000000.0 -8.955250000e-01 4.187260000e-01
478000000.0 -8.959130000e-01 4.254190000e-01
487000000.0 -8.925290000e-01 4.367510000e-01
496000000.0 -8.881950000e-01 4.427360000e-01
505000000.0 -8.863210000e-01 4.505470000e-01
514000000.0 -8.835060000e-01 4.593330000e-01
523000000.0 -8.787450000e-01 4.651280000e-01
532000000.0 -8.762130000e-01 4.722030000e-01
541000000.0 -8.718570000e-01 4.798890000e-01
550000000.0 -8.635000000e-01 4.858310000e-01
559000000.0 -8.602530000e-01 4.947470000e-01
568000000.0 -8.550350000e-01 4.994090000e-01
577000000.0 -8.469690000e-01 5.025240000e-01
586000000.0 -8.411810000e-01 5.091560000e-01
595000000.0 -8.343760000e-01 5.128310000e-01
604000000.0 -8.294450000e-01 5.201990000e-01
613000000.0 -8.239180000e-01 5.302800000e-01
622000000.0 -8.206820000e-01 5.384250000e-01
631000000.0 -8.144970000e-01 5.481740000e-01
640000000.0 -8.128730000e-01 5.557760000e-01
649000000.0 -8.085590000e-01 5.625000000e-01
658000000.0 -8.026200000e-01 5.709020000e-01
667000000.0 -7.940860000e-01 5.772730000e-01
676000000.0 -7.935810000e-01 5.872630000e-01
685000000.0 -7.861520000e-01 5.908050000e-01
694000000.0 -7.775470000e-01 5.972950000e-01
703000000.0 -7.783880000e-01 6.009840000e-01
712000000.0 -7.726750000e-01 6.109940000e-01
721000000.0 -7.664080000e-01 6.096410000e-01
730000000.0 -7.609110000e-01 6.178010000e-01
739000000.0 -7.549960000e-01 6.221950000e-01
748000000.0 -7.498370000e-01 6.279740000e-01
757000000.0 -7.439990000e-01 6.320730000e-01
766000000.0 -7.368740000e-01 6.391940000e-01
775000000.0 -7.342970000e-01 6.438820000e-01
784000000.0 -7.293220000e-01 6.537000000e-01
793000000.0 -7.214470000e-01 6.569180000e-01
802000000.0 -7.179650000e-01 6.634670000e-01
811000000.0 -7.122250000e-01 6.705370000e-01
820000000.0 -7.057840000e-01 6.746010000e-01
829000000.0 -6.959660000e-01 6.825840000e-01
838000000.0 -6.904100000e-01 6.836500000e-01
847000000.0 -6.857680000e-01 6.891990000e-01
856000000.0 -6.805870000e-01 6.955050000e-01
865000000.0 -6.780620000e-01 7.021810000e-01
874000000.0 -6.679990000e-01 7.048940000e-01
883000000.0 -6.619020000e-01 7.129990000e-01
892000000.0 -6.565370000e-01 7.187570000e-01
901000000.0 -6.488600000e-01 7.240060000e-01
910000000.0 -6.461270000e-01 7.253370000e-01
919000000.0 -6.427350000e-01 7.300930000e-01
928000000.0 -6.345380000e-01 7.369630000e-01
937000000.0 -6.254110000e-01 7.482420000e-01
946000000.0 -6.214100000e-01 7.529770000e-01
955000000.0 -6.198950000e-01 7.541690000e-01
964000000.0 -6.093610000e-01 7.664410000e-01
973000000.0 -6.035590000e-01 7.686280000e-01
982000000.0 -5.939000000e-01 7.763120000e-01
991000000.0 -5.880140000e-01 7.792010000e-01
1000000000.0 -5.847280000e-01 7.807380000e-01
1004500000.0 -5.786940000e-01 7.805180000e-01
1009000000.0 -5.805870000e-01 7.794640000e-01
1013500000.0 -5.723850000e-01 7.833280000e-01
1018000000.0 -5.682230000e-01 7.870580000e-01
1022500000.0 -5.656240000e-01 7.874440000e-01
1027000000.0 -5.639470000e-01 7.900860000e-01
1031500000.0 -5.597300000e-01 7.919930000e-01
1036000000.0 -5.547080000e-01 7.921940000e-01
1040500000.0 -5.485150000e-01 7.967370000e-01
1045000000.0 -5.474770000e-01 7.944640000e-01
1049500000.0 -5.377600000e-01 8.011880000e-01
1054000000.0 -5.397710000e-01 8.032250000e-01
1058500000.0 -5.342540000e-01 8.060890000e-01
1063000000.0 -5.347010000e-01 8.073090000e-01
1067500000.0 -5.262340000e-01 8.127910000e-01
1072000000.0 -5.272630000e-01 8.148950000e-01
1076500000.0 -5.194260000e-01 8.190630000e-01
1081000000.0 -5.235920000e-01 8.175400000e-01
1085500000.0 -5.174290000e-01 8.248550000e-01
1090000000.0 -5.136500000e-01 8.253910000e-01
1094500000.0 -5.070880000e-01 8.276630000e-01
1099000000.0 -5.071840000e-01 8.301960000e-01
1103500000.0 -5.024120000e-01 8.334790000e-01
1108000000.0 -5.022120000e-01 8.346510000e-01
1112500000.0 -4.983560000e-01 8.370180000e-01
1117000000.0 -4.908540000e-01 8.403510000e-01
1121500000.0 -4.896550000e-01 8.433840000e-01
1126000000.0 -5.013900000e-01 8.389630000e-01
1130500000.0 -4.821420000e-01 8.471470000e-01
1135000000.0 -4.389130000e-01 8.571580000e-01
1139500000.0 -4.733960000e-01 8.497760000e-01
1144000000.0 -4.665430000e-01 8.513120000e-01
1148500000.0 -4.823410000e-01 8.444720000e-01
1153000000.0 -4.246310000e-01 8.617560000e-01
1157500000.0 -5.064570000e-01 8.484000000e-01
1162000000.0 -4.504330000e-01 8.578610000e-01
1166500000.0 -4.513420000e-01 8.569310000e-01
1171000000.0 -4.429240000e-01 8.598100000e-01
1175500000.0 -4.353760000e-01 8.622200000e-01
1180000000.0 -4.317330000e-01 8.617860000e-01
1184500000.0 -4.262340000e-01 8.643170000e-01
1189000000.0 -4.262520000e-01 8.631070000e-01
1193500000.0 -4.229130000e-01 8.622540000e-01
1198000000.0 -4.148890000e-01 8.652310000e-01
1202500000.0 -4.128420000e-01 8.658300000e-01
1207000000.0 -4.112370000e-01 8.678000000e-01
1211500000.0 -4.059400000e-01 8.715800000e-01
1216000000.0 -4.035080000e-01 8.735910000e-01
1220500000.0 -3.972080000e-01 8.740940000e-01
1225000000.0 -3.889580000e-01 8.792510000e-01
1229500000.0 -3.868510000e-01 8.824860000e-01
1234000000.0 -3.884520000e-01 8.798870000e-01
1238500000.0 -3.824630000e-01 8.855690000e-01
1243000000.0 -3.777130000e-01 8.865110000e-01
1247500000.0 -3.678120000e-01 8.905190000e-01
1252000000.0 -3.734880000e-01 8.915140000e-01
1256500000.0 -3.654950000e-01 8.933980000e-01
1261000000.0 -3.657410000e-01 8.950470000e-01
1265500000.0 -3.640330000e-01 8.904880000e-01
1270000000.0 -3.572730000e-01 8.950130000e-01
1274500000.0 -3.482400000e-01 8.965590000e-01
1279000000.0 -3.495790000e-01 8.956930000e-01
1283500000.0 -3.406750000e-01 9.034400000e-01
1288000000.0 -3.380090000e-01 8.984010000e-01
1292500000.0 -3.331480000e-01 8.969880000e-01
1297000000.0 -3.276720000e-01 9.037770000e-01
1301500000.0 -3.242500000e-01 9.039460000e-01
1306000000.0 -3.263870000e-01 9.014530000e-01
1310500000.0 -3.169490000e-01 9.032420000e-01
1315000000.0 -3.145350000e-01 9.003510000e-01
1319500000.0 -3.066470000e-01 9.055060000e-01
1324000000.0 -3.078570000e-01 9.034770000e-01
1328500000.0 -2.951510000e-01 9.048420000e-01
1333000000.0 -3.009810000e-01 9.042510000e-01
1337500000.0 -2.910930000e-01 9.061020000e-01
1342000000.0 -2.902540000e-01 9.044280000e-01
1346500000.0 -2.765020000e-01 9.074320000e-01
1351000000.0 -2.790100000e-01 9.096100000e-01
1355500000.0 -2.743090000e-01 9.086820000e-01
1360000000.0 -2.707630000e-01 9.080380000e-01
1364500000.0 -2.631920000e-01 9.134990000e-01
1369000000.0 -2.599350000e-01 9.165740000e-01
1373500000.0 -2.598850000e-01 9.255420000e-01
1378000000.0 -2.490940000e-01 9.134560000e-01
1382500000.0 -2.462120000e-01 9.168710000e-01
1387000000.0 -2.331170000e-01 9.219060000e-01
1391500000.0 -2.440650000e-01 9.169670000e-01
1396000000.0 -2.321240000e-01 9.228530000e-01
1400500000.0 -2.254180000e-01 9.280240000e-01
1405000000.0 -2.288590000e-01 9.306170000e-01
1409500000.0 -2.152620000e-01 9.250800000e-01
1414000000.0 -2.194190000e-01 9.291130000e-01
1418500000.0 -2.155070000e-01 9.301940000e-01
1423000000.0 -1.997160000e-01 9.285040000e-01
1427500000.0 -2.009560000e-01 9.313870000e-01
1432000000.0 -1.972860000e-01 9.335080000e-01
1436500000.0 -1.901990000e-01 9.368280000e-01
1441000000.0 -1.941400000e-01 9.308700000e-01
1445500000.0 -1.837470000e-01 9.358200000e-01
1450000000.0 -1.793570000e-01 9.367560000e-01
