! piloto_corto / aire / r03
# HZ S RI R 50
50000.0 1.006077000e+00 -7.369700000e-02
59500.0 1.003148000e+00 -6.070400000e-02
69000.0 1.005845000e+00 -4.914600000e-02
78500.0 1.001686000e+00 -3.432300000e-02
88000.0 1.001079000e+00 -2.197200000e-02
97500.0 1.000897000e+00 -9.607000000e-03
107000.0 9.996230000e-01 2.297000000e-03
116500.0 9.999440000e-01 1.395100000e-02
126000.0 9.977210000e-01 2.534600000e-02
135500.0 1.000425000e+00 3.790000000e-02
145000.0 9.998840000e-01 5.009700000e-02
154500.0 1.001339000e+00 7.940500000e-02
164000.0 1.000933000e+00 7.313300000e-02
173500.0 1.001885000e+00 1.038390000e-01
183000.0 1.001428000e+00 7.837200000e-02
192500.0 1.001244000e+00 1.260560000e-01
202000.0 1.001321000e+00 1.010310000e-01
211500.0 1.001027000e+00 1.489050000e-01
221000.0 1.002554000e+00 1.420350000e-01
230500.0 1.002470000e+00 1.527320000e-01
240000.0 1.003374000e+00 1.645960000e-01
249500.0 9.956100000e-01 1.391870000e-01
259000.0 1.023217000e+00 2.168740000e-01
268500.0 1.002082000e+00 1.970830000e-01
278000.0 1.003457000e+00 2.073320000e-01
287500.0 1.003626000e+00 2.186930000e-01
297000.0 1.002850000e+00 2.283860000e-01
306500.0 1.003618000e+00 2.398570000e-01
316000.0 1.003365000e+00 2.504520000e-01
325500.0 1.003892000e+00 2.612470000e-01
335000.0 1.004434000e+00 2.714010000e-01
344500.0 1.004306000e+00 2.815490000e-01
354000.0 1.004373000e+00 2.927870000e-01
363500.0 1.004132000e+00 3.015380000e-01
373000.0 1.004478000e+00 3.123100000e-01
382500.0 1.003525000e+00 3.231260000e-01
392000.0 1.004749000e+00 3.329240000e-01
401500.0 1.005188000e+00 3.425980000e-01
411000.0 1.004526000e+00 3.529420000e-01
420500.0 1.004932000e+00 3.635530000e-01
430000.0 1.005520000e+00 3.735950000e-01
439500.0 1.005235000e+00 3.831450000e-01
449000.0 1.004852000e+00 3.931390000e-01
458500.0 1.005826000e+00 4.029440000e-01
468000.0 1.005384000e+00 4.124150000e-01
477500.0 1.005601000e+00 4.231660000e-01
487000.0 1.006532000e+00 4.332660000e-01
496500.0 1.006406000e+00 4.423520000e-01
506000.0 1.006605000e+00 4.509570000e-01
515500.0 1.006388000e+00 4.613570000e-01
525000.0 1.006893000e+00 4.721370000e-01
534500.0 1.007416000e+00 4.810090000e-01
544000.0 1.007454000e+00 4.908980000e-01
553500.0 1.007906000e+00 5.005730000e-01
563000.0 1.007604000e+00 5.097670000e-01
572500.0 1.008770000e+00 5.193850000e-01
582000.0 1.008914000e+00 5.286790000e-01
591500.0 1.009826000e+00 5.379090000e-01
601000.0 1.010349000e+00 5.476480000e-01
610500.0 1.008469000e+00 5.576640000e-01
620000.0 1.010136000e+00 5.660180000e-01
629500.0 1.010407000e+00 5.758090000e-01
639000.0 1.010641000e+00 5.846380000e-01
648500.0 1.011841000e+00 5.933960000e-01
658000.0 1.012291000e+00 6.024980000e-01
667500.0 1.012317000e+00 6.122420000e-01
677000.0 1.013068000e+00 6.217640000e-01
686500.0 1.013510000e+00 6.316510000e-01
696000.0 1.014341000e+00 6.404470000e-01
705500.0 1.015578000e+00 6.487160000e-01
715000.0 1.014801000e+00 6.574960000e-01
724500.0 1.015890000e+00 6.665540000e-01
734000.0 1.016774000e+00 6.760760000e-01
743500.0 1.018339000e+00 6.848820000e-01
753000.0 1.017911000e+00 6.941660000e-01
762500.0 1.018731000e+00 7.033020000e-01
772000.0 1.020164000e+00 7.122190000e-01
781500.0 1.021295000e+00 7.210340000e-01
791000.0 1.022821000e+00 7.299610000e-01
800500.0 1.023877000e+00 7.389460000e-01
810000.0 1.025484000e+00 7.478410000e-01
819500.0 1.024906000e+00 7.561580000e-01
829000.0 1.027964000e+00 7.660820000e-01
838500.0 1.028546000e+00 7.743230000e-01
848000.0 1.030380000e+00 7.831150000e-01
857500.0 1.031128000e+00 7.917620000e-01
867000.0 1.031824000e+00 8.007850000e-01
876500.0 1.032495000e+00 8.075900000e-01
886000.0 1.035210000e+00 8.181190000e-01
895500.0 1.035210000e+00 8.274180000e-01
905000.0 1.038951000e+00 8.354550000e-01
914500.0 1.039798000e+00 8.435860000e-01
924000.0 1.040323000e+00 8.519900000e-01
933500.0 1.042987000e+00 8.607810000e-01
943000.0 1.046063000e+00 8.692170000e-01
952500.0 1.046650000e+00 8.785810000e-01
962000.0 1.049303000e+00 8.867380000e-01
971500.0 1.050638000e+00 8.956210000e-01
981000.0 1.053481000e+00 9.022840000e-01
990500.0 1.054149000e+00 9.118110000e-01
1000000.0 1.059005000e+00 9.201490000e-01
1090000.0 1.079569000e+00 9.962570000e-01
1180000.0 1.111578000e+00 1.072088000e+00
1270000.0 1.153289000e+00 1.142807000e+00
1360000.0 1.202554000e+00 1.205503000e+00
1450000.0 1.264367000e+00 1.258592000e+00
1540000.0 1.332397000e+00 1.304197000e+00
1630000.0 1.409744000e+00 1.333751000e+00
1720000.0 1.493914000e+00 1.350985000e+00
1810000.0 1.579997000e+00 1.344282000e+00
1900000.0 1.664409000e+00 1.321590000e+00
1990000.0 1.745520000e+00 1.281344000e+00
2080000.0 1.813879000e+00 1.226938000e+00
2170000.0 1.874970000e+00 1.147926000e+00
2260000.0 1.915969000e+00 1.069453000e+00
2350000.0 1.941032000e+00 9.824390000e-01
2440000.0 1.948184000e+00 8.949850000e-01
2530000.0 1.940947000e+00 8.078340000e-01
2620000.0 1.930500000e+00 7.289920000e-01
2710000.0 1.902466000e+00 6.569570000e-01
2800000.0 1.870058000e+00 5.915800000e-01
2890000.0 1.836641000e+00 5.336390000e-01
2980000.0 1.799100000e+00 4.814270000e-01
3070000.0 1.762392000e+00 4.357490000e-01
3160000.0 1.726204000e+00 3.986900000e-01
3250000.0 1.688522000e+00 3.606860000e-01
3340000.0 1.653566000e+00 3.286410000e-01
3430000.0 1.619897000e+00 3.015960000e-01
3520000.0 1.588429000e+00 2.747650000e-01
3610000.0 1.558057000e+00 2.542850000e-01
3700000.0 1.530134000e+00 2.299810000e-01
3790000.0 1.503780000e+00 2.139380000e-01
3880000.0 1.478523000e+00 1.926400000e-01
3970000.0 1.456740000e+00 1.747080000e-01
4060000.0 1.435305000e+00 1.571270000e-01
4150000.0 1.417568000e+00 1.415710000e-01
4240000.0 1.397218000e+00 1.260640000e-01
4330000.0 1.381178000e+00 1.113010000e-01
4420000.0 1.367424000e+00 9.767600000e-02
4510000.0 1.353804000e+00 8.280100000e-02
4600000.0 1.340286000e+00 6.862200000e-02
4690000.0 1.329532000e+00 5.476100000e-02
4780000.0 1.319414000e+00 4.098100000e-02
4870000.0 1.308905000e+00 2.722300000e-02
4960000.0 1.302309000e+00 1.589900000e-02
5050000.0 1.284776000e+00 3.737000000e-03
5140000.0 1.281317000e+00 -9.037000000e-03
5230000.0 1.275892000e+00 -2.297100000e-02
5320000.0 1.271198000e+00 -3.456400000e-02
5410000.0 1.267336000e+00 -4.583100000e-02
5500000.0 1.261786000e+00 -5.846900000e-02
5590000.0 1.257960000e+00 -7.186600000e-02
5680000.0 1.253297000e+00 -8.071400000e-02
5770000.0 1.249706000e+00 -9.301300000e-02
5860000.0 1.247832000e+00 -1.037380000e-01
5950000.0 1.244373000e+00 -1.141250000e-01
6040000.0 1.240968000e+00 -1.264100000e-01
6130000.0 1.237174000e+00 -1.342200000e-01
6220000.0 1.234981000e+00 -1.444530000e-01
6310000.0 1.233014000e+00 -1.513250000e-01
6400000.0 1.230296000e+00 -1.595070000e-01
6490000.0 1.228869000e+00 -1.689470000e-01
6580000.0 1.227127000e+00 -1.767700000e-01
6670000.0 1.225866000e+00 -1.829450000e-01
6760000.0 1.224720000e+00 -1.890790000e-01
6850000.0 1.223157000e+00 -1.949030000e-01
6940000.0 1.223136000e+00 -2.004120000e-01
7030000.0 1.221764000e+00 -2.030160000e-01
7120000.0 1.220415000e+00 -2.063990000e-01
7210000.0 1.219810000e+00 -2.096680000e-01
7300000.0 1.220382000e+00 -2.112240000e-01
7390000.0 1.219191000e+00 -2.120490000e-01
7480000.0 1.220159000e+00 -2.132430000e-01
7570000.0 -2.623900000e-01 -1.258304000e+00
7660000.0 -2.627670000e-01 -1.258711000e+00
7750000.0 -2.608610000e-01 -1.260473000e+00
7840000.0 -2.615480000e-01 -1.259068000e+00
7930000.0 -2.612610000e-01 -1.260027000e+00
8020000.0 -2.599720000e-01 -1.260736000e+00
8110000.0 -2.589530000e-01 -1.259931000e+00
8200000.0 -2.592570000e-01 -1.260666000e+00
8290000.0 -2.585190000e-01 -1.262105000e+00
8380000.0 -2.580800000e-01 -1.261465000e+00
8470000.0 -2.573820000e-01 -1.262446000e+00
8560000.0 -2.564070000e-01 -1.263000000e+00
8650000.0 -2.569460000e-01 -1.263774000e+00
8740000.0 -2.561170000e-01 -1.263935000e+00
8830000.0 -2.542020000e-01 -1.265720000e+00
8920000.0 -2.545280000e-01 -1.265315000e+00
9010000.0 -2.540520000e-01 -1.265489000e+00
9100000.0 -2.535640000e-01 -1.265867000e+00
9190000.0 -2.533130000e-01 -1.266415000e+00
9280000.0 -2.529160000e-01 -1.267982000e+00
9370000.0 -2.518860000e-01 -1.268697000e+00
9460000.0 -2.518870000e-01 -1.269675000e+00
9550000.0 -2.514290000e-01 -1.270260000e+00
9640000.0 -2.515430000e-01 -1.270156000e+00
9730000.0 -2.498920000e-01 -1.269983000e+00
9820000.0 -2.497210000e-01 -1.271945000e+00
9910000.0 -2.494190000e-01 -1.273086000e+00
10000000.0 -2.497790000e-01 -1.273431000e+00
10900000.0 -2.455330000e-01 -1.281623000e+00
11800000.0 -2.418250000e-01 -1.292107000e+00
12700000.0 -2.366290000e-01 -1.300725000e+00
13600000.0 -2.336720000e-01 -1.310979000e+00
14500000.0 -2.301810000e-01 -1.320808000e+00
15400000.0 -2.242410000e-01 -1.333287000e+00
16300000.0 -2.222130000e-01 -1.343863000e+00
17200000.0 -2.167320000e-01 -1.355607000e+00
18100000.0 -2.138610000e-01 -1.368552000e+00
19000000.0 -2.083340000e-01 -1.380432000e+00
19900000.0 -2.036980000e-01 -1.391928000e+00
20800000.0 -1.966930000e-01 -1.405681000e+00
21700000.0 -1.920490000e-01 -1.417656000e+00
22600000.0 -1.857710000e-01 -1.432945000e+00
23500000.0 -1.798570000e-01 -1.445015000e+00
24400000.0 -1.717790000e-01 -1.459030000e+00
25300000.0 -1.644150000e-01 -1.472848000e+00
26200000.0 -1.563450000e-01 -1.485985000e+00
27100000.0 -1.486050000e-01 -1.499413000e+00
28000000.0 -1.396990000e-01 -1.515895000e+00
28900000.0 -1.308160000e-01 -1.530670000e+00
29800000.0 -1.214350000e-01 -1.542885000e+00
30700000.0 -1.113410000e-01 -1.559522000e+00
31600000.0 -1.015600000e-01 -1.574223000e+00
32500000.0 -8.805800000e-02 -1.589054000e+00
33400000.0 -7.741700000e-02 -1.604939000e+00
34300000.0 -6.396000000e-02 -1.620378000e+00
35200000.0 -5.078700000e-02 -1.636409000e+00
36100000.0 -3.728000000e-02 -1.650920000e+00
37000000.0 -2.317700000e-02 -1.667428000e+00
37900000.0 -8.606000000e-03 -1.682513000e+00
38800000.0 8.171000000e-03 -1.697576000e+00
39700000.0 2.462200000e-02 -1.713684000e+00
40600000.0 4.154500000e-02 -1.728043000e+00
41500000.0 5.888900000e-02 -1.743288000e+00
42400000.0 7.721600000e-02 -1.761497000e+00
43300000.0 9.752300000e-02 -1.773801000e+00
44200000.0 1.201370000e-01 -1.788799000e+00
45100000.0 1.381040000e-01 -1.802274000e+00
46000000.0 1.633010000e-01 -1.817279000e+00
46900000.0 1.856310000e-01 -1.833094000e+00
47800000.0 2.105500000e-01 -1.846019000e+00
48700000.0 2.349730000e-01 -1.860400000e+00
49600000.0 2.605410000e-01 -1.869638000e+00
50500000.0 2.869050000e-01 -1.883380000e+00
51400000.0 3.167040000e-01 -1.893163000e+00
52300000.0 3.423800000e-01 -1.904742000e+00
53200000.0 3.742320000e-01 -1.915195000e+00
54100000.0 4.033740000e-01 -1.923828000e+00
55000000.0 4.350960000e-01 -1.931304000e+00
55900000.0 4.683180000e-01 -1.938945000e+00
56800000.0 5.005190000e-01 -1.943033000e+00
57700000.0 5.345530000e-01 -1.950633000e+00
58600000.0 5.679460000e-01 -1.953408000e+00
59500000.0 6.036300000e-01 -1.955090000e+00
60400000.0 6.394230000e-01 -1.956144000e+00
61300000.0 6.748310000e-01 -1.954604000e+00
62200000.0 7.101870000e-01 -1.953090000e+00
63100000.0 7.497200000e-01 -1.950373000e+00
64000000.0 7.872310000e-01 -1.947843000e+00
64900000.0 8.238670000e-01 -1.937640000e+00
65800000.0 8.588700000e-01 -1.928277000e+00
66700000.0 8.979370000e-01 -1.917878000e+00
67600000.0 9.336490000e-01 -1.905849000e+00
68500000.0 9.721240000e-01 -1.890951000e+00
69400000.0 1.007366000e+00 -1.874998000e+00
70300000.0 1.045160000e+00 -1.859119000e+00
71200000.0 1.079705000e+00 -1.840257000e+00
72100000.0 1.112550000e+00 -1.817797000e+00
73000000.0 1.144113000e+00 -1.798285000e+00
73900000.0 1.178529000e+00 -1.773081000e+00
74800000.0 1.209765000e+00 -1.746324000e+00
75700000.0 1.238925000e+00 -1.722052000e+00
76600000.0 1.266472000e+00 -1.694862000e+00
77500000.0 1.293952000e+00 -1.664809000e+00
78400000.0 1.318975000e+00 -1.636496000e+00
79300000.0 1.343948000e+00 -1.604439000e+00
80200000.0 1.366029000e+00 -1.574572000e+00
81100000.0 1.387307000e+00 -1.542984000e+00
82000000.0 1.404216000e+00 -1.508288000e+00
82900000.0 1.424403000e+00 -1.475544000e+00
83800000.0 1.439523000e+00 -1.443595000e+00
84700000.0 1.454051000e+00 -1.409752000e+00
85600000.0 1.466914000e+00 -1.374788000e+00
86500000.0 1.476488000e+00 -1.340669000e+00
87400000.0 1.489134000e+00 -1.307561000e+00
88300000.0 1.496542000e+00 -1.274240000e+00
89200000.0 1.504006000e+00 -1.240297000e+00
90100000.0 1.507733000e+00 -1.207506000e+00
91000000.0 1.511807000e+00 -1.176180000e+00
91900000.0 1.514441000e+00 -1.142645000e+00
92800000.0 1.516839000e+00 -1.111106000e+00
93700000.0 1.517392000e+00 -1.080574000e+00
94600000.0 1.517896000e+00 -1.049860000e+00
95500000.0 1.516284000e+00 -1.018965000e+00
96400000.0 1.512681000e+00 -9.905220000e-01
97300000.0 1.509298000e+00 -9.640960000e-01
98200000.0 1.505157000e+00 -9.353140000e-01
99100000.0 1.500885000e+00 -9.075780000e-01
100000000.0 1.495044000e+00 -8.829570000e-01
109000000.0 1.414554000e+00 -6.577560000e-01
118000000.0 1.310692000e+00 -4.956880000e-01
127000000.0 1.204008000e+00 -3.822000000e-01
136000000.0 1.102935000e+00 -3.076040000e-01
145000000.0 1.012602000e+00 -2.520950000e-01
154000000.0 9.640790000e-01 -2.337560000e-01
163000000.0 9.609260000e-01 -2.458990000e-01
172000000.0 9.568220000e-01 -2.599980000e-01
181000000.0 9.539880000e-01 -2.728080000e-01
190000000.0 9.491780000e-01 -2.862990000e-01
199000000.0 9.456460000e-01 -2.978970000e-01
208000000.0 9.426210000e-01 -3.102070000e-01
217000000.0 9.369760000e-01 -3.241870000e-01
226000000.0 9.318140000e-01 -3.356950000e-01
235000000.0 9.281250000e-01 -3.465060000e-01
244000000.0 9.223180000e-01 -3.593140000e-01
253000000.0 9.172610000e-01 -3.698070000e-01
262000000.0 9.111580000e-01 -3.830690000e-01
271000000.0 9.048910000e-01 -3.933640000e-01
280000000.0 8.990900000e-01 -4.053600000e-01
289000000.0 8.920440000e-01 -4.167780000e-01
298000000.0 8.849660000e-01 -4.256010000e-01
307000000.0 8.834150000e-01 -4.378850000e-01
316000000.0 8.767080000e-01 -4.511150000e-01
325000000.0 8.722210000e-01 -4.609110000e-01
334000000.0 8.628560000e-01 -4.715430000e-01
343000000.0 8.603090000e-01 -4.798850000e-01
352000000.0 8.530980000e-01 -4.945930000e-01
361000000.0 8.476500000e-01 -5.044160000e-01
370000000.0 8.406930000e-01 -5.133420000e-01
379000000.0 8.334000000e-01 -5.247970000e-01
388000000.0 8.373910000e-01 -5.196540000e-01
397000000.0 8.194150000e-01 -5.446500000e-01
406000000.0 8.120500000e-01 -5.539000000e-01
415000000.0 7.756310000e-01 -5.873280000e-01
424000000.0 7.961520000e-01 -5.730670000e-01
433000000.0 7.853590000e-01 -5.820330000e-01
442000000.0 7.782440000e-01 -5.935950000e-01
451000000.0 7.680110000e-01 -6.022080000e-01
460000000.0 7.620450000e-01 -6.113810000e-01
469000000.0 7.550610000e-01 -6.212420000e-01
478000000.0 7.502390000e-01 -6.313940000e-01
487000000.0 7.455090000e-01 -6.403770000e-01
496000000.0 7.386340000e-01 -6.491660000e-01
505000000.0 7.328930000e-01 -6.578180000e-01
514000000.0 7.212900000e-01 -6.682590000e-01
523000000.0 7.180210000e-01 -6.777070000e-01
532000000.0 7.080390000e-01 -6.872490000e-01
541000000.0 6.974280000e-01 -6.965480000e-01
550000000.0 6.927200000e-01 -7.013790000e-01
559000000.0 6.796100000e-01 -7.122380000e-01
568000000.0 6.710180000e-01 -7.190860000e-01
577000000.0 6.595610000e-01 -7.257870000e-01
586000000.0 6.499910000e-01 -7.351440000e-01
595000000.0 6.376910000e-01 -7.389650000e-01
604000000.0 6.292360000e-01 -7.496050000e-01
613000000.0 6.238060000e-01 -7.606900000e-01
622000000.0 6.126080000e-01 -7.686360000e-01
631000000.0 6.034060000e-01 -7.817160000e-01
640000000.0 5.974720000e-01 -7.861080000e-01
649000000.0 5.908990000e-01 -7.961260000e-01
658000000.0 5.800030000e-01 -8.023160000e-01
667000000.0 5.714380000e-01 -8.171640000e-01
676000000.0 5.609900000e-01 -8.193720000e-01
685000000.0 5.474390000e-01 -8.245650000e-01
694000000.0 5.370410000e-01 -8.300740000e-01
703000000.0 5.290830000e-01 -8.398390000e-01
712000000.0 5.188840000e-01 -8.415890000e-01
721000000.0 5.064620000e-01 -8.421410000e-01
730000000.0 4.950300000e-01 -8.465110000e-01
739000000.0 4.802740000e-01 -8.478310000e-01
748000000.0 4.687270000e-01 -8.511100000e-01
757000000.0 4.532320000e-01 -8.578850000e-01
766000000.0 4.431260000e-01 -8.680120000e-01
775000000.0 4.321150000e-01 -8.744770000e-01
784000000.0 4.230290000e-01 -8.823420000e-01
793000000.0 4.101260000e-01 -8.876490000e-01
802000000.0 3.980910000e-01 -8.928040000e-01
811000000.0 3.868390000e-01 -8.967730000e-01
820000000.0 3.719230000e-01 -9.053510000e-01
829000000.0 3.652560000e-01 -9.073290000e-01
838000000.0 3.544300000e-01 -9.114890000e-01
847000000.0 3.425020000e-01 -9.130350000e-01
856000000.0 3.370330000e-01 -9.168780000e-01
865000000.0 3.257430000e-01 -9.183140000e-01
874000000.0 3.142800000e-01 -9.182700000e-01
883000000.0 3.057400000e-01 -9.189640000e-01
892000000.0 2.994030000e-01 -9.195310000e-01
901000000.0 2.886620000e-01 -9.211790000e-01
910000000.0 2.779180000e-01 -9.249280000e-01
919000000.0 2.703810000e-01 -9.255910000e-01
928000000.0 2.508840000e-01 -9.303810000e-01
937000000.0 2.426240000e-01 -9.318210000e-01
946000000.0 2.330020000e-01 -9.346550000e-01
955000000.0 2.273270000e-01 -9.341420000e-01
964000000.0 2.152420000e-01 -9.362420000e-01
973000000.0 1.983660000e-01 -9.408990000e-01
982000000.0 1.960480000e-01 -9.394200000e-01
991000000.0 1.830230000e-01 -9.430380000e-01
1000000000.0 1.745720000e-01 -9.437320000e-01
1004500000.0 1.659120000e-01 -9.465170000e-01
1009000000.0 1.650800000e-01 -9.465890000e-01
1013500000.0 1.651710000e-01 -9.469740000e-01
1018000000.0 1.552210000e-01 -9.493900000e-01
1022500000.0 1.529030000e-01 -9.484370000e-01
1027000000.0 1.448570000e-01 -9.502640000e-01
1031500000.0 1.398200000e-01 -9.516030000e-01
1036000000.0 1.363940000e-01 -9.512680000e-01
1040500000.0 1.331000000e-01 -9.509930000e-01
1045000000.0 1.268480000e-01 -9.522600000e-01
1049500000.0 1.230380000e-01 -9.541720000e-01
1054000000.0 1.234040000e-01 -9.530090000e-01
1058500000.0 1.089130000e-01 -9.548660000e-01
1063000000.0 1.067110000e-01 -9.554830000e-01
1067500000.0 1.032190000e-01 -9.556160000e-01
1072000000.0 1.007980000e-01 -9.563180000e-01
1076500000.0 9.983300000e-02 -9.580590000e-01
1081000000.0 8.604400000e-02 -9.572370000e-01
1085500000.0 9.029900000e-02 -9.566130000e-01
1090000000.0 8.041200000e-02 -9.606150000e-01
1094500000.0 7.993700000e-02 -9.573630000e-01
1099000000.0 6.920600000e-02 -9.600330000e-01
1103500000.0 6.508800000e-02 -9.617030000e-01
1108000000.0 6.391600000e-02 -9.605980000e-01
1112500000.0 5.134400000e-02 -9.621290000e-01
1117000000.0 5.152800000e-02 -9.632020000e-01
1121500000.0 4.573400000e-02 -9.624120000e-01
1126000000.0 3.478700000e-02 -9.626390000e-01
1130500000.0 3.329700000e-02 -9.654080000e-01
1135000000.0 2.697600000e-02 -9.633820000e-01
1139500000.0 2.587000000e-02 -9.632480000e-01
1144000000.0 1.809400000e-02 -9.596760000e-01
1148500000.0 1.531300000e-02 -9.602980000e-01
1153000000.0 -1.487200000e-02 -9.644110000e-01
1157500000.0 -2.680000000e-03 -9.636320000e-01
1162000000.0 -3.666000000e-03 -9.601910000e-01
1166500000.0 -1.147800000e-02 -9.584340000e-01
1171000000.0 -1.630100000e-02 -9.631260000e-01
1175500000.0 -2.213100000e-02 -9.612610000e-01
1180000000.0 -2.219900000e-02 -9.597940000e-01
1184500000.0 -3.093900000e-02 -9.612790000e-01
1189000000.0 -3.922000000e-02 -9.568790000e-01
1193500000.0 -4.317400000e-02 -9.606570000e-01
1198000000.0 -4.756400000e-02 -9.581370000e-01
1202500000.0 -5.010900000e-02 -9.608430000e-01
1207000000.0 -5.807000000e-02 -9.581980000e-01
1211500000.0 -5.932400000e-02 -9.615940000e-01
1216000000.0 -6.250600000e-02 -9.567540000e-01
1220500000.0 -6.453400000e-02 -9.605460000e-01
1225000000.0 -7.388300000e-02 -9.570240000e-01
1229500000.0 -7.243000000e-02 -9.646520000e-01
1234000000.0 -7.324500000e-02 -9.583100000e-01
1238500000.0 -8.593400000e-02 -9.555790000e-01
1243000000.0 -9.101300000e-02 -9.551320000e-01
1247500000.0 -9.644500000e-02 -9.563610000e-01
1252000000.0 -9.502800000e-02 -9.613430000e-01
1256500000.0 -1.025210000e-01 -9.560050000e-01
1261000000.0 -1.143480000e-01 -9.610690000e-01
1265500000.0 -1.088380000e-01 -9.532220000e-01
1270000000.0 -1.156190000e-01 -9.561740000e-01
1274500000.0 -1.200890000e-01 -9.584150000e-01
1279000000.0 -1.246730000e-01 -9.544770000e-01
1283500000.0 -1.312770000e-01 -9.576830000e-01
1288000000.0 -1.344450000e-01 -9.543810000e-01
1292500000.0 -1.374260000e-01 -9.491360000e-01
1297000000.0 -1.557910000e-01 -9.532670000e-01
1301500000.0 -1.478870000e-01 -9.498550000e-01
1306000000.0 -1.736420000e-01 -9.451020000e-01
1310500000.0 -1.656080000e-01 -9.454410000e-01
1315000000.0 -1.621730000e-01 -9.557090000e-01
1319500000.0 -1.753750000e-01 -9.483450000e-01
1324000000.0 -1.712800000e-01 -9.489180000e-01
1328500000.0 -1.859470000e-01 -9.459010000e-01
1333000000.0 -1.859510000e-01 -9.398010000e-01
1337500000.0 -1.884950000e-01 -9.409600000e-01
1342000000.0 -2.013250000e-01 -9.398840000e-01
1346500000.0 -1.970070000e-01 -9.356220000e-01
1351000000.0 -2.192670000e-01 -9.372510000e-01
1355500000.0 -2.166520000e-01 -9.364270000e-01
1360000000.0 -2.135520000e-01 -9.454570000e-01
1364500000.0 -2.136710000e-01 -9.373590000e-01
1369000000.0 -2.201800000e-01 -9.429850000e-01
1373500000.0 -2.329070000e-01 -9.386830000e-01
1378000000.0 -2.261570000e-01 -9.417120000e-01
1382500000.0 -2.398560000e-01 -9.501990000e-01
1387000000.0 -2.317420000e-01 -9.457570000e-01
1391500000.0 -2.419430000e-01 -9.414820000e-01
1396000000.0 -2.486410000e-01 -9.446070000e-01
1400500000.0 -2.474000000e-01 -9.363890000e-01
1405000000.0 -2.511570000e-01 -9.413730000e-01
1409500000.0 -2.616910000e-01 -9.421840000e-01
1414000000.0 -2.624880000e-01 -9.382850000e-01
1418500000.0 -2.788780000e-01 -9.391550000e-01
1423000000.0 -2.794170000e-01 -9.272270000e-01
1427500000.0 -2.758200000e-01 -9.415230000e-01
1432000000.0 -2.775340000e-01 -9.387670000e-01
1436500000.0 -2.872050000e-01 -9.312260000e-01
1441000000.0 -2.838060000e-01 -9.364860000e-01
1445500000.0 -2.878230000e-01 -9.317290000e-01
1450000000.0 -2.992890000e-01 -9.302360000e-01
