! piloto_corto / corto_aluminio / r10
# HZ S RI R 50
50000.0 -9.934050000e-01 -3.809400000e-02
59500.0 -9.930780000e-01 -1.689900000e-02
69000.0 -9.967010000e-01 -6.736000000e-03
78500.0 -9.979480000e-01 -1.296000000e-03
88000.0 -9.981920000e-01 1.589000000e-03
97500.0 -9.977670000e-01 8.320000000e-04
107000.0 -9.983130000e-01 -1.325000000e-03
116500.0 -9.985070000e-01 -4.494000000e-03
126000.0 -9.997290000e-01 -9.538000000e-03
135500.0 -9.980390000e-01 -1.434400000e-02
145000.0 -9.986940000e-01 -2.082300000e-02
154500.0 -9.981120000e-01 -2.717600000e-02
164000.0 -9.981870000e-01 -3.424100000e-02
173500.0 -9.983300000e-01 -4.222400000e-02
183000.0 -9.983420000e-01 -5.024400000e-02
192500.0 -9.985570000e-01 -5.798500000e-02
202000.0 -9.979280000e-01 -6.620300000e-02
211500.0 -9.988850000e-01 -7.476800000e-02
221000.0 -9.987280000e-01 -8.293300000e-02
230500.0 -9.993320000e-01 -9.181400000e-02
240000.0 -9.984070000e-01 -1.016750000e-01
249500.0 -9.990570000e-01 -1.102340000e-01
259000.0 -9.995690000e-01 -1.198920000e-01
268500.0 -9.998630000e-01 -1.281310000e-01
278000.0 -1.000110000e+00 -1.376620000e-01
287500.0 -1.000423000e+00 -1.462670000e-01
297000.0 -1.000003000e+00 -1.555500000e-01
306500.0 -1.000265000e+00 -1.664470000e-01
316000.0 -9.999840000e-01 -1.741020000e-01
325500.0 -1.000044000e+00 -1.838350000e-01
335000.0 -1.000908000e+00 -1.929340000e-01
344500.0 -1.001705000e+00 -2.017490000e-01
354000.0 -1.001580000e+00 -2.106940000e-01
363500.0 -1.001322000e+00 -2.208600000e-01
373000.0 -1.001441000e+00 -2.287000000e-01
382500.0 -1.002264000e+00 -2.385670000e-01
392000.0 -1.001883000e+00 -2.478500000e-01
401500.0 -1.003455000e+00 -2.572460000e-01
411000.0 -1.002547000e+00 -2.662110000e-01
420500.0 -1.002756000e+00 -2.751180000e-01
430000.0 -1.002839000e+00 -2.852950000e-01
439500.0 -1.002810000e+00 -2.937390000e-01
449000.0 -1.003479000e+00 -3.025190000e-01
458500.0 -1.002766000e+00 -3.130600000e-01
468000.0 -1.003192000e+00 -3.213150000e-01
477500.0 -1.003395000e+00 -3.309800000e-01
487000.0 -1.003580000e+00 -3.403780000e-01
496500.0 -1.003665000e+00 -3.492100000e-01
506000.0 -1.004425000e+00 -3.582220000e-01
515500.0 -1.004430000e+00 -3.670400000e-01
525000.0 -1.004986000e+00 -3.770650000e-01
534500.0 -1.005065000e+00 -3.857290000e-01
544000.0 -1.005404000e+00 -3.935150000e-01
553500.0 -1.006122000e+00 -4.034360000e-01
563000.0 -1.007053000e+00 -4.127880000e-01
572500.0 -1.006502000e+00 -4.214560000e-01
582000.0 -1.006739000e+00 -4.309800000e-01
591500.0 -1.007112000e+00 -4.388170000e-01
601000.0 -1.007352000e+00 -4.481630000e-01
610500.0 -1.001112000e+00 -4.776400000e-01
620000.0 -1.008597000e+00 -4.666030000e-01
629500.0 -1.008347000e+00 -4.751300000e-01
639000.0 -1.016245000e+00 -4.658950000e-01
648500.0 -1.002801000e+00 -5.120030000e-01
658000.0 -1.017323000e+00 -4.835440000e-01
667500.0 -1.003447000e+00 -5.310620000e-01
677000.0 -1.018998000e+00 -5.008530000e-01
686500.0 -1.003770000e+00 -5.478570000e-01
696000.0 -1.020432000e+00 -5.181170000e-01
705500.0 -1.004369000e+00 -5.664920000e-01
715000.0 -1.013871000e+00 -5.551220000e-01
724500.0 -1.015299000e+00 -5.641790000e-01
734000.0 -1.015879000e+00 -5.728520000e-01
743500.0 -1.017090000e+00 -5.803660000e-01
753000.0 -1.018841000e+00 -5.903900000e-01
762500.0 -1.018845000e+00 -5.996150000e-01
772000.0 -1.019964000e+00 -6.077980000e-01
781500.0 -1.020950000e+00 -6.170670000e-01
791000.0 -1.021865000e+00 -6.248860000e-01
800500.0 -1.021496000e+00 -6.324760000e-01
810000.0 -1.024811000e+00 -6.418780000e-01
819500.0 -1.024782000e+00 -6.507890000e-01
829000.0 -1.026167000e+00 -6.593360000e-01
838500.0 -1.027305000e+00 -6.691790000e-01
848000.0 -1.028372000e+00 -6.766490000e-01
857500.0 -1.030618000e+00 -6.865360000e-01
867000.0 -1.032804000e+00 -6.941020000e-01
876500.0 -1.033839000e+00 -7.036040000e-01
886000.0 -1.035757000e+00 -7.120830000e-01
895500.0 -1.037113000e+00 -7.199180000e-01
905000.0 -1.038634000e+00 -7.289860000e-01
914500.0 -1.040087000e+00 -7.363910000e-01
924000.0 -1.043158000e+00 -7.454760000e-01
933500.0 -1.043191000e+00 -7.538060000e-01
943000.0 -1.045812000e+00 -7.625280000e-01
952500.0 -1.047484000e+00 -7.700510000e-01
962000.0 -1.051199000e+00 -7.800420000e-01
971500.0 -1.051980000e+00 -7.879850000e-01
981000.0 -1.054584000e+00 -7.949050000e-01
990500.0 -1.056763000e+00 -8.045830000e-01
1000000.0 -1.059575000e+00 -8.120440000e-01
1090000.0 -1.085409000e+00 -8.875770000e-01
1180000.0 -1.122394000e+00 -9.598610000e-01
1270000.0 -1.165813000e+00 -1.029679000e+00
1360000.0 -1.219711000e+00 -1.089086000e+00
1450000.0 -1.282571000e+00 -1.140891000e+00
1540000.0 -1.356200000e+00 -1.179637000e+00
1630000.0 -1.442959000e+00 -1.200668000e+00
1720000.0 -1.527713000e+00 -1.204486000e+00
1810000.0 -1.618158000e+00 -1.186622000e+00
1900000.0 -1.703890000e+00 -1.150454000e+00
1990000.0 -1.779493000e+00 -1.092999000e+00
2080000.0 -1.838050000e+00 -1.020503000e+00
2170000.0 -1.878232000e+00 -9.339720000e-01
2260000.0 -1.903307000e+00 -8.444050000e-01
2350000.0 -1.907302000e+00 -7.552420000e-01
2440000.0 -1.895169000e+00 -6.668880000e-01
2530000.0 -1.876045000e+00 -5.860890000e-01
2620000.0 -1.846543000e+00 -5.113260000e-01
2710000.0 -1.809053000e+00 -4.500160000e-01
2800000.0 -1.764138000e+00 -3.959470000e-01
2890000.0 -1.723758000e+00 -3.477660000e-01
2980000.0 -1.680599000e+00 -3.094030000e-01
3070000.0 -1.640758000e+00 -2.715570000e-01
3160000.0 -1.600734000e+00 -2.430780000e-01
3250000.0 -1.564035000e+00 -2.143470000e-01
3340000.0 -1.526865000e+00 -1.924130000e-01
3430000.0 -1.495009000e+00 -1.709300000e-01
3520000.0 -1.462299000e+00 -1.508790000e-01
3610000.0 -1.432840000e+00 -1.343160000e-01
3700000.0 -1.406461000e+00 -1.162020000e-01
3790000.0 -1.381125000e+00 -1.019250000e-01
3880000.0 -1.357805000e+00 -8.710100000e-02
3970000.0 -1.335795000e+00 -7.285400000e-02
4060000.0 -1.316633000e+00 -6.024300000e-02
4150000.0 -1.297910000e+00 -4.859900000e-02
4240000.0 -1.279178000e+00 -3.516600000e-02
4330000.0 -1.264230000e+00 -2.288600000e-02
4420000.0 -1.248421000e+00 -1.217800000e-02
4510000.0 -1.236163000e+00 7.400000000e-04
4600000.0 -1.224319000e+00 1.174900000e-02
4690000.0 -1.212535000e+00 2.240500000e-02
4780000.0 -1.202418000e+00 3.439000000e-02
4870000.0 -1.192376000e+00 4.599000000e-02
4960000.0 -1.186305000e+00 5.566200000e-02
5050000.0 -1.172390000e+00 6.676500000e-02
5140000.0 -1.166088000e+00 7.703900000e-02
5230000.0 -1.159936000e+00 8.831100000e-02
5320000.0 -1.155663000e+00 9.736300000e-02
5410000.0 -1.149234000e+00 1.091250000e-01
5500000.0 -1.146403000e+00 1.200080000e-01
5590000.0 -1.140265000e+00 1.279720000e-01
5680000.0 -1.136515000e+00 1.390200000e-01
5770000.0 -1.132537000e+00 1.488990000e-01
5860000.0 -1.130009000e+00 1.593950000e-01
5950000.0 -1.125541000e+00 1.665150000e-01
6040000.0 -1.122388000e+00 1.770950000e-01
6130000.0 -1.117427000e+00 1.843060000e-01
6220000.0 -1.115922000e+00 1.927710000e-01
6310000.0 -1.113566000e+00 2.003630000e-01
6400000.0 -1.110709000e+00 2.068340000e-01
6490000.0 -1.108212000e+00 2.147820000e-01
6580000.0 -1.106492000e+00 2.211780000e-01
6670000.0 -1.105130000e+00 2.261460000e-01
6760000.0 -1.102831000e+00 2.322240000e-01
6850000.0 -1.102270000e+00 2.365800000e-01
6940000.0 -1.099819000e+00 2.395510000e-01
7030000.0 -1.100147000e+00 2.438430000e-01
7120000.0 -1.097944000e+00 2.468340000e-01
7210000.0 -1.096923000e+00 2.500320000e-01
7300000.0 -1.097509000e+00 2.501160000e-01
7390000.0 -1.096938000e+00 2.508480000e-01
7480000.0 -1.096507000e+00 2.514490000e-01
7570000.0 2.032820000e-01 1.070123000e+00
7660000.0 2.033780000e-01 1.070078000e+00
7750000.0 2.031790000e-01 1.069707000e+00
7840000.0 2.017140000e-01 1.068748000e+00
7930000.0 2.012400000e-01 1.070574000e+00
8020000.0 1.997620000e-01 1.070917000e+00
8110000.0 1.995990000e-01 1.071448000e+00
8200000.0 1.988460000e-01 1.072322000e+00
8290000.0 1.982850000e-01 1.071584000e+00
8380000.0 1.971970000e-01 1.071245000e+00
8470000.0 1.966440000e-01 1.072315000e+00
8560000.0 1.962030000e-01 1.072578000e+00
8650000.0 1.959400000e-01 1.074591000e+00
8740000.0 1.945410000e-01 1.073897000e+00
8830000.0 1.947860000e-01 1.074818000e+00
8920000.0 1.944550000e-01 1.075681000e+00
9010000.0 1.929670000e-01 1.076237000e+00
9100000.0 1.915290000e-01 1.077070000e+00
9190000.0 1.921100000e-01 1.076930000e+00
9280000.0 1.908120000e-01 1.077500000e+00
9370000.0 1.903620000e-01 1.077266000e+00
9460000.0 1.905950000e-01 1.077709000e+00
9550000.0 1.891050000e-01 1.079026000e+00
9640000.0 1.897030000e-01 1.080681000e+00
9730000.0 1.890450000e-01 1.080208000e+00
9820000.0 1.877550000e-01 1.081344000e+00
9910000.0 1.868920000e-01 1.081335000e+00
10000000.0 1.866160000e-01 1.082296000e+00
10900000.0 1.808010000e-01 1.089201000e+00
11800000.0 1.764020000e-01 1.096463000e+00
12700000.0 1.703380000e-01 1.104841000e+00
13600000.0 1.640270000e-01 1.112627000e+00
14500000.0 1.595120000e-01 1.120835000e+00
15400000.0 1.542940000e-01 1.130463000e+00
16300000.0 1.483480000e-01 1.138811000e+00
17200000.0 1.422690000e-01 1.148312000e+00
18100000.0 1.369840000e-01 1.157131000e+00
19000000.0 1.297860000e-01 1.166959000e+00
19900000.0 1.233260000e-01 1.176699000e+00
20800000.0 1.155540000e-01 1.185320000e+00
21700000.0 1.078520000e-01 1.195871000e+00
22600000.0 1.003690000e-01 1.205543000e+00
23500000.0 9.203600000e-02 1.215228000e+00
24400000.0 8.416600000e-02 1.225477000e+00
25300000.0 7.522100000e-02 1.235935000e+00
26200000.0 6.679600000e-02 1.246235000e+00
27100000.0 5.632200000e-02 1.255653000e+00
28000000.0 4.645400000e-02 1.267646000e+00
28900000.0 3.704400000e-02 1.276900000e+00
29800000.0 2.575300000e-02 1.287997000e+00
30700000.0 1.413400000e-02 1.297132000e+00
31600000.0 1.597000000e-03 1.308350000e+00
32500000.0 -9.558000000e-03 1.317811000e+00
33400000.0 -2.205700000e-02 1.327150000e+00
34300000.0 -3.507800000e-02 1.338544000e+00
35200000.0 -4.734900000e-02 1.348033000e+00
36100000.0 -6.116600000e-02 1.357385000e+00
37000000.0 -7.595500000e-02 1.366677000e+00
37900000.0 -9.026600000e-02 1.377639000e+00
38800000.0 -1.054960000e-01 1.387059000e+00
39700000.0 -1.209060000e-01 1.397057000e+00
40600000.0 -1.372170000e-01 1.405069000e+00
41500000.0 -1.533050000e-01 1.413118000e+00
42400000.0 -1.693190000e-01 1.421271000e+00
43300000.0 -1.875710000e-01 1.431841000e+00
44200000.0 -2.050570000e-01 1.437999000e+00
45100000.0 -2.235650000e-01 1.445811000e+00
46000000.0 -2.431750000e-01 1.453631000e+00
46900000.0 -2.628240000e-01 1.459394000e+00
47800000.0 -2.810050000e-01 1.466419000e+00
48700000.0 -2.994870000e-01 1.472754000e+00
49600000.0 -3.208820000e-01 1.477317000e+00
50500000.0 -3.438370000e-01 1.481307000e+00
51400000.0 -3.618840000e-01 1.485402000e+00
52300000.0 -3.842520000e-01 1.489240000e+00
53200000.0 -4.056660000e-01 1.494052000e+00
54100000.0 -4.282620000e-01 1.495381000e+00
55000000.0 -4.500660000e-01 1.497504000e+00
55900000.0 -4.723490000e-01 1.499056000e+00
56800000.0 -4.959680000e-01 1.499964000e+00
57700000.0 -5.177740000e-01 1.500909000e+00
58600000.0 -5.415490000e-01 1.501263000e+00
59500000.0 -5.637710000e-01 1.497960000e+00
60400000.0 -5.860260000e-01 1.496660000e+00
61300000.0 -6.109420000e-01 1.494663000e+00
62200000.0 -6.317100000e-01 1.491125000e+00
63100000.0 -6.558150000e-01 1.487122000e+00
64000000.0 -6.808910000e-01 1.482638000e+00
64900000.0 -7.014780000e-01 1.476261000e+00
65800000.0 -7.271820000e-01 1.471583000e+00
66700000.0 -7.492990000e-01 1.464329000e+00
67600000.0 -7.733860000e-01 1.457051000e+00
68500000.0 -7.960590000e-01 1.449318000e+00
69400000.0 -8.182180000e-01 1.439716000e+00
70300000.0 -8.394760000e-01 1.430157000e+00
71200000.0 -8.598780000e-01 1.420402000e+00
72100000.0 -8.822630000e-01 1.409102000e+00
73000000.0 -9.043100000e-01 1.398182000e+00
73900000.0 -9.258110000e-01 1.386290000e+00
74800000.0 -9.461790000e-01 1.375161000e+00
75700000.0 -9.683500000e-01 1.359283000e+00
76600000.0 -9.866350000e-01 1.346972000e+00
77500000.0 -1.007237000e+00 1.332696000e+00
78400000.0 -1.025240000e+00 1.316574000e+00
79300000.0 -1.043634000e+00 1.301622000e+00
80200000.0 -1.063408000e+00 1.285281000e+00
81100000.0 -1.079995000e+00 1.269831000e+00
82000000.0 -1.095443000e+00 1.253003000e+00
82900000.0 -1.113780000e+00 1.235057000e+00
83800000.0 -1.128596000e+00 1.217893000e+00
84700000.0 -1.145361000e+00 1.199727000e+00
85600000.0 -1.158384000e+00 1.179807000e+00
86500000.0 -1.171868000e+00 1.159602000e+00
87400000.0 -1.185767000e+00 1.142096000e+00
88300000.0 -1.199512000e+00 1.119768000e+00
89200000.0 -1.210274000e+00 1.100129000e+00
90100000.0 -1.221504000e+00 1.080810000e+00
91000000.0 -1.233242000e+00 1.060171000e+00
91900000.0 -1.243422000e+00 1.039789000e+00
92800000.0 -1.251971000e+00 1.020880000e+00
93700000.0 -1.261396000e+00 9.985300000e-01
94600000.0 -1.269710000e+00 9.785800000e-01
95500000.0 -1.277237000e+00 9.550400000e-01
96400000.0 -1.284309000e+00 9.376270000e-01
97300000.0 -1.290728000e+00 9.134100000e-01
98200000.0 -1.295731000e+00 8.933800000e-01
99100000.0 -1.299290000e+00 8.716020000e-01
100000000.0 -1.304570000e+00 8.515440000e-01
109000000.0 -1.310371000e+00 6.495870000e-01
118000000.0 -1.270635000e+00 4.783520000e-01
127000000.0 -1.204900000e+00 3.438510000e-01
136000000.0 -1.101724000e+00 2.404200000e-01
145000000.0 -1.024509000e+00 1.705330000e-01
154000000.0 -9.822800000e-01 1.414630000e-01
163000000.0 -9.835460000e-01 1.488180000e-01
172000000.0 -9.851520000e-01 1.554850000e-01
181000000.0 -9.857610000e-01 1.611300000e-01
190000000.0 -9.860890000e-01 1.690970000e-01
199000000.0 -9.859990000e-01 1.762910000e-01
208000000.0 -9.851500000e-01 1.837460000e-01
217000000.0 -9.844070000e-01 1.928470000e-01
226000000.0 -9.834160000e-01 1.988920000e-01
235000000.0 -9.812300000e-01 2.068130000e-01
244000000.0 -9.786900000e-01 2.170610000e-01
253000000.0 -9.748350000e-01 2.251530000e-01
262000000.0 -9.716340000e-01 2.343110000e-01
271000000.0 -9.682160000e-01 2.426610000e-01
280000000.0 -9.643070000e-01 2.518360000e-01
289000000.0 -9.574190000e-01 2.618800000e-01
298000000.0 -9.527300000e-01 2.706010000e-01
307000000.0 -9.529940000e-01 2.789940000e-01
316000000.0 -9.523730000e-01 2.882990000e-01
325000000.0 -9.530690000e-01 2.965380000e-01
334000000.0 -9.503330000e-01 3.036800000e-01
343000000.0 -9.521330000e-01 3.115660000e-01
352000000.0 -9.516040000e-01 3.216870000e-01
361000000.0 -9.478490000e-01 3.292850000e-01
370000000.0 -9.375110000e-01 3.525940000e-01
379000000.0 -9.220590000e-01 3.735100000e-01
388000000.0 -9.411240000e-01 3.526870000e-01
397000000.0 -9.356390000e-01 3.594980000e-01
406000000.0 -9.654350000e-01 3.282250000e-01
415000000.0 -9.262470000e-01 3.738470000e-01
424000000.0 -9.240030000e-01 3.811490000e-01
433000000.0 -9.159910000e-01 3.885030000e-01
442000000.0 -9.098080000e-01 3.946960000e-01
451000000.0 -9.030190000e-01 4.004490000e-01
460000000.0 -9.025210000e-01 4.121000000e-01
469000000.0 -9.017010000e-01 4.207190000e-01
478000000.0 -8.990180000e-01 4.304320000e-01
487000000.0 -8.962570000e-01 4.389380000e-01
496000000.0 -8.959070000e-01 4.463680000e-01
505000000.0 -8.918900000e-01 4.544180000e-01
514000000.0 -8.873420000e-01 4.605200000e-01
523000000.0 -8.835530000e-01 4.717000000e-01
532000000.0 -8.786580000e-01 4.776970000e-01
541000000.0 -8.756860000e-01 4.821050000e-01
550000000.0 -8.703630000e-01 4.895050000e-01
559000000.0 -8.640710000e-01 4.959780000e-01
568000000.0 -8.582810000e-01 5.047990000e-01
577000000.0 -8.507520000e-01 5.111490000e-01
586000000.0 -8.479330000e-01 5.140510000e-01
595000000.0 -8.383510000e-01 5.179750000e-01
604000000.0 -8.360440000e-01 5.253560000e-01
613000000.0 -8.283830000e-01 5.335140000e-01
622000000.0 -8.243380000e-01 5.418590000e-01
631000000.0 -8.189830000e-01 5.531800000e-01
640000000.0 -8.142560000e-01 5.608440000e-01
649000000.0 -8.116640000e-01 5.656230000e-01
658000000.0 -8.041240000e-01 5.793360000e-01
667000000.0 -7.977050000e-01 5.841690000e-01
676000000.0 -7.950430000e-01 5.914790000e-01
685000000.0 -7.912720000e-01 5.983570000e-01
694000000.0 -7.833090000e-01 6.045710000e-01
703000000.0 -7.837570000e-01 6.096300000e-01
712000000.0 -7.827270000e-01 6.164570000e-01
721000000.0 -7.690910000e-01 6.164920000e-01
730000000.0 -7.668710000e-01 6.176960000e-01
739000000.0 -7.614530000e-01 6.267300000e-01
748000000.0 -7.536310000e-01 6.280260000e-01
757000000.0 -7.503900000e-01 6.364690000e-01
766000000.0 -7.420580000e-01 6.464340000e-01
775000000.0 -7.377390000e-01 6.516530000e-01
784000000.0 -7.312300000e-01 6.550920000e-01
793000000.0 -7.264090000e-01 6.646470000e-01
802000000.0 -7.226390000e-01 6.694590000e-01
811000000.0 -7.173830000e-01 6.711680000e-01
820000000.0 -7.119480000e-01 6.808320000e-01
829000000.0 -7.061520000e-01 6.871870000e-01
838000000.0 -6.969260000e-01 6.928880000e-01
847000000.0 -6.959720000e-01 6.972000000e-01
856000000.0 -6.873680000e-01 7.048190000e-01
865000000.0 -6.831680000e-01 7.064430000e-01
874000000.0 -6.752450000e-01 7.147500000e-01
883000000.0 -6.672680000e-01 7.183630000e-01
892000000.0 -6.614950000e-01 7.267390000e-01
901000000.0 -6.573550000e-01 7.297180000e-01
910000000.0 -6.508780000e-01 7.345700000e-01
919000000.0 -6.481510000e-01 7.435650000e-01
928000000.0 -6.377700000e-01 7.496610000e-01
937000000.0 -6.354520000e-01 7.535850000e-01
946000000.0 -6.270130000e-01 7.626600000e-01
955000000.0 -6.257220000e-01 7.662060000e-01
964000000.0 -6.219340000e-01 7.708790000e-01
973000000.0 -6.126370000e-01 7.782330000e-01
982000000.0 -6.054230000e-01 7.817420000e-01
991000000.0 -6.005840000e-01 7.869760000e-01
1000000000.0 -5.896620000e-01 7.949620000e-01
1004500000.0 -5.876970000e-01 7.967980000e-01
1009000000.0 -5.814630000e-01 8.009210000e-01
1013500000.0 -5.792190000e-01 7.998100000e-01
1018000000.0 -5.740950000e-01 8.036350000e-01
1022500000.0 -5.686290000e-01 8.072850000e-01
1027000000.0 -5.637890000e-01 8.101050000e-01
1031500000.0 -5.601680000e-01 8.107310000e-01
1036000000.0 -5.584460000e-01 8.105120000e-01
1040500000.0 -5.519340000e-01 8.136580000e-01
1045000000.0 -5.507410000e-01 8.158110000e-01
1049500000.0 -5.439720000e-01 8.189000000e-01
1054000000.0 -5.427760000e-01 8.192770000e-01
1058500000.0 -5.381050000e-01 8.234840000e-01
1063000000.0 -5.351740000e-01 8.278950000e-01
1067500000.0 -5.337410000e-01 8.284030000e-01
1072000000.0 -5.292660000e-01 8.337750000e-01
1076500000.0 -5.291180000e-01 8.340640000e-01
1081000000.0 -5.232710000e-01 8.381190000e-01
1085500000.0 -5.174190000e-01 8.431300000e-01
1090000000.0 -5.172460000e-01 8.457410000e-01
1094500000.0 -5.125740000e-01 8.475490000e-01
1099000000.0 -5.113940000e-01 8.493990000e-01
1103500000.0 -5.068670000e-01 8.522390000e-01
1108000000.0 -5.050270000e-01 8.532280000e-01
1112500000.0 -5.013950000e-01 8.568020000e-01
1117000000.0 -4.974050000e-01 8.598680000e-01
1121500000.0 -4.880200000e-01 8.631490000e-01
1126000000.0 -5.643380000e-01 9.396630000e-01
1130500000.0 -5.199930000e-01 8.535840000e-01
1135000000.0 -4.651880000e-01 8.734510000e-01
1139500000.0 -4.775690000e-01 8.683440000e-01
1144000000.0 -4.716160000e-01 8.714280000e-01
1148500000.0 -4.701660000e-01 8.732560000e-01
1153000000.0 -4.480330000e-01 8.792830000e-01
1157500000.0 -4.231810000e-01 8.852800000e-01
1162000000.0 -4.595780000e-01 8.759160000e-01
1166500000.0 -4.513480000e-01 8.791740000e-01
1171000000.0 -4.499320000e-01 8.775360000e-01
1175500000.0 -4.429260000e-01 8.781240000e-01
1180000000.0 -4.375220000e-01 8.818260000e-01
1184500000.0 -4.325040000e-01 8.831050000e-01
1189000000.0 -4.286500000e-01 8.839200000e-01
1193500000.0 -4.218340000e-01 8.869750000e-01
1198000000.0 -4.206650000e-01 8.841310000e-01
1202500000.0 -4.144630000e-01 8.870800000e-01
1207000000.0 -4.106660000e-01 8.917430000e-01
1211500000.0 -4.052610000e-01 8.924800000e-01
1216000000.0 -4.045910000e-01 8.939560000e-01
1220500000.0 -4.021050000e-01 8.950140000e-01
1225000000.0 -3.942960000e-01 8.986450000e-01
1229500000.0 -3.912880000e-01 9.016850000e-01
1234000000.0 -3.891710000e-01 9.012530000e-01
1238500000.0 -3.838080000e-01 9.038830000e-01
1243000000.0 -3.792590000e-01 9.087850000e-01
1247500000.0 -3.757710000e-01 9.097920000e-01
1252000000.0 -3.738160000e-01 9.119490000e-01
1256500000.0 -3.631690000e-01 9.138410000e-01
1261000000.0 -3.613150000e-01 9.143790000e-01
1265500000.0 -3.583840000e-01 9.138400000e-01
1270000000.0 -3.566530000e-01 9.153550000e-01
1274500000.0 -3.509700000e-01 9.199280000e-01
1279000000.0 -3.494010000e-01 9.196790000e-01
1283500000.0 -3.387910000e-01 9.217200000e-01
1288000000.0 -3.193190000e-01 9.275650000e-01
1292500000.0 -3.460990000e-01 9.186560000e-01
1297000000.0 -3.234840000e-01 9.228920000e-01
1301500000.0 -3.288280000e-01 9.223080000e-01
1306000000.0 -3.201210000e-01 9.255440000e-01
1310500000.0 -3.182200000e-01 9.210780000e-01
1315000000.0 -3.100710000e-01 9.246780000e-01
1319500000.0 -3.095310000e-01 9.236840000e-01
1324000000.0 -3.030410000e-01 9.278490000e-01
1328500000.0 -2.975340000e-01 9.239730000e-01
1333000000.0 -2.997830000e-01 9.279330000e-01
1337500000.0 -2.856740000e-01 9.289370000e-01
1342000000.0 -2.838480000e-01 9.286750000e-01
1346500000.0 -2.786990000e-01 9.235850000e-01
1351000000.0 -2.808260000e-01 9.263900000e-01
1355500000.0 -2.741670000e-01 9.295250000e-01
1360000000.0 -2.652510000e-01 9.282680000e-01
1364500000.0 -2.659880000e-01 9.342910000e-01
1369000000.0 -2.585300000e-01 9.388960000e-01
1373500000.0 -2.587490000e-01 9.382850000e-01
1378000000.0 -2.446320000e-01 9.386860000e-01
1382500000.0 -2.366420000e-01 9.388590000e-01
1387000000.0 -2.408510000e-01 9.388060000e-01
1391500000.0 -2.376490000e-01 9.474340000e-01
1396000000.0 -2.332310000e-01 9.457320000e-01
1400500000.0 -2.191280000e-01 9.422570000e-01
1405000000.0 -2.246760000e-01 9.477840000e-01
1409500000.0 -2.196210000e-01 9.448460000e-01
1414000000.0 -2.100170000e-01 9.491740000e-01
1418500000.0 -2.094840000e-01 9.498790000e-01
1423000000.0 -2.008020000e-01 9.555760000e-01
1427500000.0 -2.024190000e-01 9.572860000e-01
1432000000.0 -1.933150000e-01 9.552200000e-01
1436500000.0 -1.940630000e-01 9.519480000e-01
1441000000.0 -1.872980000e-01 9.526050000e-01
1445500000.0 -1.760430000e-01 9.630800000e-01
1450000000.0 -1.822720000e-01 9.592360000e-01
