! piloto_corto / aire / r09
# HZ S RI R 50
50000.0 1.007172000e+00 -7.288000000e-02
59500.0 1.006776000e+00 -5.968300000e-02
69000.0 1.004144000e+00 -4.646800000e-02
78500.0 1.002122000e+00 -3.329600000e-02
88000.0 1.001615000e+00 -1.974500000e-02
97500.0 9.996460000e-01 -9.060000000e-03
107000.0 9.998600000e-01 4.407000000e-03
116500.0 9.997310000e-01 1.662100000e-02
126000.0 1.000020000e+00 3.135400000e-02
135500.0 9.998340000e-01 4.032100000e-02
145000.0 1.000664000e+00 5.193900000e-02
154500.0 1.000360000e+00 6.433000000e-02
164000.0 1.001851000e+00 7.616300000e-02
173500.0 1.001184000e+00 8.792900000e-02
183000.0 1.001449000e+00 9.955400000e-02
192500.0 1.001751000e+00 1.109790000e-01
202000.0 1.002274000e+00 1.222360000e-01
211500.0 1.002023000e+00 1.347650000e-01
221000.0 1.002687000e+00 1.447610000e-01
230500.0 1.003084000e+00 1.566210000e-01
240000.0 1.003880000e+00 1.677820000e-01
249500.0 1.002388000e+00 1.972500000e-01
259000.0 1.004131000e+00 1.899960000e-01
268500.0 1.004367000e+00 2.011270000e-01
278000.0 1.004268000e+00 2.118960000e-01
287500.0 1.004266000e+00 2.225540000e-01
297000.0 1.005198000e+00 2.338810000e-01
306500.0 1.004271000e+00 2.441790000e-01
316000.0 1.005333000e+00 2.550720000e-01
325500.0 1.005612000e+00 2.659980000e-01
335000.0 1.004811000e+00 2.764330000e-01
344500.0 1.005466000e+00 2.874520000e-01
354000.0 1.005312000e+00 2.970340000e-01
363500.0 1.005666000e+00 3.080740000e-01
373000.0 1.005708000e+00 3.176020000e-01
382500.0 1.005830000e+00 3.289160000e-01
392000.0 1.006506000e+00 3.383270000e-01
401500.0 1.006540000e+00 3.486600000e-01
411000.0 1.006853000e+00 3.589770000e-01
420500.0 1.006814000e+00 3.691430000e-01
430000.0 1.007331000e+00 3.781190000e-01
439500.0 1.006725000e+00 3.901790000e-01
449000.0 1.007779000e+00 3.997440000e-01
458500.0 1.007524000e+00 4.085870000e-01
468000.0 1.007665000e+00 4.195400000e-01
477500.0 1.013037000e+00 4.111640000e-01
487000.0 9.982720000e-01 4.240110000e-01
496500.0 1.015319000e+00 4.308180000e-01
506000.0 1.002575000e+00 4.772240000e-01
515500.0 1.015268000e+00 4.496510000e-01
525000.0 1.002638000e+00 4.972540000e-01
534500.0 1.016384000e+00 4.699630000e-01
544000.0 1.002708000e+00 5.161780000e-01
553500.0 1.010917000e+00 5.082570000e-01
563000.0 1.010318000e+00 5.166860000e-01
572500.0 1.011304000e+00 5.271150000e-01
582000.0 1.011912000e+00 5.365120000e-01
591500.0 1.010905000e+00 5.464680000e-01
601000.0 1.012924000e+00 5.556990000e-01
610500.0 1.012591000e+00 5.659620000e-01
620000.0 1.013299000e+00 5.748250000e-01
629500.0 1.013431000e+00 5.844910000e-01
639000.0 1.014418000e+00 5.940310000e-01
648500.0 1.013900000e+00 6.028440000e-01
658000.0 1.015823000e+00 6.114780000e-01
667500.0 1.015321000e+00 6.210360000e-01
677000.0 1.017312000e+00 6.311190000e-01
686500.0 1.018359000e+00 6.398520000e-01
696000.0 1.017987000e+00 6.486710000e-01
705500.0 1.018748000e+00 6.583770000e-01
715000.0 1.020263000e+00 6.681660000e-01
724500.0 1.021153000e+00 6.774910000e-01
734000.0 1.020850000e+00 6.867570000e-01
743500.0 1.022492000e+00 6.951880000e-01
753000.0 1.023144000e+00 7.049500000e-01
762500.0 1.024569000e+00 7.142740000e-01
772000.0 1.024974000e+00 7.217850000e-01
781500.0 1.026857000e+00 7.318590000e-01
791000.0 1.026783000e+00 7.411350000e-01
800500.0 1.027418000e+00 7.497760000e-01
810000.0 1.029515000e+00 7.594750000e-01
819500.0 1.030491000e+00 7.682310000e-01
829000.0 1.031422000e+00 7.760760000e-01
838500.0 1.033754000e+00 7.866710000e-01
848000.0 1.035378000e+00 7.964860000e-01
857500.0 1.036892000e+00 8.044140000e-01
867000.0 1.038128000e+00 8.125450000e-01
876500.0 1.040842000e+00 8.215000000e-01
886000.0 1.042397000e+00 8.288370000e-01
895500.0 1.044036000e+00 8.383150000e-01
905000.0 1.044524000e+00 8.485170000e-01
914500.0 1.046181000e+00 8.565800000e-01
924000.0 1.047655000e+00 8.653310000e-01
933500.0 1.051382000e+00 8.745130000e-01
943000.0 1.054137000e+00 8.833960000e-01
952500.0 1.055515000e+00 8.905170000e-01
962000.0 1.057076000e+00 9.007600000e-01
971500.0 1.059017000e+00 9.079220000e-01
981000.0 1.061215000e+00 9.173490000e-01
990500.0 1.062918000e+00 9.254130000e-01
1000000.0 1.067200000e+00 9.345810000e-01
1090000.0 1.090972000e+00 1.011961000e+00
1180000.0 1.125535000e+00 1.088192000e+00
1270000.0 1.171667000e+00 1.158602000e+00
1360000.0 1.225399000e+00 1.219972000e+00
1450000.0 1.289388000e+00 1.273064000e+00
1540000.0 1.362439000e+00 1.313691000e+00
1630000.0 1.441807000e+00 1.342729000e+00
1720000.0 1.531523000e+00 1.349057000e+00
1810000.0 1.618288000e+00 1.342328000e+00
1900000.0 1.706774000e+00 1.311594000e+00
1990000.0 1.782113000e+00 1.262580000e+00
2080000.0 1.848013000e+00 1.199085000e+00
2170000.0 1.903307000e+00 1.119108000e+00
2260000.0 1.935516000e+00 1.034433000e+00
2350000.0 1.953762000e+00 9.462400000e-01
2440000.0 1.955703000e+00 8.588730000e-01
2530000.0 1.946967000e+00 7.739800000e-01
2620000.0 1.921764000e+00 6.964480000e-01
2710000.0 1.899023000e+00 6.260880000e-01
2800000.0 1.862529000e+00 5.666450000e-01
2890000.0 1.824776000e+00 5.123850000e-01
2980000.0 1.786094000e+00 4.619720000e-01
3070000.0 1.748545000e+00 4.215290000e-01
3160000.0 1.710931000e+00 3.833100000e-01
3250000.0 1.672942000e+00 3.505690000e-01
3340000.0 1.639825000e+00 3.203050000e-01
3430000.0 1.606510000e+00 2.966520000e-01
3520000.0 1.576231000e+00 2.689400000e-01
3610000.0 1.546770000e+00 2.479650000e-01
3700000.0 1.519229000e+00 2.265460000e-01
3790000.0 1.492368000e+00 2.074930000e-01
3880000.0 1.468250000e+00 1.894900000e-01
3970000.0 1.446073000e+00 1.729960000e-01
4060000.0 1.427816000e+00 1.570030000e-01
4150000.0 1.408065000e+00 1.410050000e-01
4240000.0 1.389807000e+00 1.258490000e-01
4330000.0 1.374405000e+00 1.116400000e-01
4420000.0 1.360933000e+00 9.710800000e-02
4510000.0 1.347422000e+00 8.349500000e-02
4600000.0 1.335092000e+00 7.007900000e-02
4690000.0 1.323780000e+00 5.581400000e-02
4780000.0 1.312665000e+00 4.290100000e-02
4870000.0 1.306148000e+00 2.952400000e-02
4960000.0 1.297297000e+00 1.679800000e-02
5050000.0 1.282590000e+00 3.414000000e-03
5140000.0 1.276818000e+00 -8.504000000e-03
5230000.0 1.272553000e+00 -2.050200000e-02
5320000.0 1.267993000e+00 -3.351100000e-02
5410000.0 1.262950000e+00 -4.525200000e-02
5500000.0 1.258759000e+00 -5.717600000e-02
5590000.0 1.254305000e+00 -6.822300000e-02
5680000.0 1.250714000e+00 -8.124300000e-02
5770000.0 1.247625000e+00 -9.106700000e-02
5860000.0 1.243880000e+00 -1.012270000e-01
5950000.0 1.241762000e+00 -1.128910000e-01
6040000.0 1.239347000e+00 -1.225700000e-01
6130000.0 1.236106000e+00 -1.335860000e-01
6220000.0 1.233313000e+00 -1.425840000e-01
6310000.0 1.231712000e+00 -1.515380000e-01
6400000.0 1.228650000e+00 -1.596380000e-01
6490000.0 1.228475000e+00 -1.678380000e-01
6580000.0 1.225575000e+00 -1.752960000e-01
6670000.0 1.223589000e+00 -1.822090000e-01
6760000.0 1.222724000e+00 -1.876690000e-01
6850000.0 1.220950000e+00 -1.930700000e-01
6940000.0 1.220098000e+00 -1.981710000e-01
7030000.0 1.219374000e+00 -2.021790000e-01
7120000.0 1.219872000e+00 -2.060510000e-01
7210000.0 1.218460000e+00 -2.094510000e-01
7300000.0 1.218051000e+00 -2.104550000e-01
7390000.0 1.217929000e+00 -2.117880000e-01
7480000.0 1.218869000e+00 -2.118020000e-01
7570000.0 -2.613560000e-01 -1.256819000e+00
7660000.0 -2.604930000e-01 -1.257029000e+00
7750000.0 -2.600250000e-01 -1.257803000e+00
7840000.0 -2.593520000e-01 -1.259142000e+00
7930000.0 -2.596460000e-01 -1.258483000e+00
8020000.0 -2.575740000e-01 -1.259002000e+00
8110000.0 -2.575630000e-01 -1.259090000e+00
8200000.0 -2.579840000e-01 -1.260596000e+00
8290000.0 -2.561920000e-01 -1.261006000e+00
8380000.0 -2.563830000e-01 -1.260469000e+00
8470000.0 -2.552850000e-01 -1.260606000e+00
8560000.0 -2.552090000e-01 -1.261723000e+00
8650000.0 -2.551840000e-01 -1.261927000e+00
8740000.0 -2.544920000e-01 -1.263262000e+00
8830000.0 -2.544520000e-01 -1.264107000e+00
8920000.0 -2.534800000e-01 -1.264586000e+00
9010000.0 -2.529880000e-01 -1.264189000e+00
9100000.0 -2.533730000e-01 -1.264993000e+00
9190000.0 -2.512350000e-01 -1.266469000e+00
9280000.0 -2.520670000e-01 -1.266852000e+00
9370000.0 -2.510900000e-01 -1.267114000e+00
9460000.0 -2.501920000e-01 -1.268867000e+00
9550000.0 -2.507500000e-01 -1.268482000e+00
9640000.0 -2.500380000e-01 -1.270143000e+00
9730000.0 -2.496070000e-01 -1.270361000e+00
9820000.0 -2.495840000e-01 -1.270920000e+00
9910000.0 -2.486900000e-01 -1.272311000e+00
10000000.0 -2.469470000e-01 -1.272962000e+00
10900000.0 -2.443140000e-01 -1.280571000e+00
11800000.0 -2.409620000e-01 -1.290951000e+00
12700000.0 -2.369590000e-01 -1.300808000e+00
13600000.0 -2.325420000e-01 -1.310810000e+00
14500000.0 -2.295530000e-01 -1.320945000e+00
15400000.0 -2.255580000e-01 -1.330366000e+00
16300000.0 -2.212420000e-01 -1.344205000e+00
17200000.0 -2.160500000e-01 -1.354547000e+00
18100000.0 -2.120930000e-01 -1.368127000e+00
19000000.0 -2.084980000e-01 -1.379669000e+00
19900000.0 -2.032800000e-01 -1.390946000e+00
20800000.0 -1.979640000e-01 -1.404422000e+00
21700000.0 -1.907290000e-01 -1.418392000e+00
22600000.0 -1.859730000e-01 -1.430504000e+00
23500000.0 -1.787630000e-01 -1.444025000e+00
24400000.0 -1.716760000e-01 -1.458586000e+00
25300000.0 -1.641630000e-01 -1.471476000e+00
26200000.0 -1.553850000e-01 -1.486473000e+00
27100000.0 -1.475730000e-01 -1.499340000e+00
28000000.0 -1.402250000e-01 -1.513017000e+00
28900000.0 -1.317560000e-01 -1.528199000e+00
29800000.0 -1.942870000e-01 -1.510305000e+00
30700000.0 -1.098120000e-01 -1.557368000e+00
31600000.0 -9.967200000e-02 -1.572937000e+00
32500000.0 -8.767000000e-02 -1.588591000e+00
33400000.0 -7.618000000e-02 -1.602894000e+00
34300000.0 -6.241900000e-02 -1.619175000e+00
35200000.0 -5.133300000e-02 -1.634658000e+00
36100000.0 -3.783800000e-02 -1.649414000e+00
37000000.0 -2.393200000e-02 -1.664896000e+00
37900000.0 -5.968000000e-03 -1.680081000e+00
38800000.0 8.222000000e-03 -1.696854000e+00
39700000.0 2.454100000e-02 -1.712258000e+00
40600000.0 4.331600000e-02 -1.728464000e+00
41500000.0 5.964200000e-02 -1.744032000e+00
42400000.0 7.772600000e-02 -1.760216000e+00
43300000.0 9.773700000e-02 -1.773333000e+00
44200000.0 1.179680000e-01 -1.788465000e+00
45100000.0 1.403530000e-01 -1.804162000e+00
46000000.0 1.638490000e-01 -1.818626000e+00
46900000.0 1.856250000e-01 -1.832063000e+00
47800000.0 2.085010000e-01 -1.846296000e+00
48700000.0 2.335220000e-01 -1.858762000e+00
49600000.0 2.610550000e-01 -1.872142000e+00
50500000.0 2.884620000e-01 -1.881548000e+00
51400000.0 3.143990000e-01 -1.895106000e+00
52300000.0 3.428910000e-01 -1.904784000e+00
53200000.0 3.740360000e-01 -1.914875000e+00
54100000.0 4.039960000e-01 -1.924222000e+00
55000000.0 4.356030000e-01 -1.932205000e+00
55900000.0 4.671830000e-01 -1.938764000e+00
56800000.0 5.003980000e-01 -1.944235000e+00
57700000.0 5.360280000e-01 -1.948735000e+00
58600000.0 5.683640000e-01 -1.951659000e+00
59500000.0 6.045160000e-01 -1.954595000e+00
60400000.0 6.394830000e-01 -1.954461000e+00
61300000.0 6.756860000e-01 -1.954438000e+00
62200000.0 7.113050000e-01 -1.951933000e+00
63100000.0 7.486810000e-01 -1.948074000e+00
64000000.0 7.853490000e-01 -1.946089000e+00
64900000.0 8.233720000e-01 -1.936307000e+00
65800000.0 8.613430000e-01 -1.928705000e+00
66700000.0 8.962720000e-01 -1.917359000e+00
67600000.0 9.345990000e-01 -1.905219000e+00
68500000.0 9.704680000e-01 -1.892328000e+00
69400000.0 1.006786000e+00 -1.875721000e+00
70300000.0 1.044053000e+00 -1.859690000e+00
71200000.0 1.078845000e+00 -1.840726000e+00
72100000.0 1.111020000e+00 -1.819118000e+00
73000000.0 1.145805000e+00 -1.798877000e+00
73900000.0 1.176970000e+00 -1.774293000e+00
74800000.0 1.207223000e+00 -1.748750000e+00
75700000.0 1.240948000e+00 -1.720583000e+00
76600000.0 1.269018000e+00 -1.693168000e+00
77500000.0 1.293268000e+00 -1.663715000e+00
78400000.0 1.316913000e+00 -1.638677000e+00
79300000.0 1.343359000e+00 -1.607539000e+00
80200000.0 1.367519000e+00 -1.573904000e+00
81100000.0 1.386395000e+00 -1.543023000e+00
82000000.0 1.404795000e+00 -1.508774000e+00
82900000.0 1.422714000e+00 -1.475417000e+00
83800000.0 1.438363000e+00 -1.442428000e+00
84700000.0 1.455069000e+00 -1.407161000e+00
85600000.0 1.464792000e+00 -1.375407000e+00
86500000.0 1.478127000e+00 -1.340971000e+00
87400000.0 1.486330000e+00 -1.306833000e+00
88300000.0 1.494594000e+00 -1.275356000e+00
89200000.0 1.502924000e+00 -1.239607000e+00
90100000.0 1.507265000e+00 -1.206788000e+00
91000000.0 1.513406000e+00 -1.173693000e+00
91900000.0 1.514185000e+00 -1.144877000e+00
92800000.0 1.517739000e+00 -1.111610000e+00
93700000.0 1.517378000e+00 -1.080380000e+00
94600000.0 1.515565000e+00 -1.048391000e+00
95500000.0 1.516860000e+00 -1.019406000e+00
96400000.0 1.512217000e+00 -9.908080000e-01
97300000.0 1.510164000e+00 -9.644290000e-01
98200000.0 1.504755000e+00 -9.346270000e-01
99100000.0 1.502100000e+00 -9.074800000e-01
100000000.0 1.495912000e+00 -8.807650000e-01
109000000.0 1.415543000e+00 -6.585750000e-01
118000000.0 1.310208000e+00 -4.959130000e-01
127000000.0 1.203376000e+00 -3.834360000e-01
136000000.0 1.102679000e+00 -3.096270000e-01
145000000.0 1.012236000e+00 -2.523830000e-01
154000000.0 9.637710000e-01 -2.338910000e-01
163000000.0 9.611570000e-01 -2.472700000e-01
172000000.0 9.568600000e-01 -2.611330000e-01
181000000.0 9.530620000e-01 -2.734500000e-01
190000000.0 9.496920000e-01 -2.868640000e-01
199000000.0 9.456920000e-01 -2.985520000e-01
208000000.0 9.409010000e-01 -3.115890000e-01
217000000.0 9.352190000e-01 -3.242680000e-01
226000000.0 9.326040000e-01 -3.371000000e-01
235000000.0 9.275390000e-01 -3.475530000e-01
244000000.0 9.220980000e-01 -3.590890000e-01
253000000.0 9.158190000e-01 -3.721730000e-01
262000000.0 9.114610000e-01 -3.827390000e-01
271000000.0 9.055360000e-01 -3.945270000e-01
280000000.0 8.994600000e-01 -4.066710000e-01
289000000.0 8.914560000e-01 -4.186900000e-01
298000000.0 8.845200000e-01 -4.293620000e-01
307000000.0 8.782090000e-01 -4.423410000e-01
316000000.0 8.767390000e-01 -4.516740000e-01
325000000.0 8.688080000e-01 -4.642200000e-01
334000000.0 8.622230000e-01 -4.740120000e-01
343000000.0 8.584170000e-01 -4.849350000e-01
352000000.0 8.125080000e-01 -5.283250000e-01
361000000.0 8.468740000e-01 -5.049870000e-01
370000000.0 8.395600000e-01 -5.147340000e-01
379000000.0 8.325330000e-01 -5.269270000e-01
388000000.0 8.664870000e-01 -5.035590000e-01
397000000.0 8.179140000e-01 -5.462390000e-01
406000000.0 8.114620000e-01 -5.551620000e-01
415000000.0 8.023000000e-01 -5.655690000e-01
424000000.0 7.910310000e-01 -5.753590000e-01
433000000.0 7.842460000e-01 -5.841960000e-01
442000000.0 7.745210000e-01 -5.922290000e-01
451000000.0 7.675130000e-01 -6.021450000e-01
460000000.0 7.606540000e-01 -6.113910000e-01
469000000.0 7.551140000e-01 -6.225900000e-01
478000000.0 7.477170000e-01 -6.331740000e-01
487000000.0 7.439200000e-01 -6.414450000e-01
496000000.0 7.354980000e-01 -6.511770000e-01
505000000.0 7.303140000e-01 -6.611480000e-01
514000000.0 7.231040000e-01 -6.676020000e-01
523000000.0 7.131410000e-01 -6.788240000e-01
532000000.0 7.070540000e-01 -6.855030000e-01
541000000.0 6.972500000e-01 -6.942390000e-01
550000000.0 6.881750000e-01 -7.036210000e-01
559000000.0 6.776750000e-01 -7.122400000e-01
568000000.0 6.685600000e-01 -7.224120000e-01
577000000.0 6.566430000e-01 -7.293700000e-01
586000000.0 6.467850000e-01 -7.354750000e-01
595000000.0 6.372950000e-01 -7.425870000e-01
604000000.0 6.283890000e-01 -7.494340000e-01
613000000.0 6.199480000e-01 -7.611750000e-01
622000000.0 6.119600000e-01 -7.702220000e-01
631000000.0 6.018080000e-01 -7.774020000e-01
640000000.0 5.935170000e-01 -7.930490000e-01
649000000.0 5.877400000e-01 -7.967790000e-01
658000000.0 5.782380000e-01 -8.064820000e-01
667000000.0 5.717630000e-01 -8.132680000e-01
676000000.0 5.607690000e-01 -8.230740000e-01
685000000.0 5.457160000e-01 -8.256740000e-01
694000000.0 5.375570000e-01 -8.326720000e-01
703000000.0 5.273880000e-01 -8.393720000e-01
712000000.0 5.133360000e-01 -8.385410000e-01
721000000.0 5.035000000e-01 -8.457350000e-01
730000000.0 4.901790000e-01 -8.478070000e-01
739000000.0 4.796670000e-01 -8.471740000e-01
748000000.0 4.660470000e-01 -8.506180000e-01
757000000.0 4.537590000e-01 -8.578630000e-01
766000000.0 4.400260000e-01 -8.664100000e-01
775000000.0 4.245210000e-01 -8.772140000e-01
784000000.0 4.179910000e-01 -8.799770000e-01
793000000.0 4.054330000e-01 -8.901060000e-01
802000000.0 3.951890000e-01 -8.940840000e-01
811000000.0 3.860160000e-01 -8.972570000e-01
820000000.0 3.746780000e-01 -9.045390000e-01
829000000.0 3.626060000e-01 -9.072380000e-01
838000000.0 3.531720000e-01 -9.096750000e-01
847000000.0 3.441500000e-01 -9.139310000e-01
856000000.0 3.331610000e-01 -9.161980000e-01
865000000.0 3.277660000e-01 -9.171180000e-01
874000000.0 3.166670000e-01 -9.182360000e-01
883000000.0 3.099390000e-01 -9.173890000e-01
892000000.0 2.945080000e-01 -9.218560000e-01
901000000.0 2.942390000e-01 -9.191750000e-01
910000000.0 2.768860000e-01 -9.218010000e-01
919000000.0 2.654420000e-01 -9.242450000e-01
928000000.0 2.518010000e-01 -9.285970000e-01
937000000.0 2.424360000e-01 -9.315060000e-01
946000000.0 2.318670000e-01 -9.330370000e-01
955000000.0 2.156670000e-01 -9.365270000e-01
964000000.0 2.093900000e-01 -9.369170000e-01
973000000.0 2.014610000e-01 -9.388010000e-01
982000000.0 1.889890000e-01 -9.408240000e-01
991000000.0 1.809920000e-01 -9.418750000e-01
1000000000.0 1.725740000e-01 -9.428650000e-01
1004500000.0 1.638630000e-01 -9.454170000e-01
1009000000.0 1.802790000e-01 -9.435380000e-01
1013500000.0 1.601860000e-01 -9.454370000e-01
1018000000.0 1.510220000e-01 -9.475560000e-01
1022500000.0 1.483450000e-01 -9.469380000e-01
1027000000.0 1.649010000e-01 -9.475000000e-01
1031500000.0 1.390440000e-01 -9.505170000e-01
1036000000.0 1.143810000e-01 -9.516500000e-01
1040500000.0 1.292640000e-01 -9.512050000e-01
1045000000.0 1.427090000e-01 -9.510910000e-01
1049500000.0 1.230410000e-01 -9.527720000e-01
1054000000.0 9.576000000e-02 -9.556470000e-01
1058500000.0 1.127710000e-01 -9.542150000e-01
1063000000.0 1.059230000e-01 -9.558630000e-01
1067500000.0 1.005220000e-01 -9.533530000e-01
1072000000.0 9.382500000e-02 -9.550250000e-01
1076500000.0 8.934300000e-02 -9.561440000e-01
1081000000.0 8.771400000e-02 -9.565570000e-01
1085500000.0 8.131900000e-02 -9.568600000e-01
1090000000.0 7.838200000e-02 -9.577890000e-01
1094500000.0 7.532700000e-02 -9.567770000e-01
1099000000.0 6.805400000e-02 -9.585740000e-01
1103500000.0 6.225400000e-02 -9.589660000e-01
1108000000.0 5.050400000e-02 -9.598390000e-01
1112500000.0 5.161700000e-02 -9.614750000e-01
1117000000.0 4.604600000e-02 -9.581310000e-01
1121500000.0 4.680900000e-02 -9.599660000e-01
1126000000.0 3.805200000e-02 -9.621140000e-01
1130500000.0 8.590000000e-04 -9.534470000e-01
1135000000.0 2.679600000e-02 -9.603550000e-01
1139500000.0 2.363400000e-02 -9.599080000e-01
1144000000.0 1.816700000e-02 -9.619780000e-01
1148500000.0 -6.050000000e-04 -9.643250000e-01
1153000000.0 6.714000000e-03 -9.610480000e-01
1157500000.0 4.000000000e-06 -9.634160000e-01
1162000000.0 -4.605000000e-03 -9.602790000e-01
1166500000.0 -1.693000000e-02 -9.568910000e-01
1171000000.0 -1.604200000e-02 -9.598860000e-01
1175500000.0 -1.969600000e-02 -9.587640000e-01
1180000000.0 -2.788200000e-02 -9.611870000e-01
1184500000.0 -3.151800000e-02 -9.623660000e-01
1189000000.0 -3.502900000e-02 -9.595570000e-01
1193500000.0 -4.292400000e-02 -9.577870000e-01
1198000000.0 -5.332500000e-02 -9.562900000e-01
1202500000.0 -4.941600000e-02 -9.583580000e-01
1207000000.0 -5.675200000e-02 -9.593860000e-01
1211500000.0 -6.285800000e-02 -9.581930000e-01
1216000000.0 -6.985300000e-02 -9.575470000e-01
1220500000.0 -7.029800000e-02 -9.594560000e-01
1225000000.0 -7.860400000e-02 -9.572320000e-01
1229500000.0 -7.802500000e-02 -9.583590000e-01
1234000000.0 -8.369200000e-02 -9.579330000e-01
1238500000.0 -8.229700000e-02 -9.606620000e-01
1243000000.0 -8.739700000e-02 -9.607220000e-01
1247500000.0 -9.730300000e-02 -9.565440000e-01
1252000000.0 -1.053830000e-01 -9.577760000e-01
1256500000.0 -1.071560000e-01 -9.543820000e-01
1261000000.0 -1.036060000e-01 -9.555420000e-01
1265500000.0 -1.184900000e-01 -9.542710000e-01
1270000000.0 -1.209330000e-01 -9.557180000e-01
1274500000.0 -1.248660000e-01 -9.557180000e-01
1279000000.0 -1.247230000e-01 -9.521050000e-01
1283500000.0 -1.328850000e-01 -9.527040000e-01
1288000000.0 -1.384420000e-01 -9.520360000e-01
1292500000.0 -1.383180000e-01 -9.496760000e-01
1297000000.0 -1.472510000e-01 -9.507960000e-01
1301500000.0 -1.478710000e-01 -9.535600000e-01
1306000000.0 -1.654140000e-01 -9.490240000e-01
1310500000.0 -1.563590000e-01 -9.465830000e-01
1315000000.0 -1.694870000e-01 -9.489970000e-01
1319500000.0 -1.703080000e-01 -9.428000000e-01
1324000000.0 -1.805130000e-01 -9.419300000e-01
1328500000.0 -1.779940000e-01 -9.487010000e-01
1333000000.0 -1.845130000e-01 -9.456560000e-01
1337500000.0 -1.999170000e-01 -9.458380000e-01
1342000000.0 -1.969630000e-01 -9.400000000e-01
1346500000.0 -2.075590000e-01 -9.312590000e-01
1351000000.0 -2.103520000e-01 -9.336750000e-01
1355500000.0 -2.102460000e-01 -9.358810000e-01
1360000000.0 -2.172490000e-01 -9.388950000e-01
1364500000.0 -2.189340000e-01 -9.411170000e-01
1369000000.0 -2.333940000e-01 -9.427410000e-01
1373500000.0 -2.246290000e-01 -9.451990000e-01
1378000000.0 -2.382210000e-01 -9.389750000e-01
1382500000.0 -2.415620000e-01 -9.406580000e-01
1387000000.0 -2.428410000e-01 -9.372750000e-01
1391500000.0 -2.437760000e-01 -9.318180000e-01
1396000000.0 -2.461420000e-01 -9.391820000e-01
1400500000.0 -2.537520000e-01 -9.429160000e-01
1405000000.0 -2.611250000e-01 -9.459140000e-01
1409500000.0 -2.551850000e-01 -9.466400000e-01
1414000000.0 -2.633440000e-01 -9.384210000e-01
1418500000.0 -2.727960000e-01 -9.365720000e-01
1423000000.0 -2.670730000e-01 -9.429580000e-01
1427500000.0 -2.880650000e-01 -9.377400000e-01
1432000000.0 -2.813890000e-01 -9.384990000e-01
1436500000.0 -2.932430000e-01 -9.294940000e-01
1441000000.0 -2.895900000e-01 -9.292370000e-01
1445500000.0 -3.001720000e-01 -9.322210000e-01
1450000000.0 -2.990920000e-01 -9.275430000e-01
