! piloto_corto / aire / r12
# HZ S RI R 50
50000.0 1.006123000e+00 -7.225400000e-02
59500.0 1.006806000e+00 -5.870700000e-02
69000.0 1.003733000e+00 -4.464800000e-02
78500.0 1.002512000e+00 -3.195700000e-02
88000.0 1.001774000e+00 -1.987600000e-02
97500.0 9.996010000e-01 -7.811000000e-03
107000.0 1.000096000e+00 4.642000000e-03
116500.0 9.989390000e-01 1.648600000e-02
126000.0 9.982240000e-01 2.922200000e-02
135500.0 1.000255000e+00 4.078200000e-02
145000.0 1.001053000e+00 5.292300000e-02
154500.0 1.001680000e+00 6.467700000e-02
164000.0 1.000808000e+00 7.699500000e-02
173500.0 1.001170000e+00 8.894500000e-02
183000.0 1.002014000e+00 1.003370000e-01
192500.0 1.002594000e+00 1.122310000e-01
202000.0 1.003065000e+00 1.237630000e-01
211500.0 1.002686000e+00 1.346150000e-01
221000.0 1.003129000e+00 1.459920000e-01
230500.0 1.002781000e+00 1.576030000e-01
240000.0 1.003035000e+00 1.685120000e-01
249500.0 1.003577000e+00 1.794710000e-01
259000.0 1.003770000e+00 1.907260000e-01
268500.0 1.004739000e+00 2.013960000e-01
278000.0 1.004664000e+00 2.120340000e-01
287500.0 1.005424000e+00 2.237990000e-01
297000.0 1.004612000e+00 2.341330000e-01
306500.0 1.005742000e+00 2.452070000e-01
316000.0 1.005852000e+00 2.554450000e-01
325500.0 1.004637000e+00 2.664870000e-01
335000.0 1.005058000e+00 2.769600000e-01
344500.0 1.004755000e+00 2.878920000e-01
354000.0 1.005831000e+00 2.984190000e-01
363500.0 1.005433000e+00 3.086390000e-01
373000.0 1.006015000e+00 3.187370000e-01
382500.0 1.006041000e+00 3.297660000e-01
392000.0 1.006781000e+00 3.397830000e-01
401500.0 1.006535000e+00 3.499730000e-01
411000.0 1.006756000e+00 3.603340000e-01
420500.0 1.007254000e+00 3.710340000e-01
430000.0 1.008137000e+00 3.803330000e-01
439500.0 1.007721000e+00 3.904070000e-01
449000.0 1.006577000e+00 4.009040000e-01
458500.0 1.007706000e+00 4.109750000e-01
468000.0 1.007956000e+00 4.206330000e-01
477500.0 1.008311000e+00 4.300870000e-01
487000.0 1.009502000e+00 4.401890000e-01
496500.0 1.008427000e+00 4.502380000e-01
506000.0 1.009833000e+00 4.609300000e-01
515500.0 1.009247000e+00 4.704380000e-01
525000.0 1.009760000e+00 4.808500000e-01
534500.0 1.010631000e+00 4.897530000e-01
544000.0 1.010162000e+00 5.007530000e-01
553500.0 1.010751000e+00 5.094790000e-01
563000.0 1.011102000e+00 5.186920000e-01
572500.0 1.010842000e+00 5.289520000e-01
582000.0 1.011286000e+00 5.379150000e-01
591500.0 1.012167000e+00 5.477090000e-01
601000.0 1.022294000e+00 5.720630000e-01
610500.0 1.013385000e+00 5.659720000e-01
620000.0 1.014522000e+00 5.759720000e-01
629500.0 1.013961000e+00 5.855130000e-01
639000.0 1.015011000e+00 5.960290000e-01
648500.0 1.016254000e+00 6.042750000e-01
658000.0 1.016245000e+00 6.134270000e-01
667500.0 1.017464000e+00 6.245210000e-01
677000.0 1.017798000e+00 6.336910000e-01
686500.0 1.018626000e+00 6.424390000e-01
696000.0 1.019069000e+00 6.518050000e-01
705500.0 1.019640000e+00 6.596000000e-01
715000.0 1.021900000e+00 6.697890000e-01
724500.0 1.021187000e+00 6.793010000e-01
734000.0 1.022856000e+00 6.872090000e-01
743500.0 1.022942000e+00 6.974940000e-01
753000.0 1.023606000e+00 7.069980000e-01
762500.0 1.024690000e+00 7.158900000e-01
772000.0 1.026260000e+00 7.251270000e-01
781500.0 1.027339000e+00 7.339760000e-01
791000.0 1.028510000e+00 7.432950000e-01
800500.0 1.030090000e+00 7.517980000e-01
810000.0 1.030816000e+00 7.604550000e-01
819500.0 1.031909000e+00 7.693460000e-01
829000.0 1.033616000e+00 7.786910000e-01
838500.0 1.035236000e+00 7.868360000e-01
848000.0 1.036506000e+00 7.963280000e-01
857500.0 1.037222000e+00 8.057690000e-01
867000.0 1.038564000e+00 8.138390000e-01
876500.0 1.041993000e+00 8.227750000e-01
886000.0 1.043277000e+00 8.325740000e-01
895500.0 1.044558000e+00 8.412980000e-01
905000.0 1.047084000e+00 8.506420000e-01
914500.0 1.049504000e+00 8.595160000e-01
924000.0 1.050390000e+00 8.673140000e-01
933500.0 1.051003000e+00 8.764560000e-01
943000.0 1.054363000e+00 8.851210000e-01
952500.0 1.056930000e+00 8.938610000e-01
962000.0 1.058704000e+00 9.025760000e-01
971500.0 1.061784000e+00 9.104080000e-01
981000.0 1.063845000e+00 9.190650000e-01
990500.0 1.065604000e+00 9.274240000e-01
1000000.0 1.067966000e+00 9.357190000e-01
1090000.0 1.093048000e+00 1.014727000e+00
1180000.0 1.127832000e+00 1.090025000e+00
1270000.0 1.174226000e+00 1.160045000e+00
1360000.0 1.227972000e+00 1.220352000e+00
1450000.0 1.291883000e+00 1.277737000e+00
1540000.0 1.367258000e+00 1.314673000e+00
1630000.0 1.447658000e+00 1.342208000e+00
1720000.0 1.537251000e+00 1.350940000e+00
1810000.0 1.625376000e+00 1.341094000e+00
1900000.0 1.708847000e+00 1.308913000e+00
1990000.0 1.790726000e+00 1.259310000e+00
2080000.0 1.856074000e+00 1.193684000e+00
2170000.0 1.907023000e+00 1.116287000e+00
2260000.0 1.941442000e+00 1.029848000e+00
2350000.0 1.959347000e+00 9.419180000e-01
2440000.0 1.959246000e+00 8.557070000e-01
2530000.0 1.945201000e+00 7.671850000e-01
2620000.0 1.925502000e+00 6.932900000e-01
2710000.0 1.895133000e+00 6.226760000e-01
2800000.0 1.860032000e+00 5.637190000e-01
2890000.0 1.824097000e+00 5.082870000e-01
2980000.0 1.785846000e+00 4.605340000e-01
3070000.0 1.747773000e+00 4.164320000e-01
3160000.0 1.709046000e+00 3.814900000e-01
3250000.0 1.672340000e+00 3.488200000e-01
3340000.0 1.639142000e+00 3.191270000e-01
3430000.0 1.605049000e+00 2.930110000e-01
3520000.0 1.574141000e+00 2.689080000e-01
3610000.0 1.544151000e+00 2.470190000e-01
3700000.0 1.517427000e+00 2.263650000e-01
3790000.0 1.491475000e+00 2.069180000e-01
3880000.0 1.467776000e+00 1.918430000e-01
3970000.0 1.445042000e+00 1.733200000e-01
4060000.0 1.426540000e+00 1.571120000e-01
4150000.0 1.406778000e+00 1.406610000e-01
4240000.0 1.388996000e+00 1.257020000e-01
4330000.0 1.373855000e+00 1.115360000e-01
4420000.0 1.359063000e+00 9.622500000e-02
4510000.0 1.347063000e+00 8.408700000e-02
4600000.0 1.332031000e+00 6.915200000e-02
4690000.0 1.322695000e+00 5.687200000e-02
4780000.0 1.313199000e+00 4.311500000e-02
4870000.0 1.304551000e+00 3.004000000e-02
4960000.0 1.296022000e+00 1.786300000e-02
5050000.0 1.280107000e+00 3.348000000e-03
5140000.0 1.276220000e+00 -8.126000000e-03
5230000.0 1.272350000e+00 -2.104500000e-02
5320000.0 1.267194000e+00 -3.308000000e-02
5410000.0 1.262202000e+00 -4.469400000e-02
5500000.0 1.259112000e+00 -5.677600000e-02
5590000.0 1.254803000e+00 -6.783100000e-02
5680000.0 1.249963000e+00 -7.988900000e-02
5770000.0 1.246948000e+00 -9.127600000e-02
5860000.0 1.243502000e+00 -1.018230000e-01
5950000.0 1.240757000e+00 -1.138750000e-01
6040000.0 1.238765000e+00 -1.218000000e-01
6130000.0 1.235782000e+00 -1.315170000e-01
6220000.0 1.231983000e+00 -1.421540000e-01
6310000.0 1.231525000e+00 -1.510840000e-01
6400000.0 1.228563000e+00 -1.594140000e-01
6490000.0 1.226684000e+00 -1.677160000e-01
6580000.0 1.224536000e+00 -1.744160000e-01
6670000.0 1.223994000e+00 -1.810900000e-01
6760000.0 1.222517000e+00 -1.884820000e-01
6850000.0 1.221756000e+00 -1.936410000e-01
6940000.0 1.220269000e+00 -1.973830000e-01
7030000.0 1.219447000e+00 -2.017990000e-01
7120000.0 1.218101000e+00 -2.053680000e-01
7210000.0 1.218694000e+00 -2.087450000e-01
7300000.0 1.216717000e+00 -2.102200000e-01
7390000.0 1.219050000e+00 -2.115430000e-01
7480000.0 1.218483000e+00 -2.107070000e-01
7570000.0 -2.606670000e-01 -1.256634000e+00
7660000.0 -2.611300000e-01 -1.257839000e+00
7750000.0 -2.606040000e-01 -1.256720000e+00
7840000.0 -2.593960000e-01 -1.258325000e+00
7930000.0 -2.599280000e-01 -1.257975000e+00
8020000.0 -2.586590000e-01 -1.257950000e+00
8110000.0 -2.582990000e-01 -1.259378000e+00
8200000.0 -2.574270000e-01 -1.259252000e+00
8290000.0 -2.554490000e-01 -1.260026000e+00
8380000.0 -2.566750000e-01 -1.260881000e+00
8470000.0 -2.781130000e-01 -1.254827000e+00
8560000.0 -2.331540000e-01 -1.268799000e+00
8650000.0 -2.773910000e-01 -1.256729000e+00
8740000.0 -2.316550000e-01 -1.269440000e+00
8830000.0 -2.768290000e-01 -1.257358000e+00
8920000.0 -2.304520000e-01 -1.271135000e+00
9010000.0 -2.756140000e-01 -1.257828000e+00
9100000.0 -2.291880000e-01 -1.270612000e+00
9190000.0 -2.749250000e-01 -1.259384000e+00
9280000.0 -2.515850000e-01 -1.266676000e+00
9370000.0 -2.516340000e-01 -1.267714000e+00
9460000.0 -2.509050000e-01 -1.267972000e+00
9550000.0 -2.501600000e-01 -1.268901000e+00
9640000.0 -2.494270000e-01 -1.270454000e+00
9730000.0 -2.492310000e-01 -1.269777000e+00
9820000.0 -2.496980000e-01 -1.271100000e+00
9910000.0 -2.479870000e-01 -1.273291000e+00
10000000.0 -2.482340000e-01 -1.272574000e+00
10900000.0 -2.448200000e-01 -1.280591000e+00
11800000.0 -2.416100000e-01 -1.290344000e+00
12700000.0 -2.357600000e-01 -1.300205000e+00
13600000.0 -2.336710000e-01 -1.310672000e+00
14500000.0 -2.292690000e-01 -1.322052000e+00
15400000.0 -2.251160000e-01 -1.332051000e+00
16300000.0 -2.212740000e-01 -1.345249000e+00
17200000.0 -2.160100000e-01 -1.355596000e+00
18100000.0 -2.135690000e-01 -1.367779000e+00
19000000.0 -2.098490000e-01 -1.379176000e+00
19900000.0 -2.024800000e-01 -1.392694000e+00
20800000.0 -1.962830000e-01 -1.404980000e+00
21700000.0 -1.907890000e-01 -1.417351000e+00
22600000.0 -1.855310000e-01 -1.429962000e+00
23500000.0 -1.784850000e-01 -1.443660000e+00
24400000.0 -1.721040000e-01 -1.458042000e+00
25300000.0 -1.642620000e-01 -1.471710000e+00
26200000.0 -1.567510000e-01 -1.484655000e+00
27100000.0 -1.480820000e-01 -1.499336000e+00
28000000.0 -1.396710000e-01 -1.513436000e+00
28900000.0 -1.301730000e-01 -1.528147000e+00
29800000.0 -1.217230000e-01 -1.542693000e+00
30700000.0 -1.109180000e-01 -1.559324000e+00
31600000.0 -9.887500000e-02 -1.573507000e+00
32500000.0 -8.820200000e-02 -1.588529000e+00
33400000.0 -7.574900000e-02 -1.603523000e+00
34300000.0 -6.391500000e-02 -1.619618000e+00
35200000.0 -5.109100000e-02 -1.634810000e+00
36100000.0 -3.680800000e-02 -1.650432000e+00
37000000.0 -2.351000000e-02 -1.666456000e+00
37900000.0 -7.031000000e-03 -1.680946000e+00
38800000.0 8.572000000e-03 -1.697227000e+00
39700000.0 2.345400000e-02 -1.712684000e+00
40600000.0 4.145800000e-02 -1.726740000e+00
41500000.0 5.840500000e-02 -1.742777000e+00
42400000.0 7.871600000e-02 -1.757789000e+00
43300000.0 9.802100000e-02 -1.774282000e+00
44200000.0 1.186510000e-01 -1.788869000e+00
45100000.0 1.402760000e-01 -1.801665000e+00
46000000.0 1.626790000e-01 -1.816236000e+00
46900000.0 1.859340000e-01 -1.831900000e+00
47800000.0 2.099460000e-01 -1.844900000e+00
48700000.0 2.347440000e-01 -1.858144000e+00
49600000.0 2.619880000e-01 -1.870262000e+00
50500000.0 2.871840000e-01 -1.882822000e+00
51400000.0 3.157080000e-01 -1.893532000e+00
52300000.0 3.431170000e-01 -1.903890000e+00
53200000.0 3.746230000e-01 -1.914034000e+00
54100000.0 4.034760000e-01 -1.924203000e+00
55000000.0 4.340070000e-01 -1.931580000e+00
55900000.0 4.673620000e-01 -1.937816000e+00
56800000.0 5.000450000e-01 -1.943462000e+00
57700000.0 5.341160000e-01 -1.947387000e+00
58600000.0 5.671600000e-01 -1.951501000e+00
59500000.0 6.027120000e-01 -1.953697000e+00
60400000.0 6.412390000e-01 -1.955915000e+00
61300000.0 6.759270000e-01 -1.955613000e+00
62200000.0 7.113770000e-01 -1.952276000e+00
63100000.0 7.480170000e-01 -1.948657000e+00
64000000.0 7.836870000e-01 -1.943082000e+00
64900000.0 8.227070000e-01 -1.937512000e+00
65800000.0 8.595540000e-01 -1.929634000e+00
66700000.0 8.981910000e-01 -1.916240000e+00
67600000.0 9.337000000e-01 -1.905549000e+00
68500000.0 9.704860000e-01 -1.889555000e+00
69400000.0 1.007735000e+00 -1.876538000e+00
70300000.0 1.043206000e+00 -1.859873000e+00
71200000.0 1.078720000e+00 -1.839551000e+00
72100000.0 1.112634000e+00 -1.818023000e+00
73000000.0 1.143486000e+00 -1.797846000e+00
73900000.0 1.176931000e+00 -1.773529000e+00
74800000.0 1.208531000e+00 -1.749263000e+00
75700000.0 1.238028000e+00 -1.722044000e+00
76600000.0 1.266491000e+00 -1.694500000e+00
77500000.0 1.294789000e+00 -1.664823000e+00
78400000.0 1.320753000e+00 -1.638005000e+00
79300000.0 1.344628000e+00 -1.605324000e+00
80200000.0 1.364486000e+00 -1.574867000e+00
81100000.0 1.388448000e+00 -1.541200000e+00
82000000.0 1.405650000e+00 -1.511175000e+00
82900000.0 1.423716000e+00 -1.475165000e+00
83800000.0 1.439451000e+00 -1.442300000e+00
84700000.0 1.454213000e+00 -1.409356000e+00
85600000.0 1.466385000e+00 -1.376848000e+00
86500000.0 1.477219000e+00 -1.340679000e+00
87400000.0 1.488467000e+00 -1.307157000e+00
88300000.0 1.494685000e+00 -1.274760000e+00
89200000.0 1.502557000e+00 -1.239553000e+00
90100000.0 1.508404000e+00 -1.208164000e+00
91000000.0 1.512230000e+00 -1.176470000e+00
91900000.0 1.516331000e+00 -1.142596000e+00
92800000.0 1.517915000e+00 -1.111828000e+00
93700000.0 1.517211000e+00 -1.081197000e+00
94600000.0 1.516980000e+00 -1.049536000e+00
95500000.0 1.517085000e+00 -1.019919000e+00
96400000.0 1.514449000e+00 -9.910570000e-01
97300000.0 1.509615000e+00 -9.629360000e-01
98200000.0 1.505230000e+00 -9.352250000e-01
99100000.0 1.501004000e+00 -9.069970000e-01
100000000.0 1.494866000e+00 -8.826720000e-01
109000000.0 1.415865000e+00 -6.563230000e-01
118000000.0 1.310085000e+00 -4.953940000e-01
127000000.0 1.204521000e+00 -3.842830000e-01
136000000.0 1.102318000e+00 -3.082590000e-01
145000000.0 1.011896000e+00 -2.527620000e-01
154000000.0 9.639750000e-01 -2.344630000e-01
163000000.0 9.596450000e-01 -2.467720000e-01
172000000.0 9.573520000e-01 -2.607750000e-01
181000000.0 9.541970000e-01 -2.735980000e-01
190000000.0 9.494960000e-01 -2.863660000e-01
199000000.0 9.456550000e-01 -2.996050000e-01
208000000.0 9.405390000e-01 -3.123270000e-01
217000000.0 9.371810000e-01 -3.235430000e-01
226000000.0 9.319470000e-01 -3.364740000e-01
235000000.0 9.272220000e-01 -3.482930000e-01
244000000.0 9.224020000e-01 -3.593920000e-01
253000000.0 9.153110000e-01 -3.710470000e-01
262000000.0 9.106630000e-01 -3.826630000e-01
271000000.0 9.039690000e-01 -3.952970000e-01
280000000.0 8.985520000e-01 -4.070740000e-01
289000000.0 8.913960000e-01 -4.174780000e-01
298000000.0 8.862450000e-01 -4.301230000e-01
307000000.0 8.797900000e-01 -4.395740000e-01
316000000.0 8.749720000e-01 -4.502990000e-01
325000000.0 8.686830000e-01 -4.626590000e-01
334000000.0 8.667050000e-01 -4.715900000e-01
343000000.0 8.599170000e-01 -4.852110000e-01
352000000.0 8.288100000e-01 -5.196910000e-01
361000000.0 8.452060000e-01 -5.066420000e-01
370000000.0 8.395930000e-01 -5.147120000e-01
379000000.0 8.563480000e-01 -5.001150000e-01
388000000.0 8.475820000e-01 -5.103880000e-01
397000000.0 8.167310000e-01 -5.459890000e-01
406000000.0 8.217190000e-01 -5.419520000e-01
415000000.0 7.997620000e-01 -5.650550000e-01
424000000.0 7.911610000e-01 -5.763020000e-01
433000000.0 7.820220000e-01 -5.835220000e-01
442000000.0 7.733310000e-01 -5.955910000e-01
451000000.0 7.624060000e-01 -6.024490000e-01
460000000.0 7.580320000e-01 -6.127020000e-01
469000000.0 7.530500000e-01 -6.229720000e-01
478000000.0 7.480700000e-01 -6.328620000e-01
487000000.0 7.419590000e-01 -6.421130000e-01
496000000.0 7.356330000e-01 -6.511310000e-01
505000000.0 7.278320000e-01 -6.594460000e-01
514000000.0 7.211930000e-01 -6.700760000e-01
523000000.0 7.115680000e-01 -6.776830000e-01
532000000.0 7.027590000e-01 -6.865350000e-01
541000000.0 6.981410000e-01 -6.966240000e-01
550000000.0 6.866400000e-01 -7.020600000e-01
559000000.0 6.775560000e-01 -7.139220000e-01
568000000.0 6.692120000e-01 -7.189870000e-01
577000000.0 6.554320000e-01 -7.307460000e-01
586000000.0 6.459630000e-01 -7.364670000e-01
595000000.0 6.353070000e-01 -7.419650000e-01
604000000.0 6.259830000e-01 -7.515530000e-01
613000000.0 6.182710000e-01 -7.617290000e-01
622000000.0 6.094550000e-01 -7.717460000e-01
631000000.0 5.998560000e-01 -7.786760000e-01
640000000.0 5.932000000e-01 -7.897530000e-01
649000000.0 5.848580000e-01 -7.970180000e-01
658000000.0 5.778080000e-01 -8.041680000e-01
667000000.0 5.592870000e-01 -8.151580000e-01
676000000.0 5.575150000e-01 -8.190790000e-01
685000000.0 5.464820000e-01 -8.233740000e-01
694000000.0 5.345890000e-01 -8.296430000e-01
703000000.0 5.242620000e-01 -8.352260000e-01
712000000.0 5.071950000e-01 -8.410850000e-01
721000000.0 5.023040000e-01 -8.427140000e-01
730000000.0 4.727920000e-01 -8.555420000e-01
739000000.0 4.770030000e-01 -8.487460000e-01
748000000.0 4.634880000e-01 -8.509870000e-01
757000000.0 4.503470000e-01 -8.586600000e-01
766000000.0 4.394900000e-01 -8.659250000e-01
775000000.0 4.291670000e-01 -8.738860000e-01
784000000.0 4.144650000e-01 -8.817950000e-01
793000000.0 4.054960000e-01 -8.867540000e-01
802000000.0 3.916000000e-01 -8.937830000e-01
811000000.0 3.827290000e-01 -8.974190000e-01
820000000.0 3.729030000e-01 -9.021060000e-01
829000000.0 3.579860000e-01 -9.056950000e-01
838000000.0 3.511550000e-01 -9.084830000e-01
847000000.0 3.360390000e-01 -9.141420000e-01
856000000.0 3.315310000e-01 -9.139780000e-01
865000000.0 3.208760000e-01 -9.149960000e-01
874000000.0 3.105520000e-01 -9.192300000e-01
883000000.0 2.999630000e-01 -9.173640000e-01
892000000.0 2.957720000e-01 -9.183930000e-01
901000000.0 2.846320000e-01 -9.200540000e-01
910000000.0 2.750380000e-01 -9.231800000e-01
919000000.0 2.631690000e-01 -9.255550000e-01
928000000.0 2.521850000e-01 -9.263560000e-01
937000000.0 2.378640000e-01 -9.312450000e-01
946000000.0 2.272820000e-01 -9.311370000e-01
955000000.0 2.190220000e-01 -9.336120000e-01
964000000.0 2.096530000e-01 -9.356740000e-01
973000000.0 1.972160000e-01 -9.365120000e-01
982000000.0 1.851300000e-01 -9.396760000e-01
991000000.0 1.760770000e-01 -9.408580000e-01
1000000000.0 1.676070000e-01 -9.411850000e-01
1004500000.0 1.651480000e-01 -9.420020000e-01
1009000000.0 1.582330000e-01 -9.439880000e-01
1013500000.0 1.569630000e-01 -9.457960000e-01
1018000000.0 1.491810000e-01 -9.461040000e-01
1022500000.0 1.451690000e-01 -9.461500000e-01
1027000000.0 1.420140000e-01 -9.475870000e-01
1031500000.0 1.308750000e-01 -9.494910000e-01
1036000000.0 1.307140000e-01 -9.487920000e-01
1040500000.0 1.273940000e-01 -9.504970000e-01
1045000000.0 1.237320000e-01 -9.504780000e-01
1049500000.0 1.179700000e-01 -9.503130000e-01
1054000000.0 1.125690000e-01 -9.501040000e-01
1058500000.0 1.086830000e-01 -9.524380000e-01
1063000000.0 1.063880000e-01 -9.528520000e-01
1067500000.0 9.562900000e-02 -9.535900000e-01
1072000000.0 9.547100000e-02 -9.540040000e-01
1076500000.0 8.816200000e-02 -9.536830000e-01
1081000000.0 8.210900000e-02 -9.559340000e-01
1085500000.0 7.482300000e-02 -9.563480000e-01
1090000000.0 7.385300000e-02 -9.568690000e-01
1094500000.0 4.805700000e-02 -9.571020000e-01
1099000000.0 4.840600000e-02 -9.562060000e-01
1103500000.0 7.774300000e-02 -9.586020000e-01
1108000000.0 5.166500000e-02 -9.582300000e-01
1112500000.0 2.800700000e-02 -9.577450000e-01
1117000000.0 4.494400000e-02 -9.602050000e-01
1121500000.0 7.373900000e-02 -9.606540000e-01
1126000000.0 -2.398000000e-03 -9.508060000e-01
1130500000.0 -3.821900000e-02 -9.414590000e-01
1135000000.0 1.808300000e-02 -9.612640000e-01
1139500000.0 1.523600000e-02 -9.600420000e-01
1144000000.0 1.232900000e-02 -9.613870000e-01
1148500000.0 6.140000000e-03 -9.566290000e-01
1153000000.0 -3.439300000e-02 -9.476790000e-01
1157500000.0 -2.645000000e-03 -9.583380000e-01
1162000000.0 -1.340400000e-02 -9.585110000e-01
1166500000.0 -1.804000000e-02 -9.551960000e-01
1171000000.0 -2.215400000e-02 -9.571500000e-01
1175500000.0 -2.751600000e-02 -9.579710000e-01
1180000000.0 -3.468300000e-02 -9.589130000e-01
1184500000.0 -3.819500000e-02 -9.551360000e-01
1189000000.0 -4.453200000e-02 -9.558420000e-01
1193500000.0 -4.970800000e-02 -9.575450000e-01
1198000000.0 -5.526700000e-02 -9.530740000e-01
1202500000.0 -5.773800000e-02 -9.537940000e-01
1207000000.0 -6.410400000e-02 -9.526550000e-01
1211500000.0 -6.882400000e-02 -9.559460000e-01
1216000000.0 -7.099300000e-02 -9.568860000e-01
1220500000.0 -7.359500000e-02 -9.563390000e-01
1225000000.0 -8.159500000e-02 -9.564210000e-01
1229500000.0 -8.912400000e-02 -9.561590000e-01
1234000000.0 -9.396200000e-02 -9.562450000e-01
1238500000.0 -9.047500000e-02 -9.524160000e-01
1243000000.0 -9.938600000e-02 -9.548770000e-01
1247500000.0 -1.011080000e-01 -9.565220000e-01
1252000000.0 -1.012890000e-01 -9.539000000e-01
1256500000.0 -1.123070000e-01 -9.512330000e-01
1261000000.0 -1.168530000e-01 -9.593000000e-01
1265500000.0 -1.160740000e-01 -9.508500000e-01
1270000000.0 -1.235440000e-01 -9.522240000e-01
1274500000.0 -1.319220000e-01 -9.507770000e-01
1279000000.0 -1.361150000e-01 -9.499000000e-01
1283500000.0 -1.352130000e-01 -9.537520000e-01
1288000000.0 -1.376650000e-01 -9.531010000e-01
1292500000.0 -1.461640000e-01 -9.476870000e-01
1297000000.0 -1.517130000e-01 -9.393120000e-01
1301500000.0 -2.002730000e-01 -8.335480000e-01
1306000000.0 -1.588000000e-01 -9.484490000e-01
1310500000.0 -1.659600000e-01 -9.487710000e-01
1315000000.0 -1.683010000e-01 -9.460530000e-01
1319500000.0 -1.860080000e-01 -9.433740000e-01
1324000000.0 -1.877740000e-01 -9.380330000e-01
1328500000.0 -2.004460000e-01 -9.395880000e-01
1333000000.0 -1.983020000e-01 -9.433590000e-01
1337500000.0 -1.997570000e-01 -9.428510000e-01
1342000000.0 -2.063750000e-01 -9.409350000e-01
1346500000.0 -2.148400000e-01 -9.280240000e-01
1351000000.0 -2.177740000e-01 -9.297060000e-01
1355500000.0 -2.206120000e-01 -9.303340000e-01
1360000000.0 -2.258460000e-01 -9.294650000e-01
1364500000.0 -2.305400000e-01 -9.411290000e-01
1369000000.0 -2.326260000e-01 -9.399760000e-01
1373500000.0 -2.334010000e-01 -9.353880000e-01
1378000000.0 -2.413150000e-01 -9.285830000e-01
1382500000.0 -2.520290000e-01 -9.311260000e-01
1387000000.0 -2.497630000e-01 -9.430000000e-01
1391500000.0 -2.630220000e-01 -9.298820000e-01
1396000000.0 -2.564840000e-01 -9.393520000e-01
1400500000.0 -2.637330000e-01 -9.302060000e-01
1405000000.0 -2.662400000e-01 -9.422950000e-01
1409500000.0 -2.524270000e-01 -9.427030000e-01
1414000000.0 -2.749740000e-01 -9.350170000e-01
1418500000.0 -2.782970000e-01 -9.343090000e-01
1423000000.0 -2.771320000e-01 -9.269690000e-01
1427500000.0 -2.880920000e-01 -9.299610000e-01
1432000000.0 -2.911000000e-01 -9.287230000e-01
1436500000.0 -2.987970000e-01 -9.253530000e-01
1441000000.0 -2.881300000e-01 -9.256110000e-01
1445500000.0 -3.046850000e-01 -9.272560000e-01
1450000000.0 -3.116320000e-01 -9.205200000e-01
