! piloto_corto / aire / r11
# HZ S RI R 50
50000.0 1.007744000e+00 -7.266500000e-02
59500.0 1.002649000e+00 -5.883200000e-02
69000.0 1.004494000e+00 -4.562100000e-02
78500.0 1.002982000e+00 -3.274700000e-02
88000.0 1.000860000e+00 -2.017000000e-02
97500.0 1.001065000e+00 -8.415000000e-03
107000.0 1.000394000e+00 4.429000000e-03
116500.0 9.994690000e-01 1.779000000e-02
126000.0 1.000213000e+00 2.685800000e-02
135500.0 9.997740000e-01 4.026300000e-02
145000.0 1.000165000e+00 5.237400000e-02
154500.0 1.000677000e+00 6.543100000e-02
164000.0 1.001610000e+00 7.684200000e-02
173500.0 1.001656000e+00 8.824400000e-02
183000.0 1.001850000e+00 9.967200000e-02
192500.0 1.002882000e+00 1.116420000e-01
202000.0 1.002905000e+00 1.230540000e-01
211500.0 1.002828000e+00 1.345610000e-01
221000.0 1.003469000e+00 1.462790000e-01
230500.0 1.003167000e+00 1.573100000e-01
240000.0 1.011465000e+00 1.853090000e-01
249500.0 1.004032000e+00 1.793300000e-01
259000.0 1.003292000e+00 1.909600000e-01
268500.0 1.004037000e+00 2.010960000e-01
278000.0 1.004606000e+00 2.121680000e-01
287500.0 1.004287000e+00 2.236510000e-01
297000.0 1.005210000e+00 2.341350000e-01
306500.0 1.005347000e+00 2.442530000e-01
316000.0 9.983620000e-01 2.207840000e-01
325500.0 9.969300000e-01 2.495190000e-01
335000.0 1.004860000e+00 2.775090000e-01
344500.0 1.005043000e+00 2.877910000e-01
354000.0 1.005304000e+00 2.978670000e-01
363500.0 1.005255000e+00 3.076020000e-01
373000.0 1.006076000e+00 3.192420000e-01
382500.0 1.006715000e+00 3.291450000e-01
392000.0 1.006360000e+00 3.392510000e-01
401500.0 1.006565000e+00 3.497630000e-01
411000.0 1.016218000e+00 3.752430000e-01
420500.0 1.007389000e+00 3.706750000e-01
430000.0 1.006962000e+00 3.799640000e-01
439500.0 1.007026000e+00 3.907990000e-01
449000.0 1.007725000e+00 4.012810000e-01
458500.0 1.007757000e+00 4.103420000e-01
468000.0 1.008602000e+00 4.206170000e-01
477500.0 1.008443000e+00 4.310820000e-01
487000.0 1.009388000e+00 4.407250000e-01
496500.0 1.009171000e+00 4.504990000e-01
506000.0 1.009287000e+00 4.598970000e-01
515500.0 1.008724000e+00 4.701170000e-01
525000.0 1.009376000e+00 4.784540000e-01
534500.0 1.010538000e+00 4.895300000e-01
544000.0 1.010007000e+00 4.992290000e-01
553500.0 1.010545000e+00 5.083980000e-01
563000.0 1.011210000e+00 5.186580000e-01
572500.0 1.011739000e+00 5.280260000e-01
582000.0 1.012561000e+00 5.374670000e-01
591500.0 1.013182000e+00 5.468310000e-01
601000.0 1.012264000e+00 5.572770000e-01
610500.0 1.013843000e+00 5.665010000e-01
620000.0 1.013772000e+00 5.755950000e-01
629500.0 1.014596000e+00 5.858600000e-01
639000.0 1.014090000e+00 5.943230000e-01
648500.0 1.015120000e+00 6.025460000e-01
658000.0 1.016159000e+00 6.138150000e-01
667500.0 1.017145000e+00 6.231470000e-01
677000.0 1.016958000e+00 6.319690000e-01
686500.0 1.018578000e+00 6.412990000e-01
696000.0 1.018891000e+00 6.502330000e-01
705500.0 1.019511000e+00 6.606830000e-01
715000.0 1.020149000e+00 6.684540000e-01
724500.0 1.021374000e+00 6.781830000e-01
734000.0 1.021583000e+00 6.874180000e-01
743500.0 1.022445000e+00 6.976320000e-01
753000.0 1.022852000e+00 7.064840000e-01
762500.0 1.023952000e+00 7.153010000e-01
772000.0 1.026188000e+00 7.250180000e-01
781500.0 1.026736000e+00 7.333540000e-01
791000.0 1.028698000e+00 7.428250000e-01
800500.0 1.029068000e+00 7.524370000e-01
810000.0 1.030415000e+00 7.601660000e-01
819500.0 1.032058000e+00 7.693500000e-01
829000.0 1.033615000e+00 7.774780000e-01
838500.0 1.034495000e+00 7.874920000e-01
848000.0 1.036866000e+00 7.961660000e-01
857500.0 1.037351000e+00 8.057080000e-01
867000.0 1.039323000e+00 8.135090000e-01
876500.0 1.041035000e+00 8.238250000e-01
886000.0 1.041829000e+00 8.313180000e-01
895500.0 1.045459000e+00 8.407320000e-01
905000.0 1.045572000e+00 8.484470000e-01
914500.0 1.047678000e+00 8.596880000e-01
924000.0 1.050748000e+00 8.667420000e-01
933500.0 1.053601000e+00 8.760030000e-01
943000.0 1.054233000e+00 8.841530000e-01
952500.0 1.055857000e+00 8.928490000e-01
962000.0 1.058692000e+00 9.012280000e-01
971500.0 1.059221000e+00 9.104040000e-01
981000.0 1.063436000e+00 9.185460000e-01
990500.0 1.067096000e+00 9.286010000e-01
1000000.0 1.068485000e+00 9.370260000e-01
1090000.0 1.092093000e+00 1.013599000e+00
1180000.0 1.128265000e+00 1.090132000e+00
1270000.0 1.174964000e+00 1.159025000e+00
1360000.0 1.228984000e+00 1.222492000e+00
1450000.0 1.292954000e+00 1.276307000e+00
1540000.0 1.367695000e+00 1.315859000e+00
1630000.0 1.447630000e+00 1.344971000e+00
1720000.0 1.537602000e+00 1.351933000e+00
1810000.0 1.626227000e+00 1.339345000e+00
1900000.0 1.707554000e+00 1.310091000e+00
1990000.0 1.788336000e+00 1.260276000e+00
2080000.0 1.854473000e+00 1.193940000e+00
2170000.0 1.905829000e+00 1.113586000e+00
2260000.0 1.942127000e+00 1.029977000e+00
2350000.0 1.955444000e+00 9.406710000e-01
2440000.0 1.955418000e+00 8.530850000e-01
2530000.0 1.947413000e+00 7.701850000e-01
2620000.0 1.925220000e+00 6.924840000e-01
2710000.0 1.896248000e+00 6.225580000e-01
2800000.0 1.860113000e+00 5.604910000e-01
2890000.0 1.824196000e+00 5.071880000e-01
2980000.0 1.787406000e+00 4.618340000e-01
3070000.0 1.748293000e+00 4.192640000e-01
3160000.0 1.707878000e+00 3.817130000e-01
3250000.0 1.672754000e+00 3.477460000e-01
3340000.0 1.637997000e+00 3.206080000e-01
3430000.0 1.605338000e+00 2.932610000e-01
3520000.0 1.573840000e+00 2.686700000e-01
3610000.0 1.544008000e+00 2.479440000e-01
3700000.0 1.517774000e+00 2.267660000e-01
3790000.0 1.492308000e+00 2.069370000e-01
3880000.0 1.467170000e+00 1.894530000e-01
3970000.0 1.446178000e+00 1.735790000e-01
4060000.0 1.426728000e+00 1.565940000e-01
4150000.0 1.407843000e+00 1.421190000e-01
4240000.0 1.389333000e+00 1.260180000e-01
4330000.0 1.373046000e+00 1.116180000e-01
4420000.0 1.359313000e+00 9.581800000e-02
4510000.0 1.346602000e+00 8.228500000e-02
4600000.0 1.334708000e+00 6.893500000e-02
4690000.0 1.324536000e+00 5.782100000e-02
4780000.0 1.313450000e+00 4.346200000e-02
4870000.0 1.304904000e+00 3.066300000e-02
4960000.0 1.297099000e+00 1.684000000e-02
5050000.0 1.282207000e+00 4.857000000e-03
5140000.0 1.277701000e+00 -8.447000000e-03
5230000.0 1.273200000e+00 -2.027800000e-02
5320000.0 1.268531000e+00 -3.222100000e-02
5410000.0 1.262425000e+00 -4.460300000e-02
5500000.0 1.258933000e+00 -5.638500000e-02
5590000.0 1.254486000e+00 -6.835400000e-02
5680000.0 1.251205000e+00 -7.940700000e-02
5770000.0 1.248207000e+00 -9.124400000e-02
5860000.0 1.243956000e+00 -1.016220000e-01
5950000.0 1.241157000e+00 -1.128530000e-01
6040000.0 1.238454000e+00 -1.223500000e-01
6130000.0 1.235744000e+00 -1.317330000e-01
6220000.0 1.232325000e+00 -1.415160000e-01
6310000.0 1.230171000e+00 -1.511800000e-01
6400000.0 1.229450000e+00 -1.581660000e-01
6490000.0 1.228149000e+00 -1.675430000e-01
6580000.0 1.225267000e+00 -1.751960000e-01
6670000.0 1.223835000e+00 -1.822960000e-01
6760000.0 1.228652000e+00 -1.672240000e-01
6850000.0 1.216004000e+00 -2.145880000e-01
6940000.0 1.225769000e+00 -1.761990000e-01
7030000.0 1.214207000e+00 -2.239800000e-01
7120000.0 1.224416000e+00 -1.840210000e-01
7210000.0 1.212846000e+00 -2.309560000e-01
7300000.0 1.218208000e+00 -2.101900000e-01
7390000.0 1.212341000e+00 -2.316290000e-01
7480000.0 1.217721000e+00 -2.098770000e-01
7570000.0 -2.611290000e-01 -1.257266000e+00
7660000.0 -2.609530000e-01 -1.257810000e+00
7750000.0 -2.599440000e-01 -1.258009000e+00
7840000.0 -2.585430000e-01 -1.259022000e+00
7930000.0 -2.597830000e-01 -1.258430000e+00
8020000.0 -2.587500000e-01 -1.258654000e+00
8110000.0 -2.576930000e-01 -1.259735000e+00
8200000.0 -2.580080000e-01 -1.259716000e+00
8290000.0 -2.565750000e-01 -1.261056000e+00
8380000.0 -2.556460000e-01 -1.260780000e+00
8470000.0 -2.554150000e-01 -1.260351000e+00
8560000.0 -2.558490000e-01 -1.260900000e+00
8650000.0 -2.556550000e-01 -1.261852000e+00
8740000.0 -2.541760000e-01 -1.262122000e+00
8830000.0 -2.541850000e-01 -1.263074000e+00
8920000.0 -2.530820000e-01 -1.263630000e+00
9010000.0 -2.533200000e-01 -1.264722000e+00
9100000.0 -2.525480000e-01 -1.264806000e+00
9190000.0 -2.521560000e-01 -1.267216000e+00
9280000.0 -2.522280000e-01 -1.266569000e+00
9370000.0 -2.521660000e-01 -1.268040000e+00
9460000.0 -2.513690000e-01 -1.268138000e+00
9550000.0 -2.511610000e-01 -1.270361000e+00
9640000.0 -2.498380000e-01 -1.269508000e+00
9730000.0 -2.490830000e-01 -1.270862000e+00
9820000.0 -2.490930000e-01 -1.270759000e+00
9910000.0 -2.477990000e-01 -1.272881000e+00
10000000.0 -2.479320000e-01 -1.273272000e+00
10900000.0 -2.432920000e-01 -1.281770000e+00
11800000.0 -2.399290000e-01 -1.289510000e+00
12700000.0 -2.377770000e-01 -1.301206000e+00
13600000.0 -2.338420000e-01 -1.310495000e+00
14500000.0 -2.296970000e-01 -1.321565000e+00
15400000.0 -2.250590000e-01 -1.333350000e+00
16300000.0 -2.219150000e-01 -1.343664000e+00
17200000.0 -2.180400000e-01 -1.354900000e+00
18100000.0 -2.128590000e-01 -1.365998000e+00
19000000.0 -2.075060000e-01 -1.378904000e+00
19900000.0 -2.024400000e-01 -1.390480000e+00
20800000.0 -1.972550000e-01 -1.406070000e+00
21700000.0 -1.919890000e-01 -1.417075000e+00
22600000.0 -1.842730000e-01 -1.429531000e+00
23500000.0 -1.789100000e-01 -1.444643000e+00
24400000.0 -1.708580000e-01 -1.457469000e+00
25300000.0 -1.636990000e-01 -1.471097000e+00
26200000.0 -1.567830000e-01 -1.485717000e+00
27100000.0 -1.478950000e-01 -1.499780000e+00
28000000.0 -1.411000000e-01 -1.513043000e+00
28900000.0 -1.311680000e-01 -1.527524000e+00
29800000.0 -1.202440000e-01 -1.543559000e+00
30700000.0 -1.096030000e-01 -1.558645000e+00
31600000.0 -1.006080000e-01 -1.572630000e+00
32500000.0 -8.809200000e-02 -1.588555000e+00
33400000.0 -7.642200000e-02 -1.603487000e+00
34300000.0 -6.308600000e-02 -1.618723000e+00
35200000.0 -5.088200000e-02 -1.633468000e+00
36100000.0 -3.785200000e-02 -1.649330000e+00
37000000.0 -2.297800000e-02 -1.665332000e+00
37900000.0 -8.618000000e-03 -1.680869000e+00
38800000.0 8.521000000e-03 -1.695891000e+00
39700000.0 2.484500000e-02 -1.711887000e+00
40600000.0 4.214900000e-02 -1.728904000e+00
41500000.0 6.030000000e-02 -1.743262000e+00
42400000.0 7.763800000e-02 -1.758615000e+00
43300000.0 9.794100000e-02 -1.773104000e+00
44200000.0 1.172940000e-01 -1.787530000e+00
45100000.0 1.409790000e-01 -1.802274000e+00
46000000.0 1.643950000e-01 -1.816542000e+00
46900000.0 1.853590000e-01 -1.830740000e+00
47800000.0 2.092640000e-01 -1.844984000e+00
48700000.0 2.351690000e-01 -1.857529000e+00
49600000.0 2.604700000e-01 -1.869748000e+00
50500000.0 2.892540000e-01 -1.881686000e+00
51400000.0 3.151470000e-01 -1.893403000e+00
52300000.0 3.427170000e-01 -1.901570000e+00
53200000.0 3.739720000e-01 -1.915368000e+00
54100000.0 4.045050000e-01 -1.923635000e+00
55000000.0 4.359530000e-01 -1.931435000e+00
55900000.0 4.676700000e-01 -1.938432000e+00
56800000.0 4.988750000e-01 -1.944929000e+00
57700000.0 5.340890000e-01 -1.947762000e+00
58600000.0 5.666130000e-01 -1.950542000e+00
59500000.0 6.026970000e-01 -1.954218000e+00
60400000.0 6.380170000e-01 -1.955546000e+00
61300000.0 6.753000000e-01 -1.954683000e+00
62200000.0 7.133540000e-01 -1.954125000e+00
63100000.0 7.486510000e-01 -1.950141000e+00
64000000.0 7.846290000e-01 -1.945317000e+00
64900000.0 8.203070000e-01 -1.936344000e+00
65800000.0 8.614800000e-01 -1.927512000e+00
66700000.0 8.960620000e-01 -1.918612000e+00
67600000.0 9.369710000e-01 -1.907034000e+00
68500000.0 9.719510000e-01 -1.890973000e+00
69400000.0 1.008444000e+00 -1.877248000e+00
70300000.0 1.043522000e+00 -1.859125000e+00
71200000.0 1.078411000e+00 -1.840723000e+00
72100000.0 1.111388000e+00 -1.815493000e+00
73000000.0 1.146488000e+00 -1.798934000e+00
73900000.0 1.177064000e+00 -1.773234000e+00
74800000.0 1.207303000e+00 -1.749828000e+00
75700000.0 1.237452000e+00 -1.723436000e+00
76600000.0 1.267689000e+00 -1.693426000e+00
77500000.0 1.295130000e+00 -1.665545000e+00
78400000.0 1.320046000e+00 -1.635745000e+00
79300000.0 1.343657000e+00 -1.605669000e+00
80200000.0 1.365760000e+00 -1.572939000e+00
81100000.0 1.389164000e+00 -1.541503000e+00
82000000.0 1.405664000e+00 -1.509025000e+00
82900000.0 1.422044000e+00 -1.476508000e+00
83800000.0 1.440135000e+00 -1.442760000e+00
84700000.0 1.453217000e+00 -1.408944000e+00
85600000.0 1.464767000e+00 -1.373739000e+00
86500000.0 1.476542000e+00 -1.339670000e+00
87400000.0 1.487481000e+00 -1.305657000e+00
88300000.0 1.494493000e+00 -1.274583000e+00
89200000.0 1.503026000e+00 -1.241136000e+00
90100000.0 1.509146000e+00 -1.207734000e+00
91000000.0 1.513550000e+00 -1.175236000e+00
91900000.0 1.514965000e+00 -1.143286000e+00
92800000.0 1.516827000e+00 -1.111244000e+00
93700000.0 1.515676000e+00 -1.081083000e+00
94600000.0 1.516464000e+00 -1.050463000e+00
95500000.0 1.515579000e+00 -1.020027000e+00
96400000.0 1.513892000e+00 -9.916400000e-01
97300000.0 1.509855000e+00 -9.619970000e-01
98200000.0 1.506065000e+00 -9.350570000e-01
99100000.0 1.502147000e+00 -9.063360000e-01
100000000.0 1.512811000e+00 -8.532800000e-01
109000000.0 1.416081000e+00 -6.580080000e-01
118000000.0 1.311240000e+00 -4.973640000e-01
127000000.0 1.204254000e+00 -3.836420000e-01
136000000.0 1.102762000e+00 -3.083500000e-01
145000000.0 1.011629000e+00 -2.523750000e-01
154000000.0 9.641870000e-01 -2.345790000e-01
163000000.0 9.614760000e-01 -2.471620000e-01
172000000.0 9.578450000e-01 -2.608570000e-01
181000000.0 9.539160000e-01 -2.737430000e-01
190000000.0 9.496190000e-01 -2.864180000e-01
199000000.0 9.457490000e-01 -2.992250000e-01
208000000.0 9.407960000e-01 -3.117340000e-01
217000000.0 9.382040000e-01 -3.228200000e-01
226000000.0 9.311040000e-01 -3.374610000e-01
235000000.0 9.267010000e-01 -3.486530000e-01
244000000.0 9.219510000e-01 -3.601380000e-01
253000000.0 9.164920000e-01 -3.720960000e-01
262000000.0 9.110470000e-01 -3.833490000e-01
271000000.0 9.056850000e-01 -3.939550000e-01
280000000.0 8.986120000e-01 -4.065750000e-01
289000000.0 8.921210000e-01 -4.171350000e-01
298000000.0 8.840760000e-01 -4.270980000e-01
307000000.0 8.788440000e-01 -4.392640000e-01
316000000.0 8.739080000e-01 -4.522670000e-01
325000000.0 8.725260000e-01 -4.638290000e-01
334000000.0 8.657320000e-01 -4.724360000e-01
343000000.0 8.584070000e-01 -4.848000000e-01
352000000.0 8.520630000e-01 -4.963400000e-01
361000000.0 8.458810000e-01 -5.046720000e-01
370000000.0 8.632730000e-01 -4.901880000e-01
379000000.0 8.319930000e-01 -5.256040000e-01
388000000.0 7.873070000e-01 -5.762700000e-01
397000000.0 8.179090000e-01 -5.459100000e-01
406000000.0 8.342620000e-01 -5.312090000e-01
415000000.0 8.005820000e-01 -5.664710000e-01
424000000.0 7.917750000e-01 -5.750100000e-01
433000000.0 7.848330000e-01 -5.815210000e-01
442000000.0 7.741040000e-01 -5.962800000e-01
451000000.0 7.663390000e-01 -6.022420000e-01
460000000.0 7.604950000e-01 -6.129680000e-01
469000000.0 7.540260000e-01 -6.222270000e-01
478000000.0 7.497020000e-01 -6.304730000e-01
487000000.0 7.422580000e-01 -6.426360000e-01
496000000.0 7.344680000e-01 -6.516680000e-01
505000000.0 7.278900000e-01 -6.613070000e-01
514000000.0 7.203420000e-01 -6.705120000e-01
523000000.0 7.133110000e-01 -6.786160000e-01
532000000.0 7.072290000e-01 -6.864180000e-01
541000000.0 6.959900000e-01 -6.961470000e-01
550000000.0 6.882960000e-01 -7.008010000e-01
559000000.0 6.624800000e-01 -7.268410000e-01
568000000.0 6.667530000e-01 -7.190710000e-01
577000000.0 6.554790000e-01 -7.260330000e-01
586000000.0 6.467700000e-01 -7.349030000e-01
595000000.0 6.350330000e-01 -7.432570000e-01
604000000.0 6.260330000e-01 -7.506790000e-01
613000000.0 6.364520000e-01 -7.482570000e-01
622000000.0 6.135450000e-01 -7.711590000e-01
631000000.0 5.864310000e-01 -7.922100000e-01
640000000.0 5.931980000e-01 -7.915420000e-01
649000000.0 6.133710000e-01 -7.791260000e-01
658000000.0 5.745950000e-01 -8.068350000e-01
667000000.0 5.633680000e-01 -8.128100000e-01
676000000.0 5.551430000e-01 -8.191400000e-01
685000000.0 5.429300000e-01 -8.249100000e-01
694000000.0 5.365850000e-01 -8.313890000e-01
703000000.0 5.205490000e-01 -8.369190000e-01
712000000.0 5.113350000e-01 -8.445040000e-01
721000000.0 5.016120000e-01 -8.401530000e-01
730000000.0 4.890390000e-01 -8.465220000e-01
739000000.0 4.751810000e-01 -8.490020000e-01
748000000.0 4.627480000e-01 -8.518860000e-01
757000000.0 4.504840000e-01 -8.576790000e-01
766000000.0 4.379190000e-01 -8.665780000e-01
775000000.0 4.291230000e-01 -8.716510000e-01
784000000.0 4.156700000e-01 -8.793440000e-01
793000000.0 4.054390000e-01 -8.858220000e-01
802000000.0 3.950460000e-01 -8.927130000e-01
811000000.0 3.812930000e-01 -8.993470000e-01
820000000.0 3.723770000e-01 -9.005430000e-01
829000000.0 3.630280000e-01 -9.042860000e-01
838000000.0 3.535710000e-01 -9.072960000e-01
847000000.0 3.445240000e-01 -9.113070000e-01
856000000.0 3.297060000e-01 -9.146340000e-01
865000000.0 3.189890000e-01 -9.166670000e-01
874000000.0 3.095500000e-01 -9.198860000e-01
883000000.0 3.088320000e-01 -9.159070000e-01
892000000.0 2.940070000e-01 -9.199300000e-01
901000000.0 2.860740000e-01 -9.196810000e-01
910000000.0 2.699200000e-01 -9.220130000e-01
919000000.0 2.623140000e-01 -9.251060000e-01
928000000.0 2.502360000e-01 -9.280030000e-01
937000000.0 2.358720000e-01 -9.313760000e-01
946000000.0 2.274570000e-01 -9.326160000e-01
955000000.0 2.180760000e-01 -9.339550000e-01
964000000.0 2.062460000e-01 -9.360480000e-01
973000000.0 1.988010000e-01 -9.372550000e-01
982000000.0 1.891220000e-01 -9.390430000e-01
991000000.0 1.782180000e-01 -9.404480000e-01
1000000000.0 1.670010000e-01 -9.436970000e-01
1004500000.0 1.658650000e-01 -9.422770000e-01
1009000000.0 1.611980000e-01 -9.453020000e-01
1013500000.0 1.554660000e-01 -9.468490000e-01
1018000000.0 1.524530000e-01 -9.459150000e-01
1022500000.0 1.443300000e-01 -9.459480000e-01
1027000000.0 1.387800000e-01 -9.479730000e-01
1031500000.0 1.323670000e-01 -9.490290000e-01
1036000000.0 1.292500000e-01 -9.503710000e-01
1040500000.0 1.241270000e-01 -9.497440000e-01
1045000000.0 1.266200000e-01 -9.498700000e-01
1049500000.0 1.149670000e-01 -9.512320000e-01
1054000000.0 1.120840000e-01 -9.524770000e-01
1058500000.0 1.112960000e-01 -9.532290000e-01
1063000000.0 1.025880000e-01 -9.527180000e-01
1067500000.0 9.638000000e-02 -9.536850000e-01
1072000000.0 9.185800000e-02 -9.537900000e-01
1076500000.0 8.456900000e-02 -9.538970000e-01
1081000000.0 8.151700000e-02 -9.538390000e-01
1085500000.0 7.638600000e-02 -9.550270000e-01
1090000000.0 7.389800000e-02 -9.554490000e-01
1094500000.0 6.962800000e-02 -9.594850000e-01
1099000000.0 6.466000000e-02 -9.579900000e-01
1103500000.0 6.242800000e-02 -9.572920000e-01
1108000000.0 4.945500000e-02 -9.588450000e-01
1112500000.0 5.199000000e-02 -9.579640000e-01
1117000000.0 4.405400000e-02 -9.586570000e-01
1121500000.0 3.684000000e-02 -9.603070000e-01
1126000000.0 3.092600000e-02 -9.590140000e-01
1130500000.0 2.331700000e-02 -9.581160000e-01
1135000000.0 -1.163300000e-02 -9.500050000e-01
1139500000.0 1.413300000e-02 -9.609740000e-01
1144000000.0 4.930300000e-02 -9.646410000e-01
1148500000.0 1.532000000e-03 -9.604040000e-01
1153000000.0 3.154000000e-03 -9.589990000e-01
1157500000.0 3.134200000e-02 -9.629000000e-01
1162000000.0 -8.349000000e-03 -9.574790000e-01
1166500000.0 -2.146600000e-02 -9.595620000e-01
1171000000.0 -2.083100000e-02 -9.561130000e-01
1175500000.0 -2.980300000e-02 -9.579220000e-01
1180000000.0 -3.417300000e-02 -9.564950000e-01
1184500000.0 -3.797000000e-02 -9.576910000e-01
1189000000.0 -4.487700000e-02 -9.563900000e-01
1193500000.0 -5.058500000e-02 -9.515730000e-01
1198000000.0 -5.140300000e-02 -9.542840000e-01
1202500000.0 -5.990200000e-02 -9.549260000e-01
1207000000.0 -6.477000000e-02 -9.542200000e-01
1211500000.0 -6.383500000e-02 -9.561580000e-01
1216000000.0 -7.094100000e-02 -9.553750000e-01
1220500000.0 -7.714300000e-02 -9.554220000e-01
1225000000.0 -7.593600000e-02 -9.518350000e-01
1229500000.0 -8.645700000e-02 -9.589150000e-01
1234000000.0 -8.968400000e-02 -9.578310000e-01
1238500000.0 -8.915400000e-02 -9.559400000e-01
1243000000.0 -9.753400000e-02 -9.542130000e-01
1247500000.0 -1.012050000e-01 -9.568440000e-01
1252000000.0 -1.052110000e-01 -9.580020000e-01
1256500000.0 -1.106580000e-01 -9.570220000e-01
1261000000.0 -1.136000000e-01 -9.525640000e-01
1265500000.0 -1.244550000e-01 -9.535180000e-01
1270000000.0 -1.261210000e-01 -9.530860000e-01
1274500000.0 -1.324880000e-01 -9.526300000e-01
1279000000.0 -1.329550000e-01 -9.486240000e-01
1283500000.0 -1.384860000e-01 -9.483510000e-01
1288000000.0 -1.459180000e-01 -9.452200000e-01
1292500000.0 -1.428060000e-01 -9.477270000e-01
1297000000.0 -1.581080000e-01 -9.497330000e-01
1301500000.0 -1.751690000e-01 -8.140420000e-01
1306000000.0 -1.619880000e-01 -9.489110000e-01
1310500000.0 -1.684030000e-01 -9.396470000e-01
1315000000.0 -1.746760000e-01 -9.428940000e-01
1319500000.0 -1.793560000e-01 -9.447970000e-01
1324000000.0 -1.814530000e-01 -9.397400000e-01
1328500000.0 -1.981290000e-01 -9.338400000e-01
1333000000.0 -1.911670000e-01 -9.338200000e-01
1337500000.0 -2.076200000e-01 -9.313060000e-01
1342000000.0 -2.033270000e-01 -9.364830000e-01
1346500000.0 -2.079340000e-01 -9.328300000e-01
1351000000.0 -2.140590000e-01 -9.367720000e-01
1355500000.0 -2.198950000e-01 -9.354830000e-01
1360000000.0 -2.301930000e-01 -9.338670000e-01
1364500000.0 -2.239030000e-01 -9.321010000e-01
1369000000.0 -2.295770000e-01 -9.386630000e-01
1373500000.0 -2.383520000e-01 -9.375120000e-01
1378000000.0 -2.369830000e-01 -9.330790000e-01
1382500000.0 -2.486450000e-01 -9.355200000e-01
1387000000.0 -2.451080000e-01 -9.332800000e-01
1391500000.0 -2.515240000e-01 -9.318740000e-01
1396000000.0 -2.481730000e-01 -9.365160000e-01
1400500000.0 -2.747080000e-01 -9.277940000e-01
1405000000.0 -2.665520000e-01 -9.408380000e-01
1409500000.0 -2.681230000e-01 -9.345950000e-01
1414000000.0 -2.748880000e-01 -9.249140000e-01
1418500000.0 -2.730260000e-01 -9.289610000e-01
1423000000.0 -2.853450000e-01 -9.415370000e-01
1427500000.0 -2.969900000e-01 -9.421270000e-01
1432000000.0 -2.886710000e-01 -9.317920000e-01
1436500000.0 -3.007620000e-01 -9.232530000e-01
1441000000.0 -3.018390000e-01 -9.222830000e-01
1445500000.0 -3.025830000e-01 -9.283320000e-01
1450000000.0 -3.105510000e-01 -9.236140000e-01
